           6
  t=         0.00000    2    2
C      -0.677389270     -0.001361319     -0.000371271
C       0.678643928      0.000149371      0.009175261
H      -1.210748658      0.948693801     -0.035070458
H      -1.251338170     -0.941032802     -0.010788500
H       1.218488351      0.926175919     -0.015729338
H       1.228648411     -0.919395730     -0.043317171
           6
  t=         0.50000    1    1
C      -0.679363495     -0.002258689      0.000451523
C       0.683902841      0.002078168      0.009039673
H      -1.223052809      0.948985090     -0.038449505
H      -1.261558845     -0.936189040     -0.015274437
H       1.208631976      0.920835517     -0.016021336
H       1.221890460     -0.931480787     -0.043347824
           6
  t=         1.00000    1    1
C      -0.686669248     -0.007923491     -0.003513283
C       0.684670024     -0.000940235      0.004108374
H      -1.292086736      0.891000738     -0.098849087
H      -1.327907936     -0.986702973     -0.076399082
H       1.143469861      0.860199406     -0.072945061
H       1.158866572     -1.000361028     -0.100376525
           6
  t=         1.50000    1    1
C      -0.694091390     -0.013967676     -0.007655544
C       0.684511448     -0.005138951     -0.000896355
H      -1.360405673      0.833144231     -0.157990064
H      -1.390180068     -1.032377683     -0.136627292
H       1.085561015      0.810128253     -0.130363840
H       1.096215379     -1.066188445     -0.156075730
           6
  t=         2.00000    1    1
C      -0.701832016     -0.020629724     -0.012126775
C       0.682841635     -0.011630068     -0.005874712
H      -1.427141713      0.776266120     -0.215298704
H      -1.445937035     -1.071202540     -0.194720492
H       1.040785707      0.780898007     -0.190141251
H       1.034134929     -1.126007271     -0.209777997
           6
  t=         2.50000    1    1
C      -0.710105894     -0.028057593     -0.017071237
C       0.679290519     -0.021145516     -0.010685772
H      -1.491153268      0.720754696     -0.270177771
H      -1.493352724     -1.101961766     -0.249399956
H       1.012624086      0.779093183     -0.254793792
H       0.973146071     -1.177521610     -0.260803033
           6
  t=         3.00000    1    1
C      -0.719096976     -0.036320632     -0.022613065
C       0.673890849     -0.033616193     -0.015311157
H      -1.551108939      0.666650303     -0.322033200
H      -1.531354201     -1.124093748     -0.299587592
H       0.999917834      0.802716734     -0.325298618
H       0.913804504     -1.219333452     -0.308585681
           6
  t=         3.50000    1    1
C      -0.728952953     -0.045403222     -0.028872432
C       0.666965800     -0.048321339     -0.019948196
H      -1.605622466      0.613784800     -0.370138793
H      -1.559527245     -1.137690356     -0.344518495
H       0.998269095      0.842662171     -0.399812844
H       0.856616578     -1.250850732     -0.352676665
           6
  t=         4.00000    1    1
C      -0.739799024     -0.055239810     -0.035988083
C       0.658873263     -0.064460859     -0.024867007
H      -1.653417211      0.561909872     -0.413592756
H      -1.577804660     -1.143157938     -0.383643225
H       1.003143107      0.889287128     -0.475213410
H       0.802000514     -1.272091200     -0.392778412
           6
  t=         4.50000    1    1
C      -0.751718498     -0.065753220     -0.044116625
C       0.649893552     -0.081395827     -0.030300037
H      -1.693395925      0.511034269     -0.451442583
H      -1.586342781     -1.141228871     -0.416492686
H       1.010928627      0.935009886     -0.548413787
H       0.750279214     -1.283282344     -0.428763205
           6
  t=         5.00000    1    1
C      -0.764793025     -0.076884795     -0.053371541
C       0.640198691     -0.098689399     -0.036450242
H      -1.724706922      0.462025656     -0.483019821
H      -1.585249425     -1.133218506     -0.442592988
H       1.019258346      0.974626930     -0.616824375
H       0.701999275     -1.284677210     -0.460592398
           6
  t=         5.50000    1    1
C      -0.779024767     -0.088610672     -0.063791607
C       0.629837351     -0.116021678     -0.043507353
H      -1.747066743      0.416662724     -0.508148900
H      -1.574660851     -1.120949878     -0.461504853
H       1.026619540      1.004735240     -0.678315130
H       0.657972003     -1.276924555     -0.488288083
           6
  t=         6.00000    1    1
C      -0.794341340     -0.100955988     -0.075352849
C       0.618787064     -0.133161868     -0.051610865
H      -1.760857060      0.376971231     -0.527062102
H      -1.554782550     -1.106085847     -0.472929760
H       1.032168700      1.023530085     -0.731509284
H       0.619033287     -1.261033122     -0.511916744
           6
  t=         6.50000    1    1
C      -0.810579953     -0.113940095     -0.087940124
C       0.606959179     -0.150028305     -0.060784304
H      -1.766946720      0.344142086     -0.540406684
H      -1.526008112     -1.089548273     -0.477069932
H       1.035649160      1.030906212     -0.776404604
H       0.585818812     -1.237909171     -0.531722817
           6
  t=         7.00000    1    1
C      -0.827483845     -0.127556586     -0.101467721
C       0.594285744     -0.166536566     -0.070973285
H      -1.766574872      0.319083725     -0.548795439
H      -1.489343289     -1.072548261     -0.474261172
H       1.036874369      1.027283856     -0.813277507
H       0.558510259     -1.208752599     -0.548150636
           6
  t=         7.50000    1    1
C      -0.844761966     -0.141743908     -0.115836428
C       0.580731903     -0.182522455     -0.082098412
H      -1.761356328      0.302700352     -0.552866323
H      -1.446279184     -1.056862895     -0.465050590
H       1.035657376      1.012976861     -0.842254796
H       0.537347733     -1.175694303     -0.562016555
           6
  t=         8.00000    1    1
C      -0.862106987     -0.156366829     -0.130910654
C       0.566276129     -0.197723578     -0.094072263
H      -1.753209390      0.295861430     -0.553271753
H      -1.398589192     -1.044869949     -0.450267749
H       1.031834320      0.988060499     -0.863222948
H       0.522781296     -1.142039240     -0.574609461
           6
  t=         8.50000    1    1
C      -0.879170025     -0.171182149     -0.146501362
C       0.550887519     -0.211798190     -0.106803129
H      -1.744070301      0.299165468     -0.550636110
H      -1.348487238     -1.039856940     -0.431232866
H       1.025270260      0.952444430     -0.875896712
H       0.515307093     -1.111978046     -0.587615310
           6
  t=         9.00000    1    1
C      -0.895548080     -0.185828666     -0.162382364
C       0.534512257     -0.224356394     -0.120205487
H      -1.735549456      0.312725431     -0.545435318
H      -1.298859520     -1.046241538     -0.409773957
H       1.015889117      0.905973888     -0.879869090
H       0.515337044     -1.090001150     -0.602851378
           6
  t=         9.50000    1    1
C      -0.910863406     -0.199914891     -0.178356528
C       0.517099848     -0.235029658     -0.134198810
H      -1.728658391      0.335953927     -0.537902377
H      -1.252800151     -1.068514742     -0.387709927
H       1.003675863      0.848681490     -0.874789340
H       0.523092420     -1.080118897     -0.621925011
           6
  t=        10.00000    1    1
C      -0.924883203     -0.213174309     -0.194314881
C       0.498629245     -0.243588742     -0.148752394
H      -1.723751833      0.367681386     -0.528091773
H      -1.212674690     -1.109437595     -0.366064798
H       0.988692163      0.780996102     -0.860436329
H       0.538708640     -1.084736807     -0.645643174
           6
  t=        10.50000    1    1
C      -0.937581930     -0.225633315     -0.210252593
C       0.479114963     -0.250054763     -0.163940244
H      -1.720660217      0.406499791     -0.515997273
H      -1.179345705     -1.168200522     -0.344644450
H       0.971161338      0.703966572     -0.836773258
H       0.562178096     -1.103739168     -0.673418761
           6
  t=        11.00000    1    1
C      -0.949144543     -0.237654756     -0.226220753
C       0.458654026     -0.254812716     -0.179886710
H      -1.718672055      0.450448063     -0.501653089
H      -1.152346374     -1.239374126     -0.322623505
H       0.951710891      0.619935689     -0.804628892
H       0.592742761     -1.134026031     -0.703123702
           6
  t=        11.50000    1    1
C      -0.959806195     -0.249716770     -0.242252115
C       0.437375085     -0.258474410     -0.196699895
H      -1.716699155      0.497032345     -0.485056407
H      -1.131319378     -1.315589841     -0.299481922
H       0.931622854      0.532673469     -0.765728933
H       0.628944114     -1.171254651     -0.731876734
           6
  t=        12.00000    1    1
C      -0.969762912     -0.262207845     -0.258347819
C       0.415343910     -0.261780513     -0.214399786
H      -1.713633792      0.543782718     -0.466083531
H      -1.116303429     -1.390433092     -0.275226372
H       0.913227841      0.447488392     -0.722793704
H       0.668934619     -1.211223536     -0.756822806
           6
  t=        12.50000    1    1
C      -0.979203139     -0.275326330     -0.274478638
C       0.392443872     -0.265625567     -0.232802480
H      -1.708508146      0.588165926     -0.444564134
H      -1.107513052     -1.459217419     -0.250195462
H       0.901045916      0.371903734     -0.680241754
H       0.711076095     -1.250586624     -0.775914701
           6
  t=        13.00000    1    1
C      -0.988332214     -0.289134906     -0.290603389
C       0.368365505     -0.270999698     -0.251564586
H      -1.700665680      0.627829000     -0.420327332
H      -1.105398366     -1.518663956     -0.224810903
H       0.902143154      0.315145284     -0.643636027
H       0.754230275     -1.286950680     -0.787921080
           6
  t=        13.50000    1    1
C      -0.997420298     -0.303655113     -0.306682797
C       0.342935778     -0.278703912     -0.270387558
H      -1.689714017      0.660760289     -0.393352461
H      -1.110558414     -1.566150128     -0.199641210
H       0.923123811      0.284408079     -0.617134982
H       0.797280510     -1.318320500     -0.792161027
           6
  t=        14.00000    1    1
C      -1.006730304     -0.318905141     -0.322612253
C       0.316444939     -0.288915555     -0.289296502
H      -1.675244088      0.685532677     -0.364472821
H      -1.123032604     -1.600118053     -0.175297624
H       0.965383411      0.280446088     -0.600049962
H       0.838135896     -1.343250854     -0.788825979
           6
  t=        14.50000    1    1
C      -1.016382050     -0.334782916     -0.338306928
C       0.289580975     -0.301163186     -0.308624825
H      -1.657198929      0.701135197     -0.334404795
H      -1.142180263     -1.620491361     -0.152171147
H       1.023262529      0.297137924     -0.587632180
H       0.874988092     -1.361519589     -0.778595357
           6
  t=        15.00000    1    1
C      -1.026515901     -0.351151377     -0.353692572
C       0.263341302     -0.314766072     -0.328703078
H      -1.635830405      0.706930940     -0.303653110
H      -1.167236363     -1.627709352     -0.130727531
H       1.087302012      0.325863929     -0.575294223
H       0.906570760     -1.373175400     -0.762032094
           6
  t=        15.50000    1    1
C      -1.037330008     -0.367886537     -0.368685545
C       0.238628093     -0.329209871     -0.349675743
H      -1.611629375      0.702688117     -0.272716797
H      -1.197490930     -1.622418290     -0.111477851
H       1.149725751      0.359926197     -0.560765981
H       0.932052003     -1.378248439     -0.739671230
           6
  t=        16.00000    1    1
C      -1.049021531     -0.384875972     -0.383198923
C       0.216128157     -0.344171655     -0.371551875
H      -1.585277388      0.688496931     -0.242117499
H      -1.232264953     -1.605367995     -0.094882372
H       1.205268469      0.394958624     -0.543386051
H       0.950865123     -1.376900516     -0.712120110
           6
  t=        16.50000    1    1
C      -1.061739100     -0.402019563     -0.397149751
C       0.196333504     -0.359452623     -0.394261946
H      -1.557599378      0.664810099     -0.212393459
H      -1.270949652     -1.577484553     -0.081320050
H       1.250458522      0.428223885     -0.523323498
H       0.962606316     -1.369482753     -0.680109430
           6
  t=        17.00000    1    1
C      -1.075566184     -0.419228855     -0.410471491
C       0.179547040     -0.374944380     -0.417689876
H      -1.529556536      0.632575273     -0.184077100
H      -1.313061236     -1.540088154     -0.070965032
H       1.283399781      0.458169698     -0.501134743
H       0.967034377     -1.356415954     -0.644552183
           6
  t=        17.50000    1    1
C      -1.090526390     -0.436408411     -0.423122472
C       0.165927724     -0.390604743     -0.441705343
H      -1.502252991      0.593303397     -0.157649955
H      -1.358272816     -1.495101803     -0.063694680
H       1.303316826      0.484100679     -0.477438094
H       0.964089150     -1.338232498     -0.606520610
           6
  t=        18.00000    1    1
C      -1.106596569     -0.453447548     -0.435086600
C       0.155548454     -0.406436383     -0.466184569
H      -1.476930444      0.548975616     -0.133495386
H      -1.406415806     -1.444950472     -0.059102924
H       1.310052208      0.505916532     -0.452754418
H       0.953856740     -1.315675285     -0.567183200
           6
  t=        18.50000    1    1
C      -1.123595294     -0.470222894     -0.446426362
C       0.148272979     -0.422422143     -0.490985224
H      -1.454626705      0.501791389     -0.111383861
H      -1.457569672     -1.392608093     -0.056721436
H       1.303857609      0.523613369     -0.427947596
H       0.936664433     -1.289640470     -0.527325330
           6
  t=        19.00000    1    1
C      -1.141184414     -0.486567601     -0.457276619
C       0.143811408     -0.438488248     -0.515935048
H      -1.436396873      0.454323936     -0.090892227
H      -1.512196291     -1.341904123     -0.055625215
H       1.284861075      0.536888304     -0.403921915
H       0.913326104     -1.261436106     -0.487836479
           6
  t=        19.50000    1    1
C      -1.158869107     -0.502300731     -0.467846856
C       0.141680230     -0.454489609     -0.540818386
H      -1.423246566      0.409720901     -0.071463119
H      -1.571210309     -1.297380992     -0.054459426
H       1.253210878      0.545200521     -0.381652656
H       0.885478992     -1.233011426     -0.449727113
           6
  t=        20.00000    1    1
C      -1.176167264     -0.517300367     -0.478321434
C       0.141341291     -0.470220099     -0.565474797
H      -1.416090199      0.371413531     -0.052644522
H      -1.635762391     -1.263092541     -0.051866469
H       1.209089434      0.548033075     -0.361819921
H       0.855673538     -1.207135752     -0.413841719
           6
  t=        20.50000    1    1
C      -1.192724656     -0.531541723     -0.488800980
C       0.142246069     -0.485398852     -0.589805848
H      -1.415392345      0.341737263     -0.034145430
H      -1.706589794     -1.241020313     -0.047247042
H       1.152708203      0.544851798     -0.345061025
H       0.827215267     -1.187270858     -0.380407109
           6
  t=        21.00000    1    1
C      -1.208373527     -0.545089637     -0.499260129
C       0.143878392     -0.499728823     -0.613756589
H      -1.421096208      0.321741948     -0.016050121
H      -1.783173195     -1.230877303     -0.041192199
H       1.084240078      0.535129055     -0.332061881
H       0.803506780     -1.176992877     -0.349019091
           6
  t=        21.50000    1    1
C      -1.223131099     -0.558048127     -0.509555077
C       0.145816923     -0.512998689     -0.637307047
H      -1.432667081      0.311206544      0.001115741
H      -1.863565841     -1.230749737     -0.035277550
H       1.004017582      0.518530732     -0.323460972
H       0.786959798     -1.178939034     -0.318889405
           6
  t=        22.00000    1    1
C      -1.237127723     -0.570498532     -0.519470438
C       0.147774847     -0.525174538     -0.660420333
H      -1.449329636      0.308867744      0.016409050
H      -1.944927833     -1.238048069     -0.031508686
H       0.912748923      0.495179389     -0.319782429
H       0.778221736     -1.193993003     -0.289551247
           6
  t=        22.50000    1    1
C      -1.250528536     -0.582480264     -0.528783741
C       0.149567628     -0.536422720     -0.683004182
H      -1.470146046      0.312724165      0.028633144
H      -2.024293713     -1.250216854     -0.031755413
H       0.811804064      0.465850564     -0.321325744
H       0.776185911     -1.221032591     -0.261388971
           6
  t=        23.00000    1    1
C      -1.263486207     -0.593985098     -0.537303318
C       0.151082260     -0.547051553     -0.704907592
H      -1.494129826      0.320409319      0.036508140
H      -2.099186557     -1.265214620     -0.037439793
H       0.703090151      0.431699110     -0.328180274
H       0.778647450     -1.257311828     -0.235694381
           6
  t=        23.50000    1    1
C      -1.276120018     -0.605004230     -0.544895669
C       0.152178403     -0.557445471     -0.725977226
H      -1.520374395      0.329593631      0.038957834
H      -2.167661871     -1.281436367     -0.049515288
H       0.589269918      0.394424026     -0.340055944
H       0.783186154     -1.299329241     -0.214145753
           6
  t=        24.00000    1    1
C      -1.288518406     -0.615554657     -0.551489826
C       0.152623136     -0.568044874     -0.746129222
H      -1.548079123      0.338370787      0.035204182
H      -2.228073676     -1.297615934     -0.068556463
H       0.473646464      0.356924768     -0.355948051
H       0.787881499     -1.343893954     -0.198240102
           6
  t=        24.50000    1    1
C      -1.300745734     -0.625679918     -0.557076566
C       0.152158492     -0.579357293     -0.765396813
H      -1.576436510      0.345376871      0.024818437
H      -2.279254276     -1.312842496     -0.094731376
H       0.359444046      0.323616721     -0.373908353
H       0.791374802     -1.388401880     -0.189042766
           6
  t=        25.00000    1    1
C      -1.312840276     -0.635441888     -0.561671167
C       0.150601763     -0.591918760     -0.783897807
H      -1.604941716      0.349642452      0.007689747
H      -2.320630059     -1.326510252     -0.128014430
H       0.249345453      0.299500963     -0.391478960
H       0.792537971     -1.430366016     -0.187340562
           6
  t=        25.50000    1    1
C      -1.324844495     -0.644932082     -0.565287972
C       0.147885653     -0.606129074     -0.801751622
H      -1.633484264      0.350500771     -0.016081418
H      -2.351983378     -1.338214493     -0.168375865
H       0.145329405      0.288421639     -0.406661849
H       0.790372026     -1.467514099     -0.193667905
           6
  t=        26.00000    1    1
C      -1.336819895     -0.654279677     -0.567987094
C       0.144029470     -0.621991169     -0.818984633
H      -1.661844289      0.347655464     -0.046259990
H      -2.373330759     -1.347684552     -0.215466142
H       0.048289638      0.290599634     -0.418960762
H       0.784282672     -1.498467145     -0.208075073
           6
  t=        26.50000    1    1
C      -1.348867996     -0.663644424     -0.569895523
C       0.139002997     -0.639154255     -0.835481794
H      -1.689978653      0.341121861     -0.082408935
H      -2.384590658     -1.354823595     -0.268644317
H      -0.040091306      0.303029368     -0.429544102
H       0.774032442     -1.522608081     -0.230329347
           6
  t=        27.00000    1    1
C      -1.361054929     -0.673181377     -0.571188865
C       0.132678551     -0.657142476     -0.851069245
H      -1.718109242      0.331207227     -0.123868307
H      -2.385685515     -1.359723445     -0.327067709
H      -0.117411132      0.321645303     -0.440273324
H       0.759672762     -1.539909389     -0.260051064
           6
  t=        27.50000    1    1
C      -1.373376682     -0.683021088     -0.572071701
C       0.124882106     -0.675500864     -0.865605725
H      -1.746295604      0.318409294     -0.169922235
H      -2.376820217     -1.362643973     -0.389679564
H      -0.181670283      0.342777779     -0.452717436
H       0.741494373     -1.550804911     -0.296689360
           6
  t=        28.00000    1    1
C      -1.385760039     -0.693254610     -0.572768632
C       0.115457670     -0.693844040     -0.879024098
H      -1.774592739      0.303361890     -0.219793013
H      -2.358775223     -1.364086908     -0.455195105
H      -0.231568407      0.363589172     -0.467847697
H       0.720018678     -1.556096207     -0.339459152
           6
  t=        28.50000    1    1
C      -1.398061073     -0.703911284     -0.573508336
C       0.104290164     -0.711852313     -0.891328734
H      -1.803106452      0.286828815     -0.272648818
H      -2.333182018     -1.365018495     -0.522223801
H      -0.266550686      0.382003566     -0.486138931
H       0.696084434     -1.556964636     -0.387331046
           6
  t=        29.00000    1    1
C      -1.410082547     -0.714965389     -0.574500173
C       0.091280125     -0.729254198     -0.902557903
H      -1.831849085      0.269636291     -0.327678212
H      -2.302434991     -1.366958389     -0.589535323
H      -0.286508618      0.396634162     -0.507798440
H       0.670824820     -1.554871375     -0.439188839
           6
  t=        29.50000    1    1
C      -1.421598433     -0.726348809     -0.575908165
C       0.076316989     -0.745804397     -0.912765138
H      -1.860704614      0.252516353     -0.384184296
H      -2.269346864     -1.371791499     -0.656286258
H      -0.291581655      0.406644581     -0.532896929
H       0.645700155     -1.551561707     -0.493909797
           6
  t=        30.00000    1    1
C      -1.432381231     -0.737967676     -0.577840403
C       0.059256284     -0.761243726     -0.922012973
H      -1.889482247      0.235972518     -0.441610950
H      -2.236744002     -1.381481557     -0.722107665
H      -0.281987816      0.411463297     -0.561479601
H       0.622574699     -1.549210739     -0.550340707
           6
  t=        30.50000    1    1
C      -1.442240353     -0.749725995     -0.580363114
C       0.039930177     -0.775286462     -0.930362014
H      -1.917965545      0.220238182     -0.499466732
H      -2.207074582     -1.397789280     -0.787014814
H      -0.257918520      0.410594398     -0.593617039
H       0.603600468     -1.550343681     -0.607375824
           6
  t=        31.00000    1    1
C      -1.451070615     -0.761554906     -0.583531627
C       0.018196984     -0.787666408     -0.937853009
H      -1.945873596      0.205275103     -0.557257071
H      -2.181911471     -1.421871378     -0.851124779
H      -0.219629033      0.403525038     -0.629338769
H       0.590759584     -1.557245161     -0.664218305
           6
  t=        31.50000    1    1
C      -1.458882340     -0.773437814     -0.587429361
C      -0.005990250     -0.798211582     -0.944494108
H      -1.972741064      0.190821705     -0.614452096
H      -2.161609018     -1.453885251     -0.914236412
H      -0.167733110      0.389652775     -0.668527835
H       0.585237344     -1.571140778     -0.720625022
           6
  t=        32.00000    1    1
C      -1.465792159     -0.785429310     -0.592197811
C      -0.032525643     -0.806896685     -0.950254322
H      -1.998085366      0.176493328     -0.670411641
H      -2.145435108     -1.492883850     -0.975536543
H      -0.103186073      0.368416233     -0.710969737
H       0.586902448     -1.591682511     -0.776947054
           6
  t=        32.50000    1    1
C      -1.472019400     -0.797629357     -0.597997682
C      -0.061103016     -0.813887401     -0.955115105
H      -2.021333403      0.161844833     -0.724469257
H      -2.131902649     -1.537038214     -1.033741963
H      -0.027555206      0.339754813     -0.756283340
H       0.594227106     -1.617028232     -0.833821268
           6
  t=        33.00000    1    1
C      -1.477835571     -0.810132812     -0.604962114
C      -0.091263002     -0.819501102     -0.959116017
H      -2.042178700      0.146350661     -0.776138981
H      -2.119286932     -1.584224168     -1.087372426
H       0.057439421      0.304342151     -0.803807145
H       0.604661734     -1.644538175     -0.891817547
           6
  t=        33.50000    1    1
C      -1.483505485     -0.822980509     -0.613158591
C      -0.122435560     -0.824121901     -0.962361192
H      -2.060397035      0.129447173     -0.825055627
H      -2.106171901     -1.632509961     -1.135246360
H       0.149567784      0.263259910     -0.852807386
H       0.615159062     -1.671598623     -0.951171479
           6
  t=        34.00000    1    1
C      -1.489295893     -0.836175421     -0.622621642
C      -0.153992132     -0.828096086     -0.964994371
H      -2.075560185      0.110572956     -0.870883106
H      -2.091596033     -1.680280150     -1.176407271
H       0.246123274      0.217538984     -0.902574201
H       0.622724819     -1.696132788     -1.011761274
           6
  t=        34.50000    1    1
C      -1.495489956     -0.849710329     -0.633368955
C      -0.185272155     -0.831679149     -0.967185607
H      -2.087348126      0.089299414     -0.913275349
H      -2.074946412     -1.726242354     -1.210053590
H       0.344314411      0.167882698     -0.952425072
H       0.624720490     -1.716749458     -1.073180052
           6
  t=        35.00000    1    1
C      -1.502374335     -0.863575668     -0.645398222
C      -0.215588180     -0.835040516     -0.969124547
H      -2.095832938      0.065473844     -0.951797539
H      -2.055850846     -1.769376767     -1.235671467
H       0.441197192      0.114603664     -1.001752765
H       0.619014361     -1.732723490     -1.134751430
           6
  t=        35.50000    1    1
C      -1.510202237     -0.877754828     -0.658687255
C      -0.244287597     -0.838296079     -0.971012472
H      -2.101427325      0.039261760     -0.986010283
H      -2.034154576     -1.808961327     -1.253042665
H       0.533669541      0.057888147     -1.049899772
H       0.604207264     -1.743945726     -1.195656525
           6
  t=        36.00000    1    1
C      -1.519223324     -0.892225310     -0.673201366
C      -0.270735415     -0.841555492     -0.973057653
H      -2.104882731      0.011131026     -1.015358795
H      -2.009895509     -1.844513317     -1.262240543
H       0.618659397     -0.001914748     -1.096248138
H       0.579569167     -1.750677331     -1.254926392
           6
  t=        36.50000    1    1
C      -1.529583794     -0.906964975     -0.688828600
C      -0.294455856     -0.844955415     -0.975478325
H      -2.107271293     -0.018200736     -1.039499464
H      -1.983414205     -1.875726677     -1.264016416
H       0.693661180     -0.064176366     -1.140350565
H       0.545091195     -1.753206034     -1.311334190
           6
  t=        37.00000    1    1
C      -1.541287754     -0.921993032     -0.705410335
C      -0.315237413     -0.848558666     -0.978459854
H      -2.109344151     -0.048019667     -1.058931901
H      -1.955337034     -1.902571152     -1.258994662
H       0.757125507     -0.128356129     -1.181402684
H       0.501228905     -1.751839145     -1.364241652
           6
  t=        37.50000    1    1
C      -1.554270601     -0.937344980     -0.722814030
C      -0.332960343     -0.852408212     -0.982155694
H      -2.111926039     -0.077453017     -1.074230996
H      -1.926508351     -1.925255326     -1.247646569
H       0.807958133     -0.193573599     -1.218501537
H       0.448549020     -1.747186264     -1.413256340
           6
  t=        38.00000    1    1
C      -1.568443648     -0.953052223     -0.740923817
C      -0.347516202     -0.856555850     -0.986701700
H      -2.116065176     -0.105493740     -1.085787506
H      -1.897894455     -1.944197412     -1.230581142
H       0.845371445     -0.258596635     -1.250887238
H       0.387504738     -1.740077007     -1.457900250
           6
  t=        38.50000    1    1
C      -1.583669405     -0.969136741     -0.759622899
C      -0.358864657     -0.861038505     -0.992203916
H      -2.122895807     -0.131140230     -1.094015631
H      -1.870520483     -1.960034247     -1.208544036
H       0.868957644     -0.322249750     -1.277910985
H       0.318544367     -1.731349685     -1.497790439
           6
  t=        39.00000    1    1
C      -1.599750828     -0.985576180     -0.778781790
C      -0.367082992     -0.865872113     -0.998732900
H      -2.133604180     -0.153457956     -1.099250254
H      -1.845505451     -1.973836413     -1.182610298
H       0.878732835     -0.383603299     -1.299167161
H       0.242530027     -1.721874427     -1.532624757
           6
  t=        39.50000    1    1
C      -1.616437980     -1.002276980     -0.798273076
C      -0.372362906     -0.871044093     -1.006319250
H      -2.149273315     -0.171727282     -1.101682301
H      -1.824052857     -1.987212579     -1.154056902
H       0.874951493     -0.441898828     -1.314383567
H       0.160799825     -1.712785346     -1.562361158
           6
  t=        40.00000    1    1
C      -1.633459844     -1.019065117     -0.817978673
C      -0.374992971     -0.876517227     -1.014948432
H      -2.170745527     -0.185651187     -1.101339275
H      -1.807251249     -2.002097340     -1.124248287
H       0.858071609     -0.496396973     -1.323400447
H       0.075035794     -1.705701348     -1.587347647
           6
  t=        40.50000    1    1
C      -1.650565463     -1.035704994     -0.837799727
C      -0.375326589     -0.882234374     -1.024553567
H      -2.198484128     -0.195519451     -1.098112803
H      -1.796184234     -2.020406957     -1.094420552
H       0.828814163     -0.546320837     -1.326217642
H      -0.012715393     -1.702681468     -1.608431507
           6
  t=        41.00000    1    1
C      -1.667554654     -1.051936794     -0.857670727
C      -0.373760616     -0.888126459     -1.035016051
H      -2.232482527     -0.202205961     -1.091789136
H      -1.792146259     -2.043746697     -1.065345211
H       0.788311436     -0.590917568     -1.323030508
H      -0.099954711     -1.705918346     -1.627053473
           6
  t=        41.50000    1    1
C      -1.684296380     -1.067524255     -0.877561662
C      -0.370733008     -0.894149143     -1.046198491
H      -2.272281711     -0.207000386     -1.082071195
H      -1.796093252     -2.072914280     -1.037215666
H       0.738323237     -0.629488504     -1.314189145
H      -0.184287862     -1.717366826     -1.644961835
           6
  t=        42.00000    1    1
C      -1.700705925     -1.082302913     -0.897475415
C      -0.366762457     -0.900332342     -1.057977168
H      -2.316980890     -0.211424426     -1.068638252
H      -1.808220809     -2.107527924     -1.009815592
H       0.681655988     -0.661384375     -1.300280998
H      -0.264055377     -1.738139477     -1.663546063
           6
  t=        42.50000    1    1
C      -1.716721185     -1.096211025     -0.917435822
C      -0.362500682     -0.906821444     -1.070251979
H      -2.365282341     -0.217039972     -1.051275035
H      -1.828199283     -2.146060637     -0.982695770
H       0.622711015     -0.685913495     -1.282325453
H      -0.338260270     -1.767896412     -1.683360026
           6
  t=        43.00000    1    1
C      -1.732300409     -1.109279353     -0.937453414
C      -0.358798208     -0.913901508     -1.082940201
H      -2.415647988     -0.225284376     -1.030020615
H      -1.855311425     -2.186137871     -0.955461932
H       0.568264187     -0.702005721     -1.261879648
H      -0.406296670     -1.804881746     -1.704061998
           6
  t=        43.50000    1    1
C      -1.747418387     -1.121584130     -0.957497660
C      -0.356684132     -0.921965711     -1.095981375
H      -2.466501486     -0.237356709     -1.005181365
H      -1.888670102     -2.225150689     -0.928019569
H       0.527210816     -0.708027907     -1.240757871
H      -0.467561357     -1.846545156     -1.724710036
           6
  t=        44.00000    1    1
C      -1.762071920     -1.133210759     -0.977491501
C      -0.357173861     -0.931433316     -1.109353286
H      -2.516380914     -0.254136186     -0.977309343
H      -1.927372787     -2.260790665     -0.900606649
H       0.508420047     -0.702144756     -1.220457961
H      -0.521226809     -1.890137706     -1.744199182
           6
  t=        44.50000    1    1
C      -1.776290538     -1.144238244     -0.997323724
C      -0.360874305     -0.942628047     -1.123107100
H      -2.563993463     -0.276146489     -0.947115147
H      -1.970426227     -2.291183368     -0.873715838
H       0.516104425     -0.683446402     -1.201464457
H      -0.566207979     -1.933121229     -1.761557146
           6
  t=        45.00000    1    1
C      -1.790133078     -1.154733532     -1.016865535
C      -0.367707735     -0.955667074     -1.137354290
H      -2.608267080     -0.303538246     -0.915370586
H      -2.016705704     -2.314920317     -0.847989827
H       0.546658230     -0.653100111     -1.183292596
H      -0.601321066     -1.973392450     -1.776060582
           6
  t=        45.50000    1    1
C      -1.803693105     -1.164746137     -1.035988702
C      -0.377042581     -0.970435609     -1.152197349
H      -2.648347242     -0.336168662     -0.882798867
H      -2.065031725     -2.331134365     -0.824120741
H       0.590758231     -0.614222538     -1.165226275
H      -0.625687515     -2.009622426     -1.787316964
           6
  t=        46.00000    1    1
C      -1.817093904     -1.174303299     -1.054572259
C      -0.388130985     -0.986704937     -1.167675413
H      -2.683511508     -0.373665106     -0.850071976
H      -2.114175141     -2.339459070     -0.802774610
H       0.638542457     -0.570517551     -1.146959265
H      -0.638839196     -2.041247098     -1.795269549
           6
  t=        46.50000    1    1
C      -1.830459103     -1.183426191     -1.072508360
C      -0.400391678     -1.004256610     -1.183763926
H      -2.713167833     -0.415386205     -0.817826268
H      -2.162887310     -2.339910613     -0.784629241
H       0.682492073     -0.525278748     -1.128767938
H      -0.640551022     -2.067948690     -1.799905473
           6
  t=        47.00000    1    1
C      -1.843901916     -1.192142880     -1.089696223
C      -0.413446234     -1.022926926     -1.200403607
H      -2.736875710     -0.460474469     -0.786669541
H      -2.210041964     -2.332774589     -0.770430053
H       0.717760036     -0.481048009     -1.111319415
H      -0.630702931     -2.089373418     -1.801111645
           6
  t=        47.50000    1    1
C      -1.857519417     -1.200482454     -1.106041475
C      -0.427065295     -1.042597565     -1.217516454
H      -2.754344661     -0.507951010     -0.757150824
H      -2.254716964     -2.318552361     -0.760965249
H       0.741608288     -0.439521080     -1.095380219
H      -0.609345730     -2.105366333     -1.798838294
           6
  t=        48.00000    1    1
C      -1.871371352     -1.208476096     -1.121472016
C      -0.441110202     -1.063145551     -1.235003349
H      -2.765467496     -0.556773297     -0.729734510
H      -2.296170175     -2.297959115     -0.756910219
H       0.752617766     -0.401851217     -1.081629170
H      -0.576849971     -2.116195275     -1.793306970
           6
  t=        48.50000    1    1
C      -1.885474236     -1.216160633     -1.135940089
C      -0.455493805     -1.084419253     -1.252745813
H      -2.770385275     -0.605712960     -0.704812705
H      -2.333702187     -2.271999143     -0.758784632
H       0.750063422     -0.368951435     -1.070620862
H      -0.533890627     -2.122539280     -1.785032140
           6
  t=        49.00000    1    1
C      -1.899789224     -1.223603411     -1.149428721
C      -0.470161748     -1.106218381     -1.270609820
H      -2.769453891     -0.653360290     -0.682661377
H      -2.366727350     -2.241882929     -0.766988367
H       0.733719636     -0.341531050     -1.062768436
H      -0.481582399     -2.125472401     -1.774724053
           6
  t=        49.50000    1    1
C      -1.914253641     -1.230880986     -1.161947156
C      -0.485067453     -1.128318162     -1.288465146
H      -2.763193356     -0.698289629     -0.663383996
H      -2.394993018     -2.208998210     -0.781750413
H       0.703740784     -0.320081594     -1.058353477
H      -0.421114100     -2.126307093     -1.763210261
           6
  t=        50.00000    1    1
C      -1.928771923     -1.238065791     -1.173547614
C      -0.500152037     -1.150484661     -1.306190408
H      -2.752365229     -0.738839117     -0.646787991
H      -2.418638791     -2.175292055     -0.803122474
H       0.660479978     -0.304919594     -1.057581420
H      -0.353778019     -2.126366035     -1.751250266
           6
  t=        50.50000    1    1
C      -1.943178478     -1.245220819     -1.184338998
C      -0.515349921     -1.172482811     -1.323672047
H      -2.737962289     -0.773139729     -0.632326601
H      -2.438305993     -2.143364246     -0.830953593
H       0.604367634     -0.296273556     -1.060629132
H      -0.281125054     -2.126740363     -1.739420426
           6
  t=        51.00000    1    1
C      -1.957237078     -1.252375453     -1.194473210
C      -0.530598762     -1.194104258     -1.340821351
H      -2.721203550     -0.799240415     -0.619108733
H      -2.455172343     -2.116401873     -0.864894824
H       0.535880002     -0.294336913     -1.067620335
H      -0.204792398     -2.128133147     -1.728084101
           6
  t=        51.50000    1    1
C      -1.970678593     -1.259498139     -1.204119413
C      -0.545841503     -1.215205883     -1.357589569
H      -2.703327869     -0.815370827     -0.605945582
H      -2.470852485     -2.097883311     -0.904543670
H       0.455485387     -0.299227538     -1.078610503
H      -0.126281547     -2.130799835     -1.717342341
           6
  t=        52.00000    1    1
C      -1.983248871     -1.266516480     -1.213429990
C      -0.561013880     -1.235726857     -1.373968914
H      -2.685259655     -0.820230127     -0.591612123
H      -2.487131741     -2.091009074     -0.949604744
H       0.363651096     -0.310933113     -1.093560078
H      -0.047144279     -2.134440561     -1.707032141
           6
  t=        52.50000    1    1
C      -1.994752228     -1.273379975     -1.222506655
C      -0.576052003     -1.255676017     -1.389975314
H      -2.667329698     -0.813267383     -0.575261075
H      -2.505585608     -2.097881835     -0.999980384
H       0.261049972     -0.329257311     -1.112315325
H       0.030759895     -2.138196348     -1.696850412
           6
  t=        53.00000    1    1
C      -2.005099071     -1.280118582     -1.231380356
C      -0.590934337     -1.275122801     -1.405630120
H      -2.649270245     -0.794973203     -0.556895430
H      -2.527100104     -2.118655416     -1.055602284
H       0.149077481     -0.353597600     -1.134496936
H       0.105329587     -2.140840929     -1.686618569
           6
  t=        53.50000    1    1
C      -2.014319148     -1.286829981     -1.240034406
C      -0.605721550     -1.294213064     -1.420961451
H      -2.630592779     -0.766995169     -0.537765553
H      -2.551407615     -2.151385355     -1.115770904
H       0.030189421     -0.382729386     -1.159155034
H       0.174430237     -2.140993908     -1.676599475
           6
  t=        54.00000    1    1
C      -2.022629690     -1.293676123     -1.248407024
C      -0.620448570     -1.313169265     -1.436017388
H      -2.610423976     -0.731653273     -0.519976881
H      -2.577315312     -2.192630144     -1.179505062
H      -0.092527475     -0.414467557     -1.184875394
H       0.235913622     -2.137381396     -1.667246344
           6
  t=        54.50000    1    1
C      -2.030351035     -1.300889741     -1.256440605
C      -0.635174056     -1.332298777     -1.450877132
H      -2.587640481     -0.691491256     -0.505440179
H      -2.603444147     -2.238166891     -1.246031115
H      -0.215289675     -0.444791685     -1.210079713
H       0.288009792     -2.129267253     -1.658742999
           6
  t=        55.00000    1    1
C      -2.037776894     -1.308726568     -1.264126463
C      -0.650014293     -1.351995132     -1.465643811
H      -2.561486298     -0.648986557     -0.495520395
H      -2.628587866     -2.283823820     -1.314523322
H      -0.333985222     -0.467871241     -1.233135563
H       0.329529924     -2.116439900     -1.651057349
           6
  t=        55.50000    1    1
C      -2.045133928     -1.317406860     -1.271507811
C      -0.665032872     -1.372638392     -1.480411901
H      -2.531794772     -0.606236934     -0.491166599
H      -2.651863543     -2.326280333     -1.383886659
H      -0.445425951     -0.477698319     -1.252538637
H       0.359694814     -2.098976912     -1.644198975
           6
  t=        56.00000    1    1
C      -2.052619337     -1.327128443     -1.278653773
C      -0.680182975     -1.394401972     -1.495223149
H      -2.498751131     -0.565118683     -0.493167508
H      -2.672707356     -2.363059375     -1.452850083
H      -0.547491460     -0.470360440     -1.267459301
H       0.377797398     -2.076967920     -1.638158760
           6
  t=        56.50000    1    1
C      -2.060381199     -1.338063779     -1.285632985
C      -0.695325019     -1.417043339     -1.510024348
H      -2.462789403     -0.527278814     -0.502126664
H      -2.690908516     -2.392280769     -1.520188303
H      -0.639429901     -0.446735062     -1.278394372
H       0.383410270     -2.050603582     -1.632877762
           6
  t=        57.00000    1    1
C      -2.068492070     -1.350328652     -1.292512608
C      -0.710345448     -1.439965694     -1.524678238
H      -2.424857690     -0.493922641     -0.518068114
H      -2.706571147     -2.412802958     -1.584965668
H      -0.720845337     -0.411985289     -1.287150376
H       0.376701152     -2.020388676     -1.628296355
           6
  t=        57.50000    1    1
C      -2.076935016     -1.363944389     -1.299361494
C      -0.725248042     -1.462525421     -1.539024999
H      -2.386080939     -0.466004474     -0.540693124
H      -2.719838767     -2.424073302     -1.646452158
H      -0.791372977     -0.372365404     -1.295787171
H       0.358417019     -1.987082210     -1.624467372
           6
  t=        58.00000    1    1
C      -2.085640054     -1.378830385     -1.306247510
C      -0.740131077     -1.484226867     -1.552940728
H      -2.347638816     -0.444311536     -0.569688857
H      -2.730800635     -2.426005186     -1.703954136
H      -0.850825515     -0.333115124     -1.305729086
H       0.329976591     -1.951610364     -1.621640670
           6
  t=        58.50000    1    1
C      -2.094548697     -1.394869906     -1.313233893
C      -0.755138560     -1.504720706     -1.566348005
H      -2.311133673     -0.429591996     -0.604557650
H      -2.739611894     -2.418761312     -1.756803248
H      -0.898557351     -0.297723088     -1.317983802
H       0.293510812     -1.915127087     -1.620143569
           6
  t=        59.00000    1    1
C      -2.103606983     -1.411919856     -1.320380384
C      -0.770452384     -1.523760828     -1.579206656
H      -2.278237944     -0.422480945     -0.644677400
H      -2.746555373     -2.402734821     -1.804417568
H      -0.934123002     -0.268356879     -1.333184527
H       0.252053846     -1.879074157     -1.620313759
           6
  t=        59.50000    1    1
C      -2.112768575     -1.429847833     -1.327747041
C      -0.786299610     -1.541154024     -1.591504499
H      -2.250638767     -0.423377636     -0.689305134
H      -2.752026562     -2.378451854     -1.846302388
H      -0.957191696     -0.246347240     -1.351712003
H       0.209510974     -1.845075372     -1.622437683
           6
  t=        60.00000    1    1
C      -2.122002403     -1.448528343     -1.335389882
C      -0.802940264     -1.556765237     -1.603263830
H      -2.229802274     -0.432349559     -0.737597776
H      -2.756438249     -2.346638931     -1.882111019
H      -0.967698566     -0.232417936     -1.373696340
H       0.170424439     -1.814717545     -1.626641857
           6
  t=        60.50000    1    1
C      -2.131296307     -1.467847912     -1.343361685
C      -0.820613776     -1.570515412     -1.614531668
H      -2.216866963     -0.449139845     -0.788705661
H      -2.760237574     -2.308265163     -1.911639307
H      -0.965794743     -0.226851415     -1.399020531
H       0.139239083     -1.789300128     -1.632907939
           6
  t=        61.00000    1    1
C      -2.140655935     -1.487698202     -1.351707020
C      -0.839441565     -1.582381264     -1.625367766
H      -2.212637656     -0.473098543     -0.841730066
H      -2.764092745     -2.264730065     -1.934945779
H      -0.951798148     -0.229667901     -1.427395565
H       0.119259940     -1.769621700     -1.641122049
           6
  t=        61.50000    1    1
C      -2.150092147     -1.507964413     -1.360448315
C      -0.859325760     -1.592385010     -1.635833028
H      -2.217602909     -0.503051255     -0.895710510
H      -2.769113742     -2.218013750     -1.952537739
H      -0.926330871     -0.240862372     -1.458387591
H       0.111670827     -1.755984753     -1.651178286
           6
  t=        62.00000    1    1
C      -2.159604230     -1.528529994     -1.369572565
C      -0.879911686     -1.600580439     -1.645982195
H      -2.231907220     -0.537230567     -0.949655763
H      -2.776941905     -2.170585282     -1.965502327
H      -0.890504517     -0.260495882     -1.491446535
H       0.115134527     -1.748374445     -1.663033479
           6
  t=        62.50000    1    1
C      -2.169167928     -1.549296215     -1.379022104
C      -0.900653825     -1.607036304     -1.655868245
H      -2.255512072     -0.573308492     -1.002555998
H      -2.789664238     -2.125184321     -1.975510611
H      -0.845801119     -0.288548870     -1.525959038
H       0.126392306     -1.746755864     -1.676695609
           6
  t=        63.00000    1    1
C      -2.178727502     -1.570196475     -1.388692954
C      -0.920925584     -1.611848177     -1.665559080
H      -2.288336670     -0.608378120     -1.053381439
H      -2.809566637     -2.084566866     -1.984715916
H      -0.794077222     -0.324659735     -1.561231395
H       0.141375353     -1.751296308     -1.692164723
           6
  t=        63.50000    1    1
C      -2.188232764     -1.591205200     -1.398473226
C      -0.940133141     -1.615142181     -1.675141840
H      -2.330159664     -0.639441494     -1.101260800
H      -2.838451341     -2.050890199     -1.995122058
H      -0.737569072     -0.368132604     -1.596500998
H       0.156227014     -1.762334203     -1.709365769
           6
  t=        64.00000    1    1
C      -2.197709415     -1.612328207     -1.408302695
C      -0.957768542     -1.617051709     -1.684704244
H      -2.380335841     -0.663782325     -1.145497445
H      -2.877085859     -2.025635024     -2.008000778
H      -0.678715050     -0.418216886     -1.630945538
H       0.167761569     -1.780196969     -1.728218365
           6
  t=        64.50000    1    1
C      -2.207308681     -1.633562059     -1.418196726
C      -0.973414973     -1.617725138     -1.694321835
H      -2.437700335     -0.679720600     -1.185791442
H      -2.924900968     -2.009451206     -2.023454659
H      -0.620016985     -0.474066449     -1.663705271
H       0.173582126     -1.805033804     -1.748696356
           6
  t=        65.00000    1    1
C      -2.217291730     -1.654836087     -1.428230491
C      -0.986780909     -1.617343108     -1.704049575
H      -2.500527556     -0.687379490     -1.222361500
H      -2.980108498     -2.002207201     -2.040496202
H      -0.563813797     -0.534394808     -1.694002160
H       0.172152084     -1.836829207     -1.770795941
           6
  t=        65.50000    1    1
C      -2.227962671     -1.675999344     -1.438502389
C      -0.997748121     -1.616127704     -1.713919666
H      -2.566824738     -0.688588078     -1.255681191
H      -3.040069127     -2.003332006     -2.057629194
H      -0.511696478     -0.597140176     -1.721334269
H       0.162645253     -1.875539201     -1.794485504
           6
  t=        66.00000    1    1
C      -2.239618805     -1.696849990     -1.449109891
C      -1.006368585     -1.614334446     -1.723945427
H      -2.634544978     -0.686175323     -1.286231324
H      -3.101692903     -2.012093728     -2.073320227
H      -0.464288746     -0.659491922     -1.745501140
H       0.144710378     -1.921237748     -1.819697967
           6
  t=        66.50000    1    1
C      -2.252508018     -1.717178834     -1.460141937
C      -1.012825706     -1.612241268     -1.734131462
H      -2.701510910     -0.683100154     -1.314428854
H      -3.161895604     -2.027727928     -2.086225076
H      -0.421691863     -0.718256590     -1.766436240
H       0.118326238     -1.974104675     -1.846312481
           6
  t=        67.00000    1    1
C      -2.266797750     -1.736805141     -1.471685141
C      -1.017393661     -1.610136993     -1.744474888
H      -2.765886625     -0.681830024     -1.340561428
H      -3.217915491     -2.049471949     -2.095203920
H      -0.383441064     -0.770326458     -1.784125530
H       0.083692601     -2.034254988     -1.874197555
           6
  t=        67.50000    1    1
C      -2.282560833     -1.755586583     -1.483817825
C      -1.020389762     -1.608292977     -1.754963410
H      -2.826222579     -0.684130098     -1.364792282
H      -3.267586342     -2.076654973     -2.099432049
H      -0.348761214     -0.813174136     -1.798570731
H       0.041067384     -2.101584233     -1.903226193
           6
  t=        68.00000    1    1
C      -2.299778693     -1.773407644     -1.496596161
C      -1.022119870     -1.606935353     -1.765581608
H      -2.881462580     -0.691132762     -1.387153210
H      -3.309468719     -2.108788650     -2.098518489
H      -0.316895960     -0.845273133     -1.809794995
H      -0.009378188     -2.175656843     -1.933248821
           6
  t=        68.50000    1    1
C      -2.318367123     -1.790167729     -1.510045819
C      -1.022846050     -1.606234967     -1.776322003
H      -2.930918304     -0.703532081     -1.407573911
H      -3.342697436     -2.145537141     -2.092473404
H      -0.287354988     -0.866325726     -1.817855626
H      -0.067568607     -2.255575179     -1.964051512
           6
  t=        69.00000    1    1
C      -2.338211550     -1.805772065     -1.524168146
C      -1.022775394     -1.606322687     -1.787189677
H      -2.974139340     -0.721752216     -1.425946489
H      -3.366701559     -2.186663148     -2.081541815
H      -0.260089893     -0.877150273     -1.822816424
H      -0.133471240     -2.339903946     -1.995356743
           6
  t=        69.50000    1    1
C      -2.359184235     -1.820135011     -1.538942275
C      -1.022070578     -1.607315098     -1.798200016
H      -3.010847347     -0.745997907     -1.442165946
H      -3.381095925     -2.231943022     -2.066129367
H      -0.235518631     -0.879385970     -1.824796927
H      -0.206915298     -2.426654140     -2.026809643
           6
  t=        70.00000    1    1
C      -2.381162367     -1.833167300     -1.554332823
C      -1.020860852     -1.609347594     -1.809372888
H      -3.040872087     -0.776301166     -1.456226152
H      -3.385578206     -2.281203532     -2.046649929
H      -0.214446546     -0.875119643     -1.823900361
H      -0.287491299     -2.513330521     -2.058084116
           6
  t=        70.50000    1    1
C      -2.403985473     -1.844791936     -1.570279325
C      -1.019286154     -1.612572635     -1.820732656
H      -3.064312999     -0.812425230     -1.468290219
H      -3.380141497     -2.334275250     -2.023562039
H      -0.197880615     -0.866721804     -1.820226411
H      -0.374344419     -2.597069541     -2.088889005
           6
  t=        71.00000    1    1
C      -2.427427756     -1.854948787     -1.586698327
C      -1.017525947     -1.617145552     -1.832317898
H      -3.081612752     -0.853838872     -1.478586136
H      -3.365223287     -2.391049379     -1.997426057
H      -0.186803965     -0.856278309     -1.813829059
H      -0.466163472     -2.675291050     -2.118916704
           6
  t=        71.50000    1    1
C      -2.451165545     -1.863587415     -1.603519041
C      -1.015844673     -1.623212593     -1.844186250
H      -3.093578813     -0.899725624     -1.487119231
H      -3.341702093     -2.451586112     -1.968889426
H      -0.181922718     -0.845604842     -1.804750302
H      -0.561262114     -2.745793949     -2.147629177
           6
  t=        72.00000    1    1
C      -2.474800581     -1.870663590     -1.620732213
C      -1.014597026     -1.630912325     -1.856403474
H      -3.101431019     -0.949017804     -1.493200889
H      -3.310700185     -2.516066797     -1.938730066
H      -0.183480783     -0.836008023     -1.793202032
H      -0.657573409     -2.807033901     -2.174051864
           6
  t=        72.50000    1    1
C      -2.497904790     -1.876245846     -1.638363646
C      -1.014164790     -1.640310762     -1.868973111
H      -3.106895920     -0.999931165     -1.495830291
H      -3.273653857     -2.584590194     -1.907871790
H      -0.191213953     -0.828620486     -1.779872250
H      -0.752750314     -2.857960512     -2.197224134
           6
  t=        73.00000    1    1
C      -2.520093302     -1.880516737     -1.656432850
C      -1.014855718     -1.651449271     -1.881858510
H      -3.112350756     -1.049819368     -1.494179733
H      -3.231950150     -2.657109224     -1.877058294
H      -0.204768364     -0.824644787     -1.765641721
H      -0.844301317     -2.897396476     -2.216553484
           6
  t=        73.50000    1    1
C      -2.541023797     -1.883786941     -1.674925963
C      -1.016892656     -1.664381358     -1.894996605
H      -3.120839889     -1.095228868     -1.487849637
H      -3.186759593     -2.733145521     -1.846743905
H      -0.223836542     -0.825110204     -1.751446606
H      -0.929742614     -2.923904926     -2.231965646
           6
  t=        74.00000    1    1
C      -2.560391569     -1.886472562     -1.693811057
C      -1.020459216     -1.679158462     -1.908313870
H      -3.135718277     -1.132465973     -1.476718460
H      -3.138827658     -2.811518204     -1.817098287
H      -0.248050196     -0.830686797     -1.738160468
H      -1.006784974     -2.936119281     -2.243795494
           6
  t=        74.50000    1    1
C      -2.577951040     -1.889025303     -1.713056828
C      -1.025744559     -1.695750688     -1.921732031
H      -3.159835079     -1.158621095     -1.460752361
H      -3.088199503     -2.890212193     -1.788166274
H      -0.276870506     -0.841641108     -1.726465441
H      -1.073745158     -2.933671565     -2.252655586
           6
  t=        75.00000    1    1
C      -2.593571408     -1.891789815     -1.732600307
C      -1.032949424     -1.714018174     -1.935173405
H      -3.194355392     -1.173179914     -1.440308035
H      -3.034885071     -2.966362374     -1.759975893
H      -0.309603195     -0.857908631     -1.716810148
H      -1.129309045     -2.917565498     -2.259388555
           6
  t=        75.50000    1    1
C      -2.607271561     -1.894914784     -1.752296843
C      -1.042274278     -1.733760341     -1.948567736
H      -3.238145675     -1.178436684     -1.416613705
H      -2.979398361     -3.036771731     -1.732580457
H      -0.345459860     -0.879166230     -1.709433344
H      -1.172270825     -2.889645313     -2.265034863
           6
  t=        76.00000    1    1
C      -2.619184248     -1.898396475     -1.771946151
C      -1.053890258     -1.754715133     -1.961853941
H      -3.288346046     -1.177960131     -1.391511486
H      -2.922493473     -3.099055076     -1.706196445
H      -0.383520475     -0.904862830     -1.704361702
H      -1.202035303     -2.852445637     -2.270623623
           6
  t=        76.50000    1    1
C      -2.629475957     -1.902169627     -1.791332065
C      -1.067906141     -1.776549262     -1.974968681
H      -3.341665456     -1.175392404     -1.367049469
H      -2.865336721     -3.151813048     -1.681092616
H      -0.422699694     -0.934280544     -1.701518615
H      -1.218532577     -2.809190544     -2.277245074
           6
  t=        77.00000    1    1
C      -2.638292263     -1.906205548     -1.810253943
C      -1.084348430     -1.798804689     -1.987817737
H      -3.395164066     -1.173539312     -1.345128977
H      -2.809516882     -3.194511492     -1.657500725
H      -0.461832502     -0.966551472     -1.700800978
H      -1.222228317     -2.764276002     -2.286382737
           6
  t=        77.50000    1    1
C      -2.645775841     -1.910553659     -1.828547169
C      -1.103146495     -1.820822109     -2.000237452
H      -3.446361486     -1.174040912     -1.327273202
H      -2.756557042     -3.227227827     -1.635693773
H      -0.499736253     -1.000538876     -1.702050991
H      -1.214403999     -2.724388476     -2.300309783
           6
  t=        78.00000    1    1
C      -2.652080766     -1.915316594     -1.846079612
C      -1.124148927     -1.841761419     -2.011983517
H      -3.493059829     -1.177954596     -1.314735653
H      -2.707569618     -3.250069641     -1.616009637
H      -0.535265757     -1.034708531     -1.704923100
H      -1.197258503     -2.698684634     -2.322265923
           6
  t=        78.50000    1    1
C      -2.657347603     -1.920636610     -1.862751276
C      -1.147228943     -1.860763949     -2.022773551
H      -3.533162864     -1.186291825     -1.308507858
H      -2.663487390     -3.262626617     -1.598890998
H      -0.567339592     -1.067376768     -1.708926404
H      -1.172872497     -2.696783534     -2.355864143
           6
  t=        79.00000    1    1
C      -2.661681764     -1.926649346     -1.878514838
C      -1.172378482     -1.877545037     -2.032487933
H      -3.565061382     -1.199803710     -1.309003683
H      -2.625249444     -3.264309285     -1.584814724
H      -0.595097895     -1.097064231     -1.713661535
H      -1.141615970     -2.721778620     -2.402602317
           6
  t=        79.50000    1    1
C      -2.665192284     -1.933453249     -1.893350058
C      -1.199593871     -1.892637135     -2.041328583
H      -3.587820845     -1.218690456     -1.316184935
H      -2.593797546     -3.255009647     -1.574187783
H      -0.617856135     -1.122554781     -1.718875901
H      -1.102910736     -2.767276227     -2.460199412
           6
  t=        80.00000    1    1
C      -2.668037321     -1.941116483     -1.907232758
C      -1.228703392     -1.906900780     -2.049710873
H      -3.600919071     -1.242797730     -1.329844681
H      -2.569935588     -3.234981616     -1.567380292
H      -0.635215889     -1.143111253     -1.724424461
H      -1.057035125     -2.822847849     -2.523975960
           6
  t=        80.50000    1    1
C      -2.670429520     -1.949653707     -1.920143484
C      -1.259313883     -1.921017155     -2.058041126
H      -3.604281958     -1.271732174     -1.349597783
H      -2.553989269     -3.204834104     -1.564780965
H      -0.647524488     -1.158786118     -1.730364737
H      -1.005541156     -2.879934023     -2.589261054
           6
  t=        81.00000    1    1
C      -2.672567878     -1.959065770     -1.932077135
C      -1.290919978     -1.935337749     -2.066609245
H      -3.598011539     -1.305040910     -1.375035047
H      -2.546103147     -3.165582557     -1.566796741
H      -0.655653810     -1.170274734     -1.737024899
H      -0.950960978     -2.933078488     -2.652335182
           6
  t=        81.50000    1    1
C      -2.674632266     -1.969335823     -1.943073649
C      -1.322974973     -1.949948893     -2.075582598
H      -3.582484327     -1.342040076     -1.405612624
H      -2.546311987     -3.119099273     -1.573651879
H      -0.660700014     -1.178722116     -1.744982110
H      -0.896158186     -2.979119862     -2.710470553
           6
  t=        82.00000    1    1
C      -2.676802621     -1.980411479     -1.953203027
C      -1.354941908     -1.964804396     -2.085059059
H      -3.558453264     -1.381758072     -1.440638236
H      -2.554487355     -3.067900247     -1.585277795
H      -0.663864172     -1.185499902     -1.754849862
H      -0.843561407     -3.016316735     -2.761814214
           6
  t=        82.50000    1    1
C      -2.679263244     -1.992198140     -1.962560391
C      -1.386295218     -1.979787288     -2.095091788
H      -3.527200298     -1.422986086     -1.479217688
H      -2.570413895     -3.014913825     -1.601250389
H      -0.666433717     -1.192002432     -1.767157875
H      -0.794882974     -3.044076212     -2.805387864
           6
  t=        83.00000    1    1
C      -2.682192708     -2.004504115     -1.971317502
C      -1.416481802     -1.994722302     -2.105712888
H      -3.491035084     -1.463890984     -1.520000375
H      -2.593731051     -2.964773865     -1.620448537
H      -0.669702424     -1.199452781     -1.782267849
H      -0.751342784     -3.062747045     -2.840872324
           6
  t=        83.50000    1    1
C      -2.685712926     -2.017014901     -1.979753612
C      -1.444893307     -2.009414695     -2.116975252
H      -3.454073501     -1.501166994     -1.560919482
H      -2.623947664     -2.925152022     -1.640814396
H      -0.674939270     -1.208797759     -1.800383270
H      -0.713843414     -3.073084573     -2.868231080
           6
  t=        84.00000    1    1
C      -2.689870848     -2.029392368     -1.988198186
C      -1.470855675     -2.023724526     -2.128975048
H      -3.421665330     -1.530900309     -1.599367722
H      -2.661250056     -2.904447629     -1.659823694
H      -0.683344654     -1.220637213     -1.821619646
H      -0.683120756     -3.075699922     -2.887408442
           6
  t=        84.50000    1    1
C      -2.694636855     -2.041455015     -1.996941588
C      -1.493732048     -2.037581206     -2.141796290
H      -3.399489401     -1.549105536     -1.632635574
H      -2.706382413     -2.908877537     -1.675574153
H      -0.695839411     -1.235169755     -1.846061273
H      -0.659772467     -3.071166874     -2.898470955
           6
  t=        85.00000    1    1
C      -2.699965278     -2.053343258     -2.006117709
C      -1.513056886     -2.050964492     -2.155475288
H      -3.392025101     -1.552280152     -1.658671768
H      -2.760017854     -2.939997504     -1.687801394
H      -0.712943671     -1.252280222     -1.873710785
H      -0.644217348     -3.060115392     -2.901703595
           6
  t=        85.50000    1    1
C      -2.705961910     -2.065502101     -2.015620532
C      -1.528560188     -2.063890143     -2.170017823
H      -3.400706422     -1.538754514     -1.676866399
H      -2.822350918     -2.993788535     -1.698053793
H      -0.734710411     -1.271559909     -1.904440174
H      -0.636730538     -3.043152530     -2.897490246
           6
  t=        86.00000    1    1
C      -2.712996688     -2.078414090     -2.025157526
C      -1.540156376     -2.076420655     -2.185420082
H      -3.423278439     -1.509599050     -1.688250743
H      -2.892569190     -3.062866457     -1.708726637
H      -0.760702807     -1.292294461     -1.937983979
H      -0.637427841     -3.020811849     -2.886200970
           6
  t=        86.50000    1    1
C      -2.721656028     -2.092380662     -2.034370285
C      -1.547920609     -2.088680629     -2.201665454
H      -3.454774051     -1.468392050     -1.695080962
H      -2.968449208     -3.139086501     -1.722102862
H      -0.790085293     -1.313572142     -1.973956263
H      -0.646452303     -2.993495024     -2.868151174
           6
  t=        87.00000    1    1
C      -2.732482288     -2.107495635     -2.042961601
C      -1.552075314     -2.100845195     -2.218742291
H      -3.489361088     -1.420300331     -1.699870517
H      -3.047407360     -3.215133832     -1.739712187
H      -0.821762868     -1.334085110     -2.011792035
H      -0.664201757     -2.961453231     -2.843542901
           6
  t=        87.50000    1    1
C      -2.745793231     -2.123706799     -2.050752584
C      -1.552925250     -2.113126320     -2.236658479
H      -3.522364609     -1.370114023     -1.704577777
H      -3.127394762     -3.286014982     -1.762186642
H      -0.854504176     -1.351792875     -2.050728345
H      -0.691213638     -2.925026669     -2.812586321
           6
  t=        88.00000    1    1
C      -2.761644150     -2.140888746     -2.057677382
C      -1.550941182     -2.125727311     -2.255388672
H      -3.550657237     -1.321580309     -1.710480237
H      -3.206799140     -3.348710729     -1.789564631
H      -0.886851395     -1.364055900     -2.089918889
H      -0.727417055     -2.885198703     -2.775898548
           6
  t=        88.50000    1    1
C      -2.779871077     -2.158910923     -2.063753012
C      -1.546740538     -2.138790457     -2.274850121
H      -3.572454510     -1.277385689     -1.718317865
H      -3.284395606     -3.401433729     -1.821544414
H      -0.917337326     -1.368230340     -2.128659647
H      -0.771885282     -2.843574189     -2.734528607
           6
  t=        89.00000    1    1
C      -2.800158931     -2.177652632     -2.069053328
C      -1.541103324     -2.152292185     -2.294844440
H      -3.586863439     -1.239526873     -1.728556548
H      -3.359024075     -3.442964139     -1.857663202
H      -0.944952544     -1.362189812     -2.166439861
H      -0.822140936     -2.803221708     -2.690468017
           6
  t=        89.50000    1    1
C      -2.822164552     -2.197010940     -2.073679294
C      -1.534978219     -2.165900592     -2.315019147
H      -3.593345052     -1.209660138     -1.741544357
H      -3.429426794     -3.472253498     -1.897419885
H      -0.969487195     -1.344936976     -2.203069716
H      -0.872975425     -2.769712163     -2.647056660
           6
  t=        90.00000    1    1
C      -2.845590508     -2.216903960     -2.077730830
C      -1.529480253     -2.178901164     -2.334899341
H      -3.591651899     -1.189170455     -1.757511796
H      -3.494325291     -3.488295378     -1.940344777
H      -0.991527651     -1.316992629     -2.238771773
H      -0.915586054     -2.751635871     -2.608779307
           6
  t=        90.50000    1    1
C      -2.870205627     -2.237265127     -2.081288336
C      -1.525724699     -2.190307972     -2.354035816
H      -3.582013992     -1.179037201     -1.776397433
H      -3.552722148     -3.490312990     -1.986130765
H      -1.012273943     -1.280556577     -2.274356962
H      -0.939005547     -2.759131614     -2.579588139
           6
  t=        91.00000    1    1
C      -2.895810540     -2.258026139     -2.084426179
C      -1.524354476     -2.199448965     -2.372275741
H      -3.565100414     -1.179873646     -1.797950859
H      -3.603870959     -3.477786174     -2.034475628
H      -1.032958109     -1.239037586     -2.310790468
H      -0.936794016     -2.797519306     -2.560005556
           6
  t=        91.50000    1    1
C      -2.922037491     -2.279071303     -2.087335571
C      -1.525446453     -2.206256181     -2.389706873
H      -3.542148124     -1.191501876     -1.822094528
H      -3.647279850     -3.451304442     -2.084135034
H      -1.054689194     -1.196345905     -2.347817004
H      -0.910563396     -2.864665486     -2.548284624
           6
  t=        92.00000    1    1
C      -2.948561087     -2.300278139     -2.090234229
C      -1.528399939     -2.211333269     -2.406559249
H      -3.514407141     -1.213345762     -1.848807565
H      -3.682680741     -3.411994768     -2.133577507
H      -1.078445325     -1.155640059     -2.384646066
H      -0.869388589     -2.951127332     -2.541432895
           6
  t=        92.50000    1    1
C      -2.975099452     -2.321522749     -2.093317756
C      -1.532517505     -2.215470615     -2.423011479
H      -3.483069422     -1.244404671     -1.877883471
H      -3.710293504     -3.361744457     -2.181535585
H      -1.104517189     -1.119602408     -2.420722390
H      -0.823236114     -3.045394142     -2.537020607
           6
  t=        93.00000    1    1
C      -3.001391981     -2.342682755     -2.096726681
C      -1.537368474     -2.219258833     -2.439141399
H      -3.449307058     -1.283597775     -1.908933246
H      -3.730476150     -3.302533617     -2.227303918
H      -1.132827560     -1.090415786     -2.455855931
H      -0.778890202     -3.138804471     -2.533730176
           6
  t=        93.50000    1    1
C      -3.027147968     -2.363645750     -2.100563152
C      -1.542758438     -2.223072434     -2.454955241
H      -3.414574377     -1.328998448     -1.941477930
H      -3.744226292     -3.236984624     -2.270540983
H      -1.163185473     -1.069297333     -2.489909082
H      -0.739870350     -3.226322299     -2.531228274
           6
  t=        94.00000    1    1
C      -3.051981555     -2.384308397     -2.104901455
C      -1.548639547     -2.227161197     -2.470430571
H      -3.380739790     -1.377745010     -1.974847758
H      -3.753573105     -3.168519156     -2.311337311
H      -1.195134896     -1.057138357     -2.522844285
H      -0.707902906     -3.304751320     -2.529513851
           6
  t=        94.50000    1    1
C      -3.075411612     -2.404573588     -2.109777011
C      -1.555039127     -2.231695675     -2.485554723
H      -3.349780403     -1.425755969     -2.008116190
H      -3.761874182     -3.101747595     -2.350398358
H      -1.228061871     -1.054388398     -2.554611905
H      -0.683674536     -3.372237984     -2.528586488
           6
  t=        95.00000    1    1
C      -3.096824379     -2.424319028     -2.115161644
C      -1.562095338     -2.236799235     -2.500321991
H      -3.323214260     -1.467679613     -2.040121288
H      -3.774078527     -3.042810467     -2.389458436
H      -1.261240900     -1.061120839     -2.585136402
H      -0.667110762     -3.427907318     -2.528353067
           6
  t=        95.50000    1    1
C      -3.115555443     -2.443433244     -2.120957169
C      -1.570053617     -2.242567804     -2.514720959
H      -3.302063847     -1.498903267     -2.069972486
H      -3.795725258     -2.996972641     -2.430921396
H      -1.293851224     -1.076713389     -2.614316011
H      -0.657463140     -3.471914667     -2.528708028
           6
  t=        96.00000    1    1
C      -3.131122932     -2.461893319     -2.127053746
C      -1.579142041     -2.249112590     -2.528741720
H      -3.286985231     -1.516160323     -2.097054524
H      -3.830880962     -2.967020580     -2.477001889
H      -1.325024022     -1.100262821     -2.642050102
H      -0.653901953     -3.504591352     -2.529579491
           6
  t=        96.50000    1    1
C      -3.143451577     -2.479777772     -2.133460796
C      -1.589516384     -2.256604659     -2.542380143
H      -3.278252187     -1.518325414     -2.120911045
H      -3.879769495     -2.952280315     -2.528238493
H      -1.353858680     -1.130641816     -2.668227341
H      -0.655870924     -3.525890049     -2.530933540
           6
  t=        97.00000    1    1
C      -3.152911980     -2.497165815     -2.140353422
C      -1.601245537     -2.265257907     -2.555632580
H      -3.275656457     -1.507001575     -2.141206377
H      -3.938528043     -2.949450283     -2.582927336
H      -1.379502820     -1.166312645     -2.692826224
H      -0.663056664     -3.535554438     -2.532788207
           6
  t=        97.50000    1    1
C      -3.160073959     -2.514041645     -2.147960494
C      -1.614297164     -2.275299341     -2.568489704
H      -3.278630714     -1.485584751     -2.157860232
H      -4.001794459     -2.954824188     -2.638341951
H      -1.401427791     -1.205426161     -2.715913100
H      -0.675512803     -3.533227377     -2.535267896
           6
  t=        98.00000    1    1
C      -3.165505265     -2.530288915     -2.156515124
C      -1.628621549     -2.286947655     -2.580927087
H      -3.286512665     -1.458189610     -2.170930584
H      -4.064296139     -2.965353602     -2.691586322
H      -1.419223248     -1.245908216     -2.737627575
H      -0.693411874     -3.518697233     -2.538584446
           6
  t=        98.50000    1    1
C      -3.169670215     -2.545733107     -2.166185600
C      -1.644141977     -2.300410431     -2.592916512
H      -3.298826604     -1.429024253     -2.180694636
H      -4.121814522     -2.978765141     -2.740280526
H      -1.432601741     -1.285474825     -2.758146205
H      -0.717117030     -3.491919316     -2.542994964
           6
  t=        99.00000    1    1
C      -3.172887499     -2.560202417     -2.177052646
C      -1.660751078     -2.315889374     -2.604435745
H      -3.315422973     -1.401730689     -2.187565505
H      -4.171439811     -2.993364499     -2.782871720
H      -1.441469885     -1.321880184     -2.777682516
H      -0.747263020     -3.452835415     -2.548728719
           6
  t=        99.50000    1    1
C      -3.175379550     -2.573554927     -2.189134530
C      -1.678330780     -2.333510282     -2.615472200
H      -3.336126438     -1.379152946     -2.191960550
H      -4.211375439     -3.008061679     -2.818491323
H      -1.445907097     -1.353319759     -2.796444420
H      -0.784498774     -3.401688122     -2.555961301
           6
  t=       100.00000    1    1
C      -3.177321878     -2.585675931     -2.202416639
C      -1.696763408     -2.353267264     -2.626023719
H      -3.360522173     -1.363498576     -2.194280700
H      -4.240588399     -3.022263883     -2.846691227
H      -1.446222952     -1.378904648     -2.814525928
H      -0.829273412     -3.339188577     -2.564845728
           6
  t=       100.50000    1    1
C      -3.178876038     -2.596485596     -2.216874211
C      -1.715961415     -2.374971978     -2.636108212
H      -3.387866385     -1.356378890     -2.194938614
H      -4.258498297     -3.035738504     -2.867196900
H      -1.443047612     -1.398863690     -2.831762915
H      -0.881399117     -3.266924738     -2.575489625
           6
  t=       101.00000    1    1
C      -3.180201772     -2.605948579     -2.232469073
C      -1.735889821     -2.398225913     -2.645774163
H      -3.417196109     -1.358806709     -2.194398364
H      -4.264916039     -3.048487109     -2.879863059
H      -1.437442558     -1.414275859     -2.847715763
H      -0.939479815     -3.187972878     -2.587890986
           6
  t=       101.50000    1    1
C      -3.181449947     -2.614069223     -2.249147105
C      -1.756627574     -2.422436115     -2.655094889
H      -3.447631723     -1.371252932     -2.193073051
H      -4.260024907     -3.060666993     -2.884718444
H      -1.430580585     -1.426754959     -2.861857699
H      -1.000300684     -3.107104728     -2.601905973
           6
  t=       102.00000    1    1
C      -3.182752003     -2.620884383     -2.266845688
C      -1.778542735     -2.446750266     -2.664164475
H      -3.478455662     -1.393753754     -2.191277052
H      -4.244249740     -3.072567850     -2.881938463
H      -1.423682986     -1.437523994     -2.873801105
H      -1.056981241     -3.032488164     -2.617057495
           6
  t=       102.50000    1    1
C      -3.184232999     -2.626452262     -2.285506312
C      -1.802395474     -2.470100348     -2.673091830
H      -3.509119238     -1.426009180     -2.189215681
H      -4.218015054     -3.084542612     -2.871728617
H      -1.417820053     -1.447799257     -2.883241735
H      -1.098027279     -2.974886585     -2.632638437
           6
  t=       103.00000    1    1
C      -3.185997995     -2.630866967     -2.305053819
C      -1.829025581     -2.491568555     -2.681965153
H      -3.539172409     -1.467342675     -2.187115690
H      -4.181861690     -3.096935226     -2.854446664
H      -1.413918087     -1.458849235     -2.889929232
H      -1.111163176     -2.943179053     -2.648159260
           6
  t=       103.50000    1    1
C      -3.188131023     -2.634253583     -2.325380768
C      -1.858578474     -2.510866414     -2.690815247
H      -3.568180026     -1.516691447     -2.185319613
H      -4.136838362     -3.110199765     -2.830697192
H      -1.413016022     -1.471458990     -2.893646321
H      -1.092002370     -2.939136049     -2.663803310
           6
  t=       104.00000    1    1
C      -3.190694234     -2.636747493     -2.346336421
C      -1.890255919     -2.528277828     -2.699647378
H      -3.595797474     -1.572491194     -2.184029776
H      -4.084909713     -3.125254836     -2.801551711
H      -1.416122780     -1.485970464     -2.894312727
H      -1.046686839     -2.958065293     -2.680110417
           6
  t=       104.50000    1    1
C      -3.193685672     -2.638465452     -2.367721362
C      -1.922633035     -2.544365066     -2.708474420
H      -3.621941780     -1.632331044     -2.183148933
H      -4.029330717     -3.144071313     -2.768755047
H      -1.423894561     -1.502506028     -2.891950365
H      -0.988390114     -2.992193361     -2.697633868
           6
  t=       105.00000    1    1
C      -3.197032666     -2.639490823     -2.389308384
C      -1.954391228     -2.559557038     -2.717355688
H      -3.647039735     -1.692989536     -2.182311680
H      -3.974496839     -3.169745090     -2.734443454
H      -1.436748498     -1.521168942     -2.886555569
H      -0.928450653     -3.035438490     -2.716607031
           6
  t=       105.50000    1    1
C      -3.200641502     -2.639903389     -2.410880070
C      -1.984478565     -2.574092437     -2.726386828
H      -3.672098423     -1.750727654     -2.181034733
H      -3.925240462     -3.206031685     -2.700568618
H      -1.454912831     -1.542199278     -2.878080331
H      -0.874451914     -3.083749250     -2.737060467
           6
  t=       106.00000    1    1
C      -3.204478845     -2.639811601     -2.432278724
C      -2.012047336     -2.588068039     -2.735675038
H      -3.698606883     -1.801787458     -2.178730249
H      -3.885729930     -3.256640200     -2.668348406
H      -1.478371262     -1.565915368     -2.866572522
H      -0.831251067     -3.134410722     -2.758918015
           6
  t=       106.50000    1    1
C      -3.208741474     -2.639406327     -2.453435518
C      -2.036472621     -2.601483752     -2.745330781
H      -3.728198652     -1.843228472     -2.174689839
H      -3.857658292     -3.323652173     -2.637863344
H      -1.506742696     -1.592351405     -2.852383874
H      -0.801004191     -3.185974438     -2.781959715
           6
  t=       107.00000    1    1
C      -3.213956176     -2.639032790     -2.474345333
C      -2.057317052     -2.614324798     -2.755456282
H      -3.762139565     -1.873595441     -2.168396789
H      -3.839211699     -3.405766344     -2.608146272
H      -1.539134358     -1.621083406     -2.836080705
H      -0.784086613     -3.237683412     -2.805946021
           6
  t=       107.50000    1    1
C      -3.220842926     -2.639160493     -2.494985666
C      -2.074280591     -2.626614143     -2.766129063
H      -3.800820490     -1.893135137     -2.159837730
H      -3.826536676     -3.498392898     -2.578094990
H      -1.574181767     -1.651265553     -2.818338373
H      -0.780321549     -3.288858400     -2.830661556
           6
  t=       108.00000    1    1
C      -3.230076655     -2.640239928     -2.515264206
C      -2.087211568     -2.638447643     -2.777389943
H      -3.843502334     -1.903663132     -2.149563765
H      -3.815863225     -3.595412000     -2.547279245
H      -1.610208696     -1.681540815     -2.799933469
H      -0.789659338     -3.338650606     -2.855822440
           6
  t=       108.50000    1    1
C      -3.242112036     -2.642569887     -2.535036638
C      -2.096137008     -2.650010377     -2.789239262
H      -3.888538298     -1.907972873     -2.138580758
H      -3.804679999     -3.691189955     -2.516009304
H      -1.645442395     -1.709960480     -2.781616865
H      -0.812291098     -3.386083329     -2.881077234
           6
  t=       109.00000    1    1
C      -3.257138539     -2.646283209     -2.554150461
C      -2.101256941     -2.661551748     -2.801648574
H      -3.933944831     -1.908943338     -2.128049283
H      -3.791852631     -3.781688963     -2.485048880
H      -1.678121109     -1.734124242     -2.764016879
H      -0.848455392     -3.430161019     -2.906029438
           6
  t=       109.50000    1    1
C      -3.275135330     -2.651431823     -2.572473344
C      -2.102913091     -2.673319707     -2.814580790
H      -3.977789459     -1.909146808     -2.118919869
H      -3.777199459     -3.864084365     -2.455409841
H      -1.706625525     -1.751580464     -2.747754992
H      -0.898061995     -3.470014456     -2.930113924
           6
  t=       110.00000    1    1
C      -3.295870347     -2.658023818     -2.589969762
C      -2.101569554     -2.685504195     -2.827962602
H      -4.018473814     -1.910497888     -2.112350662
H      -3.760852437     -3.936638770     -2.427497187
H      -1.729721202     -1.760706002     -2.732623225
H      -0.961046954     -3.504729863     -2.953272360
           6
  t=       110.50000    1    1
C      -3.318997925     -2.666056626     -2.606659383
C      -2.097703590     -2.698199779     -2.841700088
H      -4.054794076     -1.914221415     -2.109409089
H      -3.743145643     -3.998470446     -2.401433573
H      -1.746701437     -1.761059408     -2.718125247
H      -1.037418648     -3.533309369     -2.975695751
           6
  t=       111.00000    1    1
C      -3.344110654     -2.675555242     -2.622573370
C      -2.091815695     -2.711364303     -2.855688276
H      -4.085959271     -1.920977829     -2.110980595
H      -3.724526398     -4.048986333     -2.377311337
H      -1.757374441     -1.753513231     -2.703856000
H      -1.126603369     -3.555017537     -2.997690871
           6
  t=       111.50000    1    1
C      -3.370665000     -2.686547046     -2.637746409
C      -2.084557630     -2.724801625     -2.869784668
H      -4.111653172     -1.931111540     -2.117448462
H      -3.705546048     -4.087591385     -2.355576800
H      -1.762199809     -1.740132567     -2.690076583
H      -1.226616785     -3.570050803     -3.019451690
           6
  t=       112.00000    1    1
C      -3.398091677     -2.699052733     -2.652219534
C      -2.076633641     -2.738191144     -2.883836851
H      -4.131840786     -1.944815709     -2.128716070
H      -3.686876880     -4.113832390     -2.336866176
H      -1.761855390     -1.723634443     -2.677552964
H      -1.334535606     -3.579525803     -3.040999768
           6
  t=       112.50000    1    1
C      -3.425879555     -2.713109065     -2.666038601
C      -2.068771474     -2.751070155     -2.897685181
H      -4.146747514     -1.962072583     -2.144572248
H      -3.669160848     -4.127307782     -2.321667915
H      -1.756814174     -1.706964220     -2.667022264
H      -1.446438384     -3.585991873     -3.062676597
           6
  t=       113.00000    1    1
C      -3.453552490     -2.728750326     -2.679246474
C      -2.061746734     -2.762816894     -2.911143536
H      -4.156945519     -1.982603794     -2.164646946
H      -3.653030022     -4.127698051     -2.310444604
H      -1.747426227     -1.692849214     -2.659218270
H      -1.557202517     -3.594319791     -3.085362841
           6
  t=       113.50000    1    1
C      -3.480674520     -2.745991146     -2.691876863
C      -2.056298293     -2.772691551     -2.924006942
H      -4.163320205     -2.005782399     -2.188409969
H      -3.639110843     -4.114933832     -2.303669358
H      -1.733983643     -1.683536205     -2.654792255
H      -1.661414684     -3.611600118     -3.110505055
           6
  t=       114.00000    1    1
C      -3.506876480     -2.764818740     -2.703962622
C      -2.052916256     -2.780073469     -2.936108150
H      -4.167051301     -2.030571576     -2.215193455
H      -3.628072404     -4.089399272     -2.301655846
H      -1.716712030     -1.680690578     -2.654145928
H      -1.755559417     -3.644367994     -3.139657116
           6
  t=       114.50000    1    1
C      -3.531814312     -2.785203564     -2.715531455
C      -2.051767888     -2.784777731     -2.947379082
H      -4.169567054     -2.055637705     -2.244271957
H      -3.620743842     -4.051846912     -2.304580795
H      -1.695867540     -1.685574076     -2.657568562
H      -1.839229734     -3.694498239     -3.173559549
           6
  t=       115.00000    1    1
C      -3.555174617     -2.807076309     -2.726616117
C      -2.052800267     -2.787195210     -2.957888511
H      -4.172489178     -2.079535730     -2.274880967
H      -3.618118613     -4.003434573     -2.312369246
H      -1.671810963     -1.699019544     -2.665263689
H      -1.913814675     -3.757613560     -3.211638529
           6
  t=       115.50000    1    1
C      -3.576681752     -2.830291424     -2.737269073
C      -2.055950814     -2.788038603     -2.967775695
H      -4.177440346     -2.100813171     -2.306249692
H      -3.621044667     -3.945907461     -2.324691135
H      -1.645029386     -1.721256358     -2.677367090
H      -1.980386651     -3.826433952     -3.252574627
           6
  t=       116.00000    1    1
C      -3.596101814     -2.854558731     -2.747576364
C      -2.061223861     -2.788063835     -2.977189693
H      -4.185831683     -2.118133933     -2.337753552
H      -3.629954113     -3.882305398     -2.340807145
H      -1.616110905     -1.751929441     -2.693904090
H      -2.039249851     -3.894061073     -3.294905027
           6
  t=       116.50000    1    1
C      -3.613259433     -2.879371756     -2.757675257
C      -2.068663599     -2.787936718     -2.986275661
H      -4.198655916     -2.130606729     -2.369082577
H      -3.644967752     -3.817728238     -2.359169593
H      -1.585640397     -1.790345551     -2.714760937
H      -2.090268931     -3.955080972     -3.337235886
           6
  t=       117.00000    1    1
C      -3.628096708     -2.903843759     -2.767844587
C      -2.078285175     -2.788208011     -2.995165034
H      -4.216237422     -2.137992852     -2.400212688
H      -3.665982507     -3.761180719     -2.376366875
H      -1.554150259     -1.835432134     -2.739658151
H      -2.133199643     -4.005803615     -3.378393709
           6
  t=       117.50000    1    1
C      -3.640626862     -2.926751852     -2.778507642
C      -2.090081882     -2.789319095     -3.003968745
H      -4.238301794     -2.140884237     -2.431417222
H      -3.693230319     -3.724981596     -2.386920651
H      -1.521940595     -1.885734481     -2.768254167
H      -2.167706719     -4.044085187     -3.417559472
           6
  t=       118.00000    1    1
C      -3.650955338     -2.946975377     -2.790082737
C      -2.103975391     -2.791598525     -3.012775069
H      -4.263920995     -2.140582922     -2.463103974
H      -3.727440082     -3.719906152     -2.385261176
H      -1.489026506     -1.939406810     -2.800200103
H      -2.193651097     -4.069132624     -3.454207637
           6
  t=       118.50000    1    1
C      -3.659230904     -2.964049134     -2.802700486
C      -2.119908955     -2.795327408     -3.021655020
H      -4.291881565     -2.138488020     -2.495665289
H      -3.769205491     -3.748908166     -2.369305840
H      -1.455174421     -1.994600706     -2.835238603
H      -2.210789632     -4.080635027     -3.487883294
           6
  t=       119.00000    1    1
C      -3.665713046     -2.978312522     -2.816066037
C      -2.137837139     -2.800742045     -3.030675578
H      -4.320823140     -2.135974618     -2.529414404
H      -3.817799061     -3.805386713     -2.342235477
H      -1.420071946     -2.049619593     -2.873106713
H      -2.218972014     -4.078654936     -3.518070578
           6
  t=       119.50000    1    1
C      -3.670787906     -2.990533432     -2.829645696
C      -2.157668848     -2.807988538     -3.039897523
H      -4.349271279     -2.134364024     -2.564488376
H      -3.871060214     -3.877884258     -2.310346333
H      -1.383726229     -2.103207074     -2.913551426
H      -2.218310422     -4.063694153     -3.544224272
           6
  t=       120.00000    1    1
C      -3.674892825     -3.001434934     -2.842951728
C      -2.179214380     -2.817089420     -3.049373488
H      -4.375819084     -2.134984134     -2.600769349
H      -3.926174870     -3.955701493     -2.279738554
H      -1.346897542     -2.154807603     -2.956310383
H      -2.209314769     -4.036795270     -3.565808993
           6
  t=       120.50000    1    1
C      -3.678363404     -3.011511273     -2.855687902
C      -2.202221942     -2.827957125     -3.059163045
H      -4.399466265     -2.138805656     -2.637992125
H      -3.980727490     -4.031696193     -2.254432048
H      -1.310954508     -2.204425929     -3.000957866
H      -2.193033640     -3.999279214     -3.582315702
           6
  t=       121.00000    1    1
C      -3.681430650     -3.021078407     -2.867701438
C      -2.226386501     -2.840424560     -3.069329068
H      -4.419648564     -2.146398173     -2.675890065
H      -4.033017393     -4.101603032     -2.236600078
H      -1.277769329     -2.252432384     -3.046909421
H      -2.170741844     -3.952697531     -3.593493493
           6
  t=       121.50000    1    1
C      -3.684261706     -3.030329817     -2.878928133
C      -2.251369387     -2.854273468     -3.079910719
H      -4.436106243     -2.158089737     -2.714165596
H      -4.081921070     -4.162933901     -2.227299398
H      -1.249550012     -2.299233540     -3.093553884
H      -2.143658478     -3.899098974     -3.599492759
           6
  t=       122.00000    1    1
C      -3.686983332     -3.039369688     -2.889362768
C      -2.276837665     -2.869240447     -3.090914525
H      -4.448799267     -2.174005003     -2.752483313
H      -4.126726090     -4.214462192     -2.226891014
H      -1.228479377     -2.345037694     -3.140264662
H      -2.112809898     -3.841274347     -3.600898902
           6
  t=       122.50000    1    1
C      -3.689690349     -3.048236020     -2.899043235
C      -2.302502094     -2.884990000     -3.102298192
H      -4.457896319     -2.194081046     -2.790468238
H      -4.167064321     -4.255926978     -2.235230786
H      -1.216263630     -2.389461938     -3.186291995
H      -2.079005995     -3.783475298     -3.599033246
           6
  t=       123.00000    1    1
C      -3.692458450     -3.056959778     -2.908026480
C      -2.328164249     -2.901100279     -3.113953711
H      -4.463761836     -2.217994123     -2.827710547
H      -4.202754934     -4.287500371     -2.251972960
H      -1.213939966     -2.431635767     -3.230868481
H      -2.042488402     -3.731381598     -3.596027208
           6
  t=       123.50000    1    1
C      -3.695368450     -3.065616345     -2.916367999
C      -2.353717774     -2.917112991     -3.125734456
H      -4.466904512     -2.245169363     -2.863797626
H      -4.233608659     -4.309305405     -2.276809146
H      -1.221990868     -2.470505372     -3.273311481
H      -2.002759548     -3.691061523     -3.594370337
           6
  t=       124.00000    1    1
C      -3.698497015     -3.074337182     -2.924124744
C      -2.379107622     -2.932660919     -3.137524145
H      -4.467986948     -2.274707278     -2.898356403
H      -4.259468127     -4.321453129     -2.309434308
H      -1.240401841     -2.504897092     -3.313123727
H      -1.959071097     -3.667286343     -3.595944933
           6
  t=       124.50000    1    1
C      -3.701920850     -3.083293563     -2.931341685
C      -2.404241129     -2.947597400     -3.149321718
H      -4.467774710     -2.305456146     -2.931135641
H      -4.280222304     -4.324038501     -2.349523614
H      -1.268790422     -2.533499727     -3.349973851
H      -1.911341142     -3.662130804     -3.601135233
           6
  t=       125.00000    1    1
C      -3.705730872     -3.092674409     -2.938045593
C      -2.428898880     -2.962017799     -3.161264665
H      -4.467120943     -2.336138230     -2.962007071
H      -4.295784021     -4.317115291     -2.396734161
H      -1.306707791     -2.555153910     -3.383741428
H      -1.860783644     -3.674590761     -3.608575558
           6
  t=       125.50000    1    1
C      -3.710044732     -3.102673590     -2.944248354
C      -2.452737084     -2.976166469     -3.173569048
H      -4.466927025     -2.365450405     -2.990934937
H      -4.306026284     -4.300670921     -2.450698021
H      -1.353690044     -2.569075027     -3.414539752
H      -1.809782779     -3.701544804     -3.615840135
           6
  t=       126.00000    1    1
C      -3.715019530     -3.113483729     -2.949952122
C      -2.475356569     -2.990320442     -3.186446198
H      -4.468053225     -2.392130028     -3.017954014
H      -4.310676894     -4.274586461     -2.511020101
H      -1.409130496     -2.574706516     -3.442637419
H      -1.761241564     -3.739334819     -3.620476871
           6
  t=       126.50000    1    1
C      -3.720842396     -3.125251407     -2.955173534
C      -2.496403176     -3.004707530     -3.200034579
H      -4.471188173     -2.415022721     -3.043191052
H      -4.309513550     -4.239143905     -2.577018128
H      -1.472037404     -2.571725798     -3.468458512
H      -1.717675704     -3.784694616     -3.620769065
           6
  t=       127.00000    1    1
C      -3.727694317     -3.138040207     -2.959958405
C      -2.515602374     -3.019496930     -3.214396413
H      -4.476805951     -2.433130465     -3.066818137
H      -4.302614274     -4.195379716     -2.647626347
H      -1.541163193     -2.559908020     -3.492516975
H      -1.680895309     -3.835036887     -3.615809131
           6
  t=       127.50000    1    1
C      -3.735728735     -3.151805182     -2.964382415
C      -2.532750844     -3.034835409     -3.229537928
H      -4.485073851     -2.445865286     -3.089039178
H      -4.290553233     -4.145105354     -2.721410412
H      -1.615055445     -2.538963109     -3.515330718
H      -1.652205643     -3.888214955     -3.605333576
           6
  t=       128.00000    1    1
C      -3.745033628     -3.166340967     -2.968549956
C      -2.547723993     -3.050853603     -3.245419594
H      -4.495737399     -2.453072035     -3.110166106
H      -4.274629468     -4.091461826     -2.796554672
H      -1.692246935     -2.508499959     -3.537324348
H      -1.632465677     -3.942524516     -3.589648669
           6
  t=       128.50000    1    1
C      -3.755577466     -3.181216834     -2.972597846
C      -2.560461290     -3.067672540     -3.261980926
H      -4.508047452     -2.454894007     -3.130417182
H      -4.257257137     -4.039825515     -2.871086825
H      -1.771553930     -2.468270561     -3.558898830
H      -1.622291075     -3.996384185     -3.569197904
           6
  t=       129.00000    1    1
C      -3.767191265     -3.195751047     -2.976666110
C      -2.570951374     -3.085392408     -3.279153745
H      -4.520857502     -2.452073338     -3.149867355
H      -4.242377699     -3.997959158     -2.943203484
H      -1.851842656     -2.418527767     -3.580289807
H      -1.622169608     -4.047965782     -3.544617992
           6
  t=       129.50000    1    1
C      -3.779653215     -3.209077652     -2.980818997
C      -2.579091654     -3.104082931     -3.296894627
H      -4.532875169     -2.445844363     -3.168211969
H      -4.235420558     -3.975430519     -3.012214368
H      -1.932320755     -2.360083326     -3.601703874
H      -1.632622056     -4.095143040     -3.516449125
           6
  t=       130.00000    1    1
C      -3.792760798     -3.220439842     -2.984995412
C      -2.584703829     -3.123754364     -3.315211661
H      -4.542888423     -2.437278444     -3.184489728
H      -4.241593587     -3.980695192     -3.079466379
H      -2.013139437     -2.294339434     -3.623359156
H      -1.654039099     -4.135882537     -3.484719185
           6
  t=       130.50000    1    1
C      -3.806446455     -3.229747989     -2.989135900
C      -2.587772409     -3.144209920     -3.334143774
H      -4.549798466     -2.427348474     -3.198716622
H      -4.262006416     -4.015066474     -3.145701814
H      -2.094629149     -2.224340549     -3.643898030
H      -1.687069023     -4.168266407     -3.450272105
           6
  t=       131.00000    1    1
C      -3.820742345     -3.237614286     -2.993335563
C      -2.588708829     -3.165042565     -3.353570388
H      -4.553204522     -2.416995453     -3.211366281
H      -4.292987829     -4.071431156     -3.210377080
H      -2.176394587     -2.154544461     -3.662091693
H      -1.730893422     -4.191564485     -3.414710225
           6
  t=       131.50000    1    1
C      -3.835818876     -3.244805741     -2.997805731
C      -2.587928493     -3.185945025     -3.373345276
H      -4.553014875     -2.406790122     -3.221894389
H      -4.329542449     -4.140346956     -3.272576947
H      -2.257939510     -2.088795727     -3.677822599
H      -1.784115267     -4.205325700     -3.378834875
           6
  t=       132.00000    1    1
C      -3.851770180     -3.252000008     -3.002806117
C      -2.585912528     -3.206611022     -3.393315283
H      -4.549243953     -2.397413408     -3.230115159
H      -4.367546743     -4.213321896     -3.330445781
H      -2.338277718     -2.030364299     -3.690890482
H      -1.844975275     -4.209665964     -3.343618050
           6
  t=       132.50000    1    1
C      -3.868536402     -3.259648228     -3.008552983
C      -2.583198384     -3.226769009     -3.413306711
H      -4.542198931     -2.389550820     -3.235938813
H      -4.404465597     -4.284439086     -3.382553485
H      -2.416031142     -1.981723528     -3.701407326
H      -1.911388593     -4.205203313     -3.309960437
           6
  t=       133.00000    1    1
C      -3.885910580     -3.268013497     -3.015208662
C      -2.580388047     -3.246158026     -3.433143727
H      -4.532591570     -2.383681754     -3.239368441
H      -4.438950133     -4.350111625     -3.428066449
H      -2.489571459     -1.944698475     -3.709631812
H      -1.980913651     -4.193194760     -3.278594776
           6
  t=       133.50000    1    1
C      -3.903602364     -3.277245965     -3.022890099
C      -2.578123504     -3.264466733     -3.452681475
H      -4.521452972     -2.380112142     -3.240483687
H      -4.470399433     -4.408163860     -3.466616009
H      -2.557294110     -1.920669581     -3.715856154
H      -2.050534859     -4.176050249     -3.249850403
           6
  t=       134.00000    1    1
C      -3.921290030     -3.287409368     -3.031656515
C      -2.577031055     -3.281358409     -3.471845291
H      -4.509996781     -2.378817327     -3.239451919
H      -4.498633587     -4.457426969     -3.498321563
H      -2.618040663     -1.910199226     -3.720422045
H      -2.116747708     -4.157653687     -3.223282897
           6
  t=       134.50000    1    1
C      -3.938675874     -3.298528751     -3.041551814
C      -2.577672026     -3.296484833     -3.490639288
H      -4.499345011     -2.379488665     -3.236476215
H      -4.523578346     -4.497293679     -3.523392301
H      -2.671072257     -1.913201100     -3.723604449
H      -2.176102011     -4.142858175     -3.197632876
           6
  t=       135.00000    1    1
C      -3.955545564     -3.310602275     -3.052587350
C      -2.580449425     -3.309559997     -3.509135040
H      -4.490417474     -2.381731622     -3.231816386
H      -4.545289880     -4.527603575     -3.542097855
H      -2.715877247     -1.929056539     -3.725655589
H      -2.225885254     -4.136267211     -3.171130523
           6
  t=       135.50000    1    1
C      -3.971780482     -3.323621983     -3.064760703
C      -2.585595500     -3.320443196     -3.527412552
H      -4.484021162     -2.385223911     -3.225769621
H      -4.563829016     -4.548196181     -3.554616040
H      -2.751964571     -1.957034514     -3.726773041
H      -2.264366704     -4.140865970     -3.142178781
           6
  t=       136.00000    1    1
C      -3.987318071     -3.337586284     -3.078066261
C      -2.593184779     -3.329219791     -3.545477372
H      -4.480857438     -2.389751837     -3.218628226
H      -4.579240760     -4.558872463     -3.561041255
H      -2.778783517     -1.996387910     -3.727152532
H      -2.291208046     -4.156816165     -3.110195995
           6
  t=       136.50000    1    1
C      -4.002123351     -3.352494161     -3.092496043
C      -2.603163596     -3.336191127     -3.563226126
H      -4.481434765     -2.395211665     -3.210644378
H      -4.591578501     -4.559538974     -3.561429795
H      -2.795826910     -2.046293927     -3.726990437
H      -2.307410909     -4.181559122     -3.076004163
           6
  t=       137.00000    1    1
C      -4.016184403     -3.368340785     -3.108051777
C      -2.615413052     -3.341756247     -3.580480836
H      -4.486039708     -2.401626676     -3.201992508
H      -4.600887357     -4.550170563     -3.555743819
H      -2.802684523     -2.105890881     -3.726436857
H      -2.314612598     -4.211261090     -3.041416743
           6
  t=       137.50000    1    1
C      -4.029508020     -3.385118544     -3.124752350
C      -2.629798232     -3.346341265     -3.597033885
H      -4.494738072     -2.409171919     -3.192746592
H      -4.607238064     -4.530783908     -3.543833472
H      -2.799014926     -2.173922457     -3.725639123
H      -2.314544667     -4.241999923     -3.008611131
           6
  t=       138.00000    1    1
C      -4.042115063     -3.402815732     -3.142630343
C      -2.646192572     -3.350409804     -3.612676296
H      -4.507411578     -2.418181385     -3.182875215
H      -4.610801033     -4.501482138     -3.525496247
H      -2.784489171     -2.247993994     -3.724861913
H      -2.308743457     -4.270348266     -2.979658441
           6
  t=       138.50000    1    1
C      -4.054050534     -3.421381005     -3.161703839
C      -2.664449457     -3.354507314     -3.627220773
H      -4.523833478     -2.429114500     -3.172323702
H      -4.611932996     -4.462690770     -3.500627783
H      -2.758915954     -2.324026395     -3.724505263
H      -2.298481062     -4.293612686     -2.956333983
           6
  t=       139.00000    1    1
C      -4.065386157     -3.440642261     -3.181938928
C      -2.684366035     -3.359347880     -3.640509428
H      -4.543634199     -2.442545634     -3.161117815
H      -4.611352761     -4.415866976     -3.469439382
H      -2.722377638     -2.395484680     -3.725080018
H      -2.284888400     -4.309838476     -2.940175215
           6
  t=       139.50000    1    1
C      -4.076225553     -3.460221653     -3.203193592
C      -2.705679165     -3.365888824     -3.652457514
H      -4.566093613     -2.459148451     -3.149554026
H      -4.610248854     -4.364295298     -3.432717127
H      -2.675187538     -2.452615857     -3.727042288
H      -2.269084509     -4.317915650     -2.932345542
           6
  t=       140.00000    1    1
C      -4.086660388     -3.479499618     -3.225190891
C      -2.728146067     -3.375129925     -3.663070512
H      -4.590218086     -2.479621693     -3.138277335
H      -4.610482610     -4.313443325     -3.392019762
H      -2.617252250     -2.484936880     -3.730697093
H      -2.252095728     -4.317630341     -2.933570834
           6
  t=       140.50000    1    1
C      -4.096446426     -3.497615579     -3.247637584
C      -2.751666930     -3.387471470     -3.672354628
H      -4.615238334     -2.504040290     -3.128023808
H      -4.615958487     -4.271662144     -3.349495096
H      -2.548697064     -2.488872186     -3.736158633
H      -2.234761143     -4.309616805     -2.944273230
           6
  t=       141.00000    1    1
C      -4.105118617     -3.513703278     -3.270391754
C      -2.776126904     -3.402400862     -3.680337732
H      -4.640481374     -2.532128653     -3.119282711
H      -4.632196942     -4.248253547     -3.306253402
H      -2.470838822     -2.471005116     -3.743071905
H      -2.217826357     -4.294695444     -2.964567123
           6
  t=       141.50000    1    1
C      -4.112420645     -3.527222653     -3.293431640
C      -2.801140962     -3.418989983     -3.687105043
H      -4.665319670     -2.563523065     -3.112560978
H      -4.663228996     -4.249243225     -3.261672048
H      -2.387183118     -2.442303914     -3.750840968
H      -2.202024305     -4.273730407     -2.994408010
           6
  t=       142.00000    1    1
C      -4.118572370     -3.538291608     -3.316784834
C      -2.826157434     -3.436393610     -3.692774077
H      -4.689430215     -2.597516292     -3.108303890
H      -4.708196220     -4.273547804     -3.214289936
H      -2.302201514     -2.412094201     -3.759081400
H      -2.188018602     -4.247853200     -3.033467088
           6
  t=       142.50000    1    1
C      -4.124232167     -3.547556239     -3.340361615
C      -2.850587190     -3.453990226     -3.697505577
H      -4.712617544     -2.633095085     -3.106894854
H      -4.761524541     -4.314353834     -3.163807909
H      -2.220236375     -2.386432916     -3.767630702
H      -2.176411330     -4.218540692     -3.080976316
           6
  t=       143.00000    1    1
C      -4.130166944     -3.555761213     -3.363938614
C      -2.873927960     -3.471390256     -3.701471176
H      -4.734772662     -2.669217828     -3.108715422
H      -4.816596577     -4.363864742     -3.111475855
H      -2.144542621     -2.368228371     -3.776475882
H      -2.167520592     -4.187491599     -3.135933711
           6
  t=       143.50000    1    1
C      -4.137027750     -3.563522395     -3.387235275
C      -2.895782135     -3.488336964     -3.704856216
H      -4.756000253     -2.704850239     -3.114023268
H      -4.868136370     -4.415847382     -3.059370627
H      -2.077425148     -2.358628363     -3.785653875
H      -2.161192876     -4.156546268     -3.197102344
           6
  t=       144.00000    1    1
C      -4.145265022     -3.571273236     -3.409998193
C      -2.915881575     -3.504632025     -3.707850085
H      -4.776616886     -2.738964616     -3.122855069
H      -4.912866771     -4.466297311     -3.009597508
H      -2.020400280     -2.357910605     -3.795263664
H      -2.156700217     -4.127657483     -3.263004116
           6
  t=       144.50000    1    1
C      -4.155106118     -3.579304643     -3.432052564
C      -2.934205953     -3.520149803     -3.710633136
H      -4.797027889     -2.770726257     -3.135072401
H      -4.949174084     -4.512915264     -2.963790675
H      -1.973649762     -2.365234788     -3.805411207
H      -2.152602361     -4.102830184     -3.331971173
           6
  t=       145.00000    1    1
C      -4.166683290     -3.587826479     -3.453268838
C      -2.950844929     -3.534776799     -3.713359653
H      -4.817570615     -2.799432970     -3.150456805
H      -4.976279033     -4.554350619     -2.923284799
H      -1.936865090     -2.379420983     -3.816279076
H      -2.147005486     -4.084148880     -3.402409985
           6
  t=       145.50000    1    1
C      -4.180021274     -3.596982292     -3.473565953
C      -2.965953676     -3.548442980     -3.716146299
H      -4.838666100     -2.824535873     -3.168839085
H      -4.994046669     -4.589826950     -2.888902344
H      -1.909522451     -2.399143158     -3.827845969
H      -2.138003574     -4.073388927     -3.473264411
           6
  t=       146.00000    1    1
C      -4.194970427     -3.606790608     -3.492929225
C      -2.979727632     -3.561177564     -3.719022675
H      -4.860808747     -2.845902926     -3.190225425
H      -5.003176573     -4.619409227     -2.860755009
H      -1.890917877     -2.423059190     -3.839910690
H      -2.124560930     -4.071390606     -3.544440016
           6
  t=       146.50000    1    1
C      -4.211410251     -3.617255997     -3.511336694
C      -2.992199809     -3.573046994     -3.721979069
H      -4.884322281     -2.863482899     -3.214492900
H      -5.004325991     -4.643194992     -2.839157957
H      -1.880824766     -2.450259807     -3.852455826
H      -2.106965654     -4.078170706     -3.616139350
           6
  t=       147.00000    1    1
C      -4.229230015     -3.628393101     -3.528762002
C      -3.003283401     -3.584150216     -3.725014113
H      -4.909256582     -2.877237098     -3.241400367
H      -4.998002703     -4.661210350     -2.824594765
H      -1.879328299     -2.480029147     -3.865533104
H      -2.086928692     -4.093104232     -3.688398623
           6
  t=       147.50000    1    1
C      -4.248321943     -3.640216939     -3.545182013
C      -3.012816802     -3.594606827     -3.728162560
H      -4.935443360     -2.887179158     -3.270682044
H      -4.984616094     -4.673454144     -2.817535541
H      -1.886710252     -2.511772072     -3.879109160
H      -2.067137026     -4.115169774     -3.760908462
           6
  t=       148.00000    1    1
C      -4.268566473     -3.652742832     -3.560569954
C      -3.020627867     -3.604526702     -3.731509289
H      -4.962577903     -2.893391883     -3.302261648
H      -4.964418547     -4.679841959     -2.818291980
H      -1.903488250     -2.545113260     -3.892813823
H      -2.050601264     -4.143252482     -3.833111254
           6
  t=       148.50000    1    1
C      -4.289840490     -3.665988823     -3.574887174
C      -3.026563309     -3.613988344     -3.735167857
H      -4.990292411     -2.896130738     -3.336335585
H      -4.937472362     -4.680056893     -2.827084945
H      -1.930443212     -2.579946291     -3.905916100
H      -2.040139487     -4.176369792     -3.904428160
           6
  t=       149.00000    1    1
C      -4.312001578     -3.679949804     -3.588131019
C      -3.030558168     -3.623044192     -3.739232758
H      -5.017985069     -2.895943566     -3.372817717
H      -4.904079112     -4.673892235     -2.844225752
H      -1.968221400     -2.616321808     -3.918002400
H      -2.037876707     -4.213565956     -3.973953272
           6
  t=       149.50000    1    1
C      -4.334866559     -3.694595402     -3.600338494
C      -3.032662112     -3.631713582     -3.743784056
H      -5.044785295     -2.893524369     -3.411263344
H      -4.864899288     -4.661458456     -2.870053087
H      -2.017337403     -2.654527272     -3.929039022
H      -2.045099272     -4.253880563     -4.040431331
           6
  t=       150.00000    1    1
C      -4.358229488     -3.709867163     -3.611549153
C      -3.032961042     -3.639978152     -3.748917859
H      -5.069855252     -2.889650479     -3.451426426
H      -4.820834824     -4.643117838     -2.904530173
H      -2.078451925     -2.695064719     -3.938698625
H      -2.062512805     -4.296587272     -4.102855998
           6
  t=       150.50000    1    1
C      -4.381870203     -3.725643515     -3.621841694
C      -3.031615113     -3.647841299     -3.754720181
H      -5.092503498     -2.885197336     -3.493066414
H      -4.773241072     -4.619855617     -2.947025502
H      -2.151571468     -2.738188662     -3.946672037
H      -2.090161906     -4.340979006     -4.160445845
           6
  t=       151.00000    1    1
C      -4.405527927     -3.741713667     -3.631351915
C      -3.028884666     -3.655366796     -3.761250324
H      -5.112257259     -2.881083093     -3.535848504
H      -4.723895376     -4.593572147     -2.996285168
H      -2.235768443     -2.783500548     -3.952917001
H      -2.127674808     -4.386387658     -4.212507096
           6
  t=       151.50000    1    1
C      -4.428898545     -3.757731661     -3.640322915
C      -3.025137590     -3.662726773     -3.768531187
H      -5.128876149     -2.878204361     -3.579304860
H      -4.675170176     -4.567778795     -3.049878014
H      -2.328746937     -2.829421084     -3.957804815
H      -2.174455429     -4.432055814     -4.258397909
           6
  t=       152.00000    1    1
C      -4.451620694     -3.773162102     -3.649148315
C      -3.020886414     -3.670266054     -3.776541632
H      -5.142276064     -2.877428189     -3.622869090
H      -4.629975431     -4.548282179     -3.103651850
H      -2.426567031     -2.872497270     -3.962218840
H      -2.229816638     -4.477033587     -4.297515090
           6
  t=       152.50000    1    1
C      -4.473361720     -3.787309759     -3.658329886
C      -3.016816057     -3.678602191     -3.785190296
H      -5.152424238     -2.879605995     -3.665991178
H      -4.591003720     -4.542823386     -3.152104100
H      -2.523229521     -2.906150233     -3.967776091
H      -2.292900292     -4.520232929     -4.329403944
           6
  t=       153.00000    1    1
C      -4.493871185     -3.799481071     -3.668337175
C      -3.013725096     -3.688663719     -3.794302701
H      -5.159497858     -2.885441840     -3.708091285
H      -4.559939036     -4.559232724     -3.190058855
H      -2.611486487     -2.920152123     -3.977068322
H      -2.362561721     -4.560547465     -4.353712531
           6
  t=       153.50000    1    1
C      -4.513013538     -3.809376928     -3.679363716
C      -3.012196702     -3.701305334     -3.803688259
H      -5.164110793     -2.895253031     -3.748605375
H      -4.537176262     -4.601039465     -3.215500599
H      -2.686553811     -2.905042204     -3.992677905
H      -2.437242583     -4.596971168     -4.370402919
           6
  t=       154.00000    1    1
C      -4.530721584     -3.817313742     -3.691247304
C      -3.012369751     -3.716662188     -3.813261142
H      -5.167034243     -2.908914603     -3.787104465
H      -4.522123633     -4.664931256     -3.230683665
H      -2.749088103     -2.859408562     -4.015332592
H      -2.515252728     -4.628972558     -4.379877482
           6
  t=       154.50000    1    1
C      -4.546872942     -3.824016790     -3.703612792
C      -3.014148474     -3.733995768     -3.823103328
H      -5.169099480     -2.926139767     -3.823469611
H      -4.514239054     -4.742914981     -3.240192217
H      -2.802981201     -2.791604076     -4.043257022
H      -2.595010513     -4.656636422     -4.382939669
           6
  t=       155.00000    1    1
C      -4.561141201     -3.830258336     -3.716050779
C      -3.017614279     -3.752139383     -3.833401263
H      -5.171535025     -2.946662260     -3.858031561
H      -4.513991201     -4.826526950     -3.248240492
H      -2.851196148     -2.714863051     -4.073419191
H      -2.674775088     -4.680158231     -4.380733160
           6
  t=       155.50000    1    1
C      -4.573079104     -3.836753117     -3.728201024
C      -3.023161457     -3.770048355     -3.844282510
H      -5.175951108     -2.969785669     -3.891537186
H      -4.522401024     -4.908898254     -3.257652006
H      -2.893902784     -2.639811105     -4.103298097
H      -2.752376570     -4.700409179     -4.374981077
           6
  t=       156.00000    1    1
C      -4.582499798     -3.844105384     -3.739856590
C      -3.031052428     -3.786970677     -3.855748799
H      -5.183476915     -2.994226684     -3.924497814
H      -4.540069492     -4.985435847     -3.269788807
H      -2.930361318     -2.572234977     -4.131544274
H      -2.825924158     -4.719239480     -4.367604708
           6
  t=       156.50000    1    1
C      -4.589444811     -3.852699266     -3.750983143
C      -3.041303877     -3.802450452     -3.867700163
H      -5.194920969     -3.018771823     -3.956811100
H      -4.566834860     -5.053319419     -3.285153186
H      -2.960414089     -2.515543692     -4.157791365
H      -2.894235074     -4.738129088     -4.360170743
           6
  t=       157.00000    1    1
C      -4.594016037     -3.862720584     -3.761620712
C      -3.053870668     -3.816251533     -3.880001952
H      -5.211003460     -3.042709717     -3.988221357
H      -4.601925452     -5.110728214     -3.303847346
H      -2.984183055     -2.472011603     -4.182023976
H      -2.956562541     -4.757935411     -4.353975521
           6
  t=       157.50000    1    1
C      -4.596353416     -3.874219766     -3.771822153
C      -3.068715587     -3.828292036     -3.892525611
H      -5.232031818     -3.065945704     -4.018426965
H      -4.644148557     -5.156220175     -3.325977471
H      -3.001954782     -2.443130270     -4.204365597
H      -3.012281233     -4.779078463     -4.349992999
           6
  t=       158.00000    1    1
C      -4.596673836     -3.887133066     -3.781630817
C      -3.085779778     -3.838622333     -3.905170571
H      -5.257624603     -3.088967966     -4.047138017
H      -4.692057551     -5.188786745     -3.351722059
H      -3.014209309     -2.429547836     -4.225048522
H      -3.060856091     -4.801589821     -4.348784084
           6
  t=       158.50000    1    1
C      -4.595241282     -3.901336852     -3.791082290
C      -3.104984586     -3.847349437     -3.917885275
H      -5.286809594     -3.112631254     -4.074064594
H      -4.744226929     -5.207897393     -3.381258940
H      -3.021473700     -2.431528188     -4.244283620
H      -3.101949488     -4.825079404     -4.350440326
           6
  t=       159.00000    1    1
C      -4.592363619     -3.916687379     -3.800219018
C      -3.126220187     -3.854584526     -3.930674485
H      -5.318209199     -3.137861084     -4.098847270
H      -4.799307978     -5.213476589     -3.414678699
H      -3.024265447     -2.449367230     -4.262143857
H      -3.135410413     -4.848789375     -4.354595044
           6
  t=       159.50000    1    1
C      -4.588410721     -3.933029635     -3.809093644
C      -3.149326942     -3.860443258     -3.943589266
H      -5.350199367     -3.165399194     -4.121045837
H      -4.855991685     -5.205909341     -3.451945540
H      -3.023141302     -2.483280662     -4.278573041
H      -3.161110109     -4.871846215     -4.360544695
           6
  t=       160.00000    1    1
C      -4.583798712     -3.950199760     -3.817764255
C      -3.174100571     -3.865057831     -3.956709377
H      -5.381124284     -3.195732304     -4.140212787
H      -4.913009541     -5.185950378     -3.492863478
H      -3.018698940     -2.533360360     -4.293409077
H      -3.178850944     -4.893293897     -4.367452362
           6
  t=       160.50000    1    1
C      -4.578984595     -3.968029652     -3.826292378
C      -3.200298161     -3.868595885     -3.970126703
H      -5.409369452     -3.229080140     -4.155883141
H      -4.969085166     -5.154581102     -3.537128260
H      -3.011583919     -2.599379606     -4.306471094
H      -3.188327204     -4.912163487     -4.374440108
           6
  t=       161.00000    1    1
C      -4.574469949     -3.986334292     -3.834747244
C      -3.227566681     -3.871326998     -3.983911743
H      -5.433544627     -3.265211079     -4.167742344
H      -5.023005221     -5.113446252     -3.584215196
H      -3.002571384     -2.679615738     -4.317786874
H      -3.189597306     -4.927756967     -4.380654448
           6
  t=       161.50000    1    1
C      -4.570734389     -4.004952315     -3.843198342
C      -3.255536066     -3.873563324     -3.998112839
H      -5.452577593     -3.303560114     -4.175584203
H      -5.073679140     -5.064442199     -3.633473247
H      -2.992250523     -2.771463729     -4.327555343
H      -3.182929463     -4.939551255     -4.385349619
           6
  t=       162.00000    1    1
C      -4.568209582     -4.023710686     -3.851706287
C      -3.283831415     -3.875681198     -4.012744474
H      -5.465958711     -3.343295301     -4.179446311
H      -5.120393997     -5.010084430     -3.684011029
H      -2.980718504     -2.871115109     -4.336237805
H      -3.168772649     -4.947248802     -4.388023292
           6
  t=       162.50000    1    1
C      -4.567269049     -4.042413220     -3.860323955
C      -3.312131128     -3.878174799     -4.027770339
H      -5.473706426     -3.383254864     -4.179469532
H      -5.162929437     -4.953625136     -3.734817082
H      -2.967137101     -2.973213368     -4.344896384
H      -3.147548354     -4.950564928     -4.388286536
           6
  t=       163.00000    1    1
C      -4.568205455     -4.060838320     -3.869095826
C      -3.340198416     -3.881710230     -4.043068224
H      -5.476284572     -3.421944239     -4.175909340
H      -5.201766828     -4.899049797     -3.784840869
H      -2.949324760     -3.070189043     -4.355549077
H      -3.119827128     -4.949281549     -4.385842601
           6
  t=       163.50000    1    1
C      -4.571256927     -4.078758500     -3.878051252
C      -3.367903303     -3.887039420     -4.058447008
H      -5.474306668     -3.457522155     -4.169090869
H      -5.238043521     -4.850855972     -3.833094775
H      -2.923505648     -3.153077647     -4.371026373
H      -3.086345233     -4.943457827     -4.380451081
           6
  t=       164.00000    1    1
C      -4.576520282     -4.096012017     -3.887178388
C      -3.395179182     -3.894635264     -4.073752855
H      -5.468592211     -3.488057912     -4.159415602
H      -5.273575769     -4.813182954     -3.878982911
H      -2.885695912     -3.215741863     -4.393664883
H      -3.048090804     -4.933314859     -4.371943964
           6
  t=       164.50000    1    1
C      -4.584079996     -4.112527516     -3.896420298
C      -3.421740028     -3.904447507     -4.089023139
H      -5.460089042     -3.511594094     -4.147458933
H      -5.310016969     -4.789228497     -3.922116733
H      -2.834585206     -3.257519700     -4.423443752
H      -3.006174538     -4.919723371     -4.360388350
           6
  t=       165.00000    1    1
C      -4.594038394     -4.128339077     -3.905692605
C      -3.446964419     -3.915982079     -4.104494740
H      -5.449886822     -3.526465308     -4.133898627
H      -5.348137062     -4.780621827     -3.962292849
H      -2.773267454     -3.282703395     -4.457747640
H      -2.961828297     -4.903908405     -4.346108029
           6
  t=       165.50000    1    1
C      -4.606489381     -4.143587959     -3.914910996
C      -3.470106009     -3.928642725     -4.120453059
H      -5.439266584     -3.531435164     -4.119215618
H      -5.387657006     -4.787264437     -3.999620825
H      -2.707328734     -3.296974856     -4.493239149
H      -2.916238290     -4.886944516     -4.329453795
           6
  t=       166.00000    1    1
C      -4.621509927     -4.158471132     -3.924029704
C      -3.490498223     -3.941959974     -4.137112462
H      -5.429496487     -3.525840052     -4.103537611
H      -5.427503603     -4.807685294     -4.034373322
H      -2.642508673     -3.304990212     -4.527258714
H      -2.870495467     -4.869557241     -4.310675905
           6
  t=       166.50000    1    1
C      -4.639146492     -4.173176925     -3.933069982
C      -3.507651457     -3.955643694     -4.154584536
H      -5.421476503     -3.509641266     -4.086577321
H      -5.466126990     -4.839624329     -4.066826078
H      -2.583647648     -3.309884328     -4.558178506
H      -2.825689713     -4.852123575     -4.289830815
           6
  t=       167.00000    1    1
C      -4.659420301     -4.187845480     -3.942111634
C      -3.521259711     -3.969556696     -4.172896829
H      -5.415551046     -3.483375211     -4.067737447
H      -5.501853494     -4.880585898     -4.097147644
H      -2.534303838     -3.313417107     -4.585276494
H      -2.782985388     -4.834807621     -4.266790169
           6
  t=       167.50000    1    1
C      -4.682318564     -4.202547797     -3.951256852
C      -3.531209266     -3.983670084     -4.192009174
H      -5.411523459     -3.448275465     -4.046467725
H      -5.533175363     -4.928077012     -4.125281726
H      -2.496482513     -3.316236428     -4.608475421
H      -2.743589055     -4.817719264     -4.241498682
           6
  t=       168.00000    1    1
C      -4.707717992     -4.217275003     -3.960583401
C      -3.537601960     -3.997996632     -4.211827631
H      -5.408847408     -3.406405282     -4.022975270
H      -5.558896845     -4.979648945     -4.150720447
H      -2.470978426     -3.318425360     -4.627676087
H      -2.708703664     -4.801114391     -4.214549075
           6
  t=       168.50000    1    1
C      -4.735347438     -4.231939035     -3.970147282
C      -3.540763909     -4.012560395     -4.232216975
H      -5.406740884     -3.360483317     -3.997900734
H      -5.578072889     -5.032926503     -4.172943612
H      -2.457965277     -3.319936457     -4.642794550
H      -2.679227599     -4.785459690     -4.186848832
           6
  t=       169.00000    1    1
C      -4.764864316     -4.246388669     -3.980004983
C      -3.541112911     -4.027398154     -4.253024657
H      -5.404285411     -3.313652308     -3.971837602
H      -5.589925992     -5.085652457     -4.191667820
H      -2.457571898     -3.320695723     -4.653964829
H      -2.655831765     -4.771307313     -4.159098486
           6
  t=       169.50000    1    1
C      -4.795857562     -4.260450121     -3.990205267
C      -3.539101499     -4.042536593     -4.274089767
H      -5.400686313     -3.268926229     -3.945424317
H      -5.594084722     -5.136007813     -4.206779337
H      -2.469957759     -3.320682675     -4.661439269
H      -2.639028709     -4.759235564     -4.131857292
           6
  t=       170.00000    1    1
C      -4.827883768     -4.273962060     -4.000783907
C      -3.535161094     -4.057982902     -4.295257000
H      -5.395473557     -3.228865184     -3.919371817
H      -5.590630599     -5.182655558     -4.218230199
H      -2.495303951     -3.319958267     -4.665463838
H      -2.629168667     -4.749797101     -4.105640595
           6
  t=       170.50000    1    1
C      -4.860513491     -4.286791774     -4.011759854
C      -3.529676300     -4.073727813     -4.316389610
H      -5.388588340     -3.195530901     -3.894371442
H      -5.580009069     -5.224617875     -4.226022664
H      -2.533648597     -3.318618955     -4.666303881
H      -2.626361172     -4.743503318     -4.080893073
           6
  t=       171.00000    1    1
C      -4.893332590     -4.298832595     -4.023137839
C      -3.523008436     -4.089749065     -4.337371195
H      -5.380354027     -3.170514544     -3.871063414
H      -5.562992593     -5.261264114     -4.230183575
H      -2.584712984     -3.316722339     -4.664248569
H      -2.630418510     -4.740872413     -4.057989136
           6
  t=       171.50000    1    1
C      -4.925963784     -4.309994904     -4.034909207
C      -3.515494044     -4.106016836     -4.358100303
H      -5.371342764     -3.155063106     -3.849990765
H      -5.540588354     -5.292274087     -4.230809594
H      -2.647882695     -3.314248684     -4.659707391
H      -2.640861205     -4.742420511     -4.037191575
           6
  t=       172.00000    1    1
C      -4.958053354     -4.320209728     -4.047052749
C      -3.507503632     -4.122512794     -4.378474467
H      -5.362280030     -3.150031812     -3.831624736
H      -5.514016973     -5.317685308     -4.228089886
H      -2.721835542     -3.310933935     -4.653274177
H      -2.656865274     -4.748559229     -4.018719856
           6
  t=       172.50000    1    1
C      -4.989267268     -4.329424759     -4.059541268
C      -3.499458339     -4.139260682     -4.398380273
H      -5.353960044     -3.155881134     -3.816359068
H      -5.484622790     -5.337896994     -4.222295197
H      -2.804460970     -3.306038784     -4.645736203
H      -2.677364816     -4.759508559     -4.002797701
           6
  t=       173.00000    1    1
C      -5.019291561     -4.337592621     -4.072349266
C      -3.491802328     -4.156342025     -4.417696094
H      -5.347166508     -3.172748684     -3.804476024
H      -5.453768643     -5.353642196     -4.213764428
H      -2.893223297     -3.298275205     -4.638013298
H      -2.701197552     -4.775278949     -3.989637161
           6
  t=       173.50000    1    1
C      -5.047817546     -4.344681469     -4.085458587
C      -3.484998578     -4.173887796     -4.436299246
H      -5.342652465     -3.200365655     -3.796102606
H      -5.422802341     -5.365978384     -4.202909080
H      -2.985416707     -3.285892540     -4.631075543
H      -2.727129938     -4.795651234     -3.979407913
           6
  t=       174.00000    1    1
C      -5.074525907     -4.350707001     -4.098867475
C      -3.479514985     -4.192027608     -4.454080367
H      -5.341163755     -3.237888931     -3.791143187
H      -5.393068448     -5.376219121     -4.190179224
H      -3.078457560     -3.267164555     -4.625789658
H      -2.753884794     -4.820149709     -3.972212811
           6
  t=       174.50000    1    1
C      -5.099086460     -4.355764297     -4.112602383
C      -3.475774915     -4.210795983     -4.470973341
H      -5.343436733     -3.283775934     -3.789212646
H      -5.365890905     -5.385742886     -4.175959194
H      -3.170407029     -3.241415364     -4.622637927
H      -2.780230337     -4.848070068     -3.968042965
           6
  t=       175.00000    1    1
C      -5.121187771     -4.360049124     -4.126718206
C      -3.474111206     -4.230046551     -4.486978392
H      -5.350146781     -3.335747232     -3.789664922
H      -5.342478761     -5.395711968     -4.160474784
H      -3.260218961     -3.209971502     -4.621518270
H      -2.805073225     -4.878614320     -3.966763963
           6
  t=       175.50000    1    1
C      -5.140597876     -4.363874256     -4.141285173
C      -3.474744111     -4.249461974     -4.502159004
H      -5.361841745     -3.390811587     -3.791602121
H      -5.323795681     -5.406788276     -4.143815143
H      -3.347330102     -3.175962518     -4.621928040
H      -2.827604770     -4.911036622     -3.968093894
           6
  t=       176.00000    1    1
C      -5.157200827     -4.367699127     -4.156392147
C      -3.477794366     -4.268658527     -4.516611255
H      -5.378982610     -3.445036517     -3.793762100
H      -5.310432679     -5.419001247     -4.125951911
H      -3.430982011     -3.143091143     -4.623252653
H      -2.847474333     -4.944635177     -3.971734156
           6
  t=       176.50000    1    1
C      -5.170866377     -4.372096860     -4.172164577
C      -3.483403550     -4.287293427     -4.530387261
H      -5.402309545     -3.493680477     -3.794393467
H      -5.302838643     -5.431901841     -4.106917794
H      -3.509864616     -3.114539924     -4.625177444
H      -2.864667922     -4.978673356     -3.977602308
           6
  t=       177.00000    1    1
C      -5.181545237     -4.377623719     -4.188718758
C      -3.491641013     -4.305095879     -4.543525170
H      -5.432590923     -3.532362853     -3.791632332
H      -5.301166951     -5.444827797     -4.086796811
H      -3.582472432     -3.092676210     -4.627562614
H      -2.879530231     -5.012425137     -3.985777703
           6
  t=       177.50000    1    1
C      -5.189231100     -4.384665283     -4.206115906
C      -3.502536712     -4.321853464     -4.556040024
H      -5.470444155     -3.558566137     -3.784164126
H      -5.305436571     -5.457084966     -4.065730518
H      -3.647374902     -3.079264635     -4.630434653
H      -2.892573612     -5.045274224     -3.996498213
           6
  t=       178.00000    1    1
C      -5.193974251     -4.393335504     -4.224312771
C      -3.516092872     -4.337415653     -4.567929333
H      -5.515861796     -3.572640068     -3.771881150
H      -5.315579761     -5.468037668     -4.043913990
H      -3.703431186     -3.075562202     -4.633921319
H      -2.904388427     -5.076685390     -4.010093724
           6
  t=       178.50000    1    1
C      -5.195912838     -4.403493004     -4.243142544
C      -3.532284169     -4.351701482     -4.579186395
H      -5.567831515     -3.577576293     -3.756123306
H      -5.331437632     -5.477138229     -4.021596910
H      -3.749863891     -3.082271712     -4.638169862
H      -2.915578902     -5.106161217     -4.026894906
           6
  t=       179.00000    1    1
C      -5.195272430     -4.414862043     -4.262346438
C      -3.551063886     -4.364694926     -4.589807485
H      -5.624407822     -3.577658252     -3.739243713
H      -5.352741481     -5.483925117     -3.999136059
H      -3.786188254     -3.099531979     -4.643334186
H      -2.926712844     -5.133217556     -4.047165952
           6
  t=       179.50000    1    1
C      -5.192324931     -4.427174339     -4.281633923
C      -3.572379531     -4.376429050     -4.599791255
H      -5.683193582     -3.576903408     -3.723809714
H      -5.379112768     -5.488031975     -3.977065595
H      -3.812062395     -3.126971135     -4.649618832
H      -2.938293364     -5.157377948     -4.071078763
           6
  t=       180.00000    1    1
C      -5.187355248     -4.440245861     -4.300732491
C      -3.596167795     -4.386973099     -4.609140646
H      -5.741840759     -3.578156399     -3.712002650
H      -5.410026128     -5.489206154     -3.956093055
H      -3.827272314     -3.163802130     -4.657261980
H      -2.950767373     -5.178205193     -4.098718321
           6
  t=       180.50000    1    1
C      -5.180655946     -4.453967339     -4.319399253
C      -3.622351311     -4.396420956     -4.617862229
H      -5.798165527     -3.583233432     -3.705574367
H      -5.444811121     -5.487304065     -3.937013236
H      -3.831718115     -3.208882331     -4.666510271
H      -2.964524820     -5.195352678     -4.130107264
           6
  t=       181.00000    1    1
C      -5.172530538     -4.468272784     -4.337416719
C      -3.650823845     -4.404900427     -4.625965244
H      -5.850172922     -3.593243243     -3.705939035
H      -5.482673975     -5.482307292     -3.920642861
H      -3.825480202     -3.260601069     -4.677626818
H      -2.979923306     -5.208604131     -4.165233005
           6
  t=       181.50000    1    1
C      -5.163337491     -4.483094404     -4.354605827
C      -3.681388900     -4.412627759     -4.633466649
H      -5.896192245     -3.608740042     -3.714248602
H      -5.522514403     -5.474319582     -3.907611818
H      -3.809097958     -3.316598341     -4.690701987
H      -2.997264467     -5.217892683     -4.204154943
           6
  t=       182.00000    1    1
C      -5.153483274     -4.498367917     -4.370819650
C      -3.713778011     -4.419922379     -4.640382236
H      -5.934868854     -3.629862689     -3.731410281
H      -5.563060200     -5.463553196     -3.898392953
H      -3.783339985     -3.373434350     -4.705786804
H      -3.016762134     -5.223266762     -4.247004521
           6
  t=       182.50000    1    1
C      -5.143450200     -4.513999348     -4.385966105
C      -3.747625507     -4.427236782     -4.646738061
H      -5.965289133     -3.656380783     -3.757918615
H      -5.602781151     -5.450370109     -3.893220374
H      -3.749259551     -3.426447394     -4.722887797
H      -3.038417009     -5.224984495     -4.293833337
           6
  t=       183.00000    1    1
C      -5.133726557     -4.529893963     -4.399977323
C      -3.782570484     -4.435062113     -4.652560285
H      -5.986888275     -3.687847787     -3.793952776
H      -5.640188243     -5.435234905     -3.892281073
H      -3.707579041     -3.470362158     -4.742233990
H      -3.062042634     -5.223579645     -4.344543170
           6
  t=       183.50000    1    1
C      -5.124807594     -4.545970808     -4.412794578
C      -3.818248763     -4.443766991     -4.657908329
H      -5.999416921     -3.723598679     -3.839352193
H      -5.674013689     -5.418745400     -3.895759502
H      -3.658580732     -3.500911816     -4.764197999
H      -3.087312111     -5.219958533     -4.398729264
           6
  t=       184.00000    1    1
C      -5.117218694     -4.562164505     -4.424349938
C      -3.854221366     -4.453403047     -4.662911317
H      -6.002820921     -3.762720747     -3.893770939
H      -5.703244403     -5.401731190     -3.903812923
H      -3.602655148     -3.517173368     -4.788888711
H      -3.113872563     -5.215291070     -4.455742236
           6
  t=       184.50000    1    1
C      -5.111570324     -4.578436051     -4.434554987
C      -3.889871739     -4.463653653     -4.667776429
H      -5.997105756     -3.804066466     -3.956712471
H      -5.727105687     -5.385306590     -3.916623601
H      -3.541081131     -3.522038518     -4.816024015
H      -3.141286921     -5.210956342     -4.514763329
           6
  t=       185.00000    1    1
C      -5.108511900     -4.594770981     -4.443345616
C      -3.924400655     -4.473986544     -4.672761918
H      -5.982506021     -3.846237531     -4.027203201
H      -5.745259315     -5.370884860     -3.934348323
H      -3.476398053     -3.520558532     -4.845116177
H      -3.168904520     -5.208402803     -4.574783699
           6
  t=       185.50000    1    1
C      -5.108573504     -4.611159806     -4.450738033
C      -3.956994620     -4.483907370     -4.678104464
H      -5.959758853     -3.887850118     -4.103845934
H      -5.758037165     -5.359907616     -3.956775816
H      -3.411717598     -3.517455688     -4.875622754
H      -3.195921705     -5.208853933     -4.634940960
           6
  t=       186.00000    1    1
C      -5.112136968     -4.627607126     -4.456815665
C      -3.986850664     -4.493081964     -4.684022444
H      -5.930817875     -3.927460312     -4.185469732
H      -5.766191987     -5.353601951     -3.982687422
H      -3.349901945     -3.515967387     -4.906464906
H      -3.221788090     -5.213216196     -4.695107325
           6
  t=       186.50000    1    1
C      -5.119471344     -4.644173704     -4.461687836
C      -4.013137470     -4.501311011     -4.690746210
H      -5.898904387     -3.962932750     -4.270936706
H      -5.770850118     -5.353276157     -4.010336640
H      -3.293454133     -3.518086573     -4.936365837
H      -3.246352753     -5.221974631     -4.755396533
           6
  t=       187.00000    1    1
C      -5.130668783     -4.660998947     -4.465472289
C      -4.035098304     -4.508503077     -4.698495331
H      -5.868192621     -3.991144594     -4.359044896
H      -5.773472666     -5.360416792     -4.038020342
H      -3.244436594     -3.524921064     -4.964307466
H      -3.269836886     -5.235086110     -4.815712416
           6
  t=       187.50000    1    1
C      -5.145511860     -4.678273942     -4.468284518
C      -4.052254640     -4.514677743     -4.707429555
H      -5.843287425     -4.008380496     -4.448833527
H      -5.775705797     -5.376401787     -4.064421164
H      -3.204303621     -3.536761619     -4.989744714
H      -3.292827888     -5.252087000     -4.875598544
           6
  t=       188.00000    1    1
C      -5.163567239     -4.696146231     -4.470232171
C      -4.064488689     -4.519929394     -4.717623962
H      -5.827594296     -4.011521165     -4.539625132
H      -5.779018747     -5.402263076     -4.089012399
H      -3.174079673     -3.553557487     -5.012760237
H      -3.315993601     -5.272232721     -4.933999079
           6
  t=       188.50000    1    1
C      -5.184362959     -4.714577865     -4.471432984
C      -4.072013597     -4.524418037     -4.729066834
H      -5.822197598     -3.999711392     -4.631247518
H      -5.784347582     -5.438388566     -4.111560026
H      -3.154397187     -3.575100559     -5.033535067
H      -3.339765125     -5.294744241     -4.989875924
           6
  t=       189.00000    1    1
C      -5.207542537     -4.733287272     -4.472041851
C      -4.075213421     -4.528340613     -4.741697277
H      -5.825768356     -3.974985422     -4.723455869
H      -5.792008115     -5.484598181     -4.131942978
H      -3.145777060     -3.601152067     -5.052045838
H      -3.364306159     -5.319014617     -5.042498286
           6
  t=       189.50000    1    1
C      -5.232785038     -4.751831809     -4.472295512
C      -4.074648090     -4.531921360     -4.755408804
H      -5.835401251     -3.941740516     -4.815072422
H      -5.801669126     -5.539859855     -4.150434114
H      -3.148620601     -3.631432417     -5.068178147
H      -3.389604138     -5.344560698     -5.091333383
           6
  t=       190.00000    1    1
C      -5.259748003     -4.769767107     -4.472482939
C      -4.070969238     -4.535393828     -4.770082003
H      -5.848093818     -3.905369586     -4.903970334
H      -5.812498503     -5.602082979     -4.167760787
H      -3.163121179     -3.665522082     -5.081735900
H      -3.415616270     -5.371011745     -5.135956407
           6
  t=       190.50000    1    1
C      -5.288036731     -4.786781948     -4.472885631
C      -4.064852857     -4.538990500     -4.785594766
H      -5.861813105     -3.870478597     -4.987845946
H      -5.823437202     -5.668602344     -4.184847123
H      -3.189020767     -3.702738142     -5.092561698
H      -3.442340791     -5.398048104     -5.176004999
           6
  t=       191.00000    1    1
C      -5.317226448     -4.802729774     -4.473734828
C      -4.056966772     -4.542945545     -4.801813478
H      -5.875637154     -3.840212419     -5.064883230
H      -5.833383993     -5.736515259     -4.202584362
H      -3.225528280     -3.742160817     -5.100619142
H      -3.469695847     -5.425303438     -5.211277118
           6
  t=       191.50000    1    1
C      -5.346900279     -4.817552749     -4.475216438
C      -4.047957955     -4.547534614     -4.818590057
H      -5.889368243     -3.816653452     -5.133769222
H      -5.841448317     -5.803056615     -4.221710747
H      -3.271173435     -3.782297538     -5.106110753
H      -3.497498253     -5.452357606     -5.241694220
           6
  t=       192.00000    1    1
C      -5.376663261     -4.831231820     -4.477485398
C      -4.038493079     -4.553117385     -4.835753963
H      -5.903141290     -3.801092087     -5.193618998
H      -5.847027585     -5.865936585     -4.242714930
H      -3.323421969     -3.820588845     -5.109655324
H      -3.525512344     -5.478710730     -5.267219719
           6
  t=       192.50000    1    1
C      -5.406166508     -4.843765878     -4.480674806
C      -4.029304267     -4.560161729     -4.853097501
H      -5.917081108     -3.794568957     -5.243754812
H      -5.849783885     -5.923219703     -4.265895444
H      -3.378214360     -3.852970190     -5.112473730
H      -3.553444205     -5.503760412     -5.287900821
           6
  t=       193.00000    1    1
C      -5.435122436     -4.855187956     -4.484887024
C      -4.021174206     -4.569226559     -4.870373822
H      -5.931252437     -3.797887818     -5.283700437
H      -5.849608411     -5.973258033     -4.291410365
H      -3.430115998     -3.873868002     -5.116440895
H      -3.580873013     -5.526870958     -5.303902399
           6
  t=       193.50000    1    1
C      -5.463303741     -4.865557391     -4.490201448
C      -4.014832804     -4.580905437     -4.887322537
H      -5.945783519     -3.811579954     -5.313172687
H      -5.846564795     -6.014685743     -4.319259219
H      -3.473485026     -3.876930557     -5.123702402
H      -3.607259899     -5.547448920     -5.315519207
           6
  t=       194.00000    1    1
C      -5.490542961     -4.874971009     -4.496662501
C      -4.010723147     -4.595529718     -4.903759499
H      -5.960812518     -3.835656670     -5.332198165
H      -5.840963491     -6.046701312     -4.349266898
H      -3.505239371     -3.858155474     -5.135637472
H      -3.631954083     -5.565184809     -5.323185412
           6
  t=       194.50000    1    1
C      -5.516693268     -4.883523776     -4.504317534
C      -4.008935467     -4.612994697     -4.919638516
H      -5.976426486     -3.870030753     -5.340783498
H      -5.833241686     -6.068763665     -4.381155476
H      -3.526256653     -3.818290129     -5.152004847
H      -3.654228074     -5.580075607     -5.327399774
           6
  t=       195.00000    1    1
C      -5.541618335     -4.891307557     -4.513211506
C      -4.009312219     -4.632738294     -4.935026399
H      -5.992665338     -3.914480556     -5.338972300
H      -5.823937073     -6.080629477     -4.414565988
H      -3.540276871     -3.763042675     -5.171180126
H      -3.673265939     -5.592481032     -5.328770231
           6
  t=       195.50000    1    1
C      -5.565181355     -4.898410753     -4.523377116
C      -4.011650212     -4.653947059     -4.950017744
H      -6.009675733     -3.968375264     -5.327019804
H      -5.813687577     -6.082610675     -4.449023326
H      -3.551493638     -3.700570377     -5.191135552
H      -3.688140796     -5.603202191     -5.328027603
           6
  t=       196.00000    1    1
C      -5.587236695     -4.904925830     -4.534819277
C      -4.015840127     -4.675820703     -4.964668538
H      -6.027745465     -4.030552910     -5.305562310
H      -5.803162763     -6.075608084     -4.483971529
H      -3.562883517     -3.638254575     -5.210247242
H      -3.697956648     -5.613553052     -5.325989777
           6
  t=       196.50000    1    1
C      -5.607620612     -4.910962003     -4.547504371
C      -4.021882087     -4.697720493     -4.978981012
H      -6.047395452     -4.099305549     -5.275719588
H      -5.793025165     -6.060956588     -4.518836503
H      -3.575933846     -3.581249908     -5.227550048
H      -3.701992343     -5.625061612     -5.323450219
           6
  t=       197.00000    1    1
C      -5.626116876     -4.916684262     -4.561342937
C      -4.029839979     -4.719168730     -4.992917234
H      -6.069648603     -4.172109544     -5.239352754
H      -5.783972545     -6.040231678     -4.553050695
H      -3.591200299     -3.532893561     -5.242598899
H      -3.699786811     -5.639064970     -5.321078405
           6
  t=       197.50000    1    1
C      -5.642447505     -4.922330024     -4.576174541
C      -4.039787456     -4.739817918     -5.006436976
H      -6.096227887     -4.245323239     -5.199224253
H      -5.776716397     -6.015339475     -4.586018212
H      -3.608840142     -3.495391765     -5.255227817
H      -3.691183037     -5.656404082     -5.319264785
           6
  t=       198.00000    1    1
C      -5.656230608     -4.928245155     -4.591720094
C      -4.051790375     -4.759449995     -5.019529841
H      -6.130162600     -4.313464761     -5.159547608
H      -5.771916633     -5.988775339     -4.617041353
H      -3.628790442     -3.470138555     -5.265369546
H      -3.676320497     -5.677148563     -5.318010215
           6
  t=       198.50000    1    1
C      -5.666962218     -4.934823834     -4.607622509
C      -4.065900673     -4.777951765     -5.032224259
H      -6.175981265     -4.369664097     -5.125496303
H      -5.770160979     -5.963900607     -4.645307209
H      -3.650879891     -3.458045807     -5.272950856
H      -3.655640523     -5.700547113     -5.316943540
           6
  t=       199.00000    1    1
C      -5.674197793     -4.942296835     -4.623603949
C      -4.082095509     -4.795297913     -5.044583862
H      -6.238055863     -4.408934517     -5.100766500
H      -5.771969036     -5.944196446     -4.670321078
H      -3.674886833     -3.459603066     -5.277931481
H      -3.630042342     -5.725167571     -5.315455933
           6
  t=       199.50000    1    1
C      -5.677752818     -4.950541896     -4.639675256
C      -4.100329840     -4.811519576     -5.056683944
H      -6.317797639     -4.430652179     -5.085317496
H      -5.777648088     -5.932891342     -4.691847886
H      -3.700546654     -3.475084920     -5.280248626
H      -3.600807383     -5.749216518     -5.312859602
           6
  t=       200.00000    1    1
C      -5.677895356     -4.959110656     -4.656123063
C      -4.120516106     -4.826670916     -5.068599462
H      -6.411648385     -4.438364038     -5.075585917
H      -5.787229988     -5.932857079     -4.709813950
H      -3.727640140     -3.504580282     -5.279876884
H      -3.569530398     -5.770883432     -5.308508446
