           6
  t=         0.00000    2    2
C      -0.667495249     -0.004453508      0.001766642
C       0.687610068      0.008342870     -0.004123042
H      -1.300760501      0.903236399      0.010901342
H      -1.306393989     -0.897144559     -0.022072320
H       1.207664460      0.901754232      0.001326430
H       1.159808383     -0.954190449      0.037922670
           6
  t=         0.50000    2    2
C      -0.670469937     -0.004534847      0.000671369
C       0.692025701      0.008636255     -0.004107632
H      -1.306046902      0.903064285      0.016421953
H      -1.308979701     -0.892380669     -0.017821166
H       1.197890267      0.903429206      0.002008964
H       1.160284031     -0.962984454      0.040335247
           6
  t=         1.00000    2    2
C      -0.674840571     -0.004477873     -0.000447781
C       0.697071587      0.008448864     -0.004091843
H      -1.309298993      0.901818315      0.023285679
H      -1.309914818     -0.887573269     -0.014733039
H       1.191921506      0.909441033      0.001561126
H       1.162393086     -0.971004279      0.043978097
           6
  t=         1.50000    1    1
C      -0.680460201     -0.004261749     -0.001593686
C       0.702629833      0.007743921     -0.004075497
H      -1.310546635      0.899635427      0.031532193
H      -1.309491509     -0.883187101     -0.012837239
H       1.189891491      0.919733270     -0.000010838
H       1.165978044     -0.977675772      0.048866776
           6
  t=         2.00000    1    1
C      -0.681627549      0.001055478      0.002176481
C       0.712915598      0.011465915      0.000882093
H      -1.251302644      0.955599787      0.098705358
H      -1.249360189     -0.821302148      0.047277670
H       1.250023209      0.992260550      0.056671198
H       1.229493474     -0.924085974      0.112574520
           6
  t=         2.50000    1    1
C      -0.682027784      0.007329025      0.006050685
C       0.722668871      0.015410203      0.005979902
H      -1.190396448      1.009570642      0.164254972
H      -1.193803861     -0.768001047      0.107695940
H       1.309026394      1.061580278      0.113104944
H       1.294254577     -0.870755244      0.174940262
           6
  t=         3.00000    1    1
C      -0.680954345      0.015499908      0.009994486
C       0.732036835      0.019992423      0.011342537
H      -1.128162408      1.059616213      0.227393012
H      -1.149497213     -0.732523764      0.169613481
H       1.364033766      1.123796534      0.168210286
H       1.359964716     -0.818781378      0.235561845
           6
  t=         3.50000    1    1
C      -0.677876905      0.026297403      0.013889844
C       0.741142144      0.025410439      0.017097996
H      -1.065115263      1.103931943      0.287357722
H      -1.121060528     -0.721761925      0.235267211
H       1.413201795      1.176842441      0.220842406
H       1.425821739     -0.768448802      0.293990261
           6
  t=         4.00000    1    1
C      -0.672697328      0.039836209      0.017690540
C       0.750188187      0.031762802      0.023378575
H      -1.001936968      1.141010722      0.343429617
H      -1.108603812     -0.735697731      0.306096965
H       1.455109046      1.219423392      0.269880213
H       1.490446180     -0.719514617      0.349600573
           6
  t=         4.50000    1    1
C      -0.665706188      0.055573170      0.021547311
C       0.759392202      0.039079376      0.030302784
H      -0.939390201      1.170098017      0.395058051
H      -1.107946043     -0.767311951      0.381053274
H       1.488903255      1.250996308      0.314440920
H       1.552145796     -0.671584219      0.401667433
           6
  t=         5.00000    1    1
C      -0.657309884      0.072753971      0.025748251
C       0.768951212      0.047326093      0.037979098
H      -0.878237544      1.190999735      0.441802364
H      -1.113759031     -0.807485420      0.457265420
H       1.514208577      1.271618513      0.353953399
H       1.609225668     -0.624245902      0.449347969
           6
  t=         5.50000    1    1
C      -0.647847361      0.090739205      0.030583237
C       0.779042237      0.056439532      0.046506934
H      -0.819193680      1.203953535      0.483381271
H      -1.121772163     -0.848785439      0.531600408
H       1.530943955      1.281652756      0.388035548
H       1.660140405     -0.577158087      0.491799852
           6
  t=         6.00000    1    1
C      -0.637513169      0.109099241      0.036253506
C       0.789790072      0.066345866      0.055988382
H      -0.762888057      1.209486072      0.519700906
H      -1.129371061     -0.886552787      0.601678741
H       1.539250875      1.281631350      0.416384821
H       1.703594730     -0.530039932      0.528184657
           6
  t=         6.50000    1    1
C      -0.626409148      0.127521328      0.042921025
C       0.801274994      0.076996527      0.066501724
H      -0.710003615      1.208239693      0.550801663
H      -1.134854431     -0.917619202      0.665533716
H       1.539304905      1.272221503      0.438651171
H       1.738651689     -0.483063880      0.557915975
           6
  t=         7.00000    1    1
C      -0.614569541      0.145760829      0.050733808
C       0.813543943      0.088378767      0.078082744
H      -0.661459816      1.201060035      0.576820727
H      -1.137040491     -0.939728162      0.721484153
H       1.531185086      1.254289065      0.454400904
H       1.764818607     -0.437131049      0.580781474
           6
  t=         7.50000    1    1
C      -0.601953429      0.163636162      0.059752644
C       0.826531827      0.100508058      0.090715510
H      -0.617979112      1.189019189      0.598131766
H      -1.135347400     -0.951791492      0.768658596
H       1.515142011      1.228870669      0.463377218
H       1.782273558     -0.393459020      0.597001198
           6
  t=         8.00000    1    1
C      -0.588502233      0.181034882      0.069936212
C       0.840122152      0.113412469      0.104364004
H      -0.579889342      1.173221028      0.615294958
H      -1.129732000     -0.953838631      0.807071670
H       1.491598356      1.197119173      0.465510473
H       1.791568624     -0.353269668      0.606991538
           6
  t=         8.50000    1    1
C      -0.574191420      0.197838566      0.081183747
C       0.854165820      0.127090497      0.118973169
H      -0.547301034      1.155147362      0.629100769
H      -1.120316755     -0.946300826      0.837078109
H       1.461312796      1.160831386      0.460984423
H       1.793662427     -0.317981381      0.611280291
           6
  t=         9.00000    1    1
C      -0.559033189      0.213863591      0.093387874
C       0.868497251      0.141493255      0.134453064
H      -0.520509229      1.137017147      0.640658230
H      -1.107171158     -0.929403198      0.858865456
H       1.425337946      1.122365364      0.450208334
H       1.789985211     -0.289175515      0.610512738
           6
  t=         9.50000    1    1
C      -0.543051200      0.228860875      0.106454707
C       0.882903476      0.156496718      0.150664404
H      -0.499928021      1.121645242      0.651364047
H      -1.090262334     -0.902977873      0.872319765
H       1.385005114      1.084698188      0.433907431
H       1.782406494     -0.268366094      0.605459306
           6
  t=        10.00000    1    1
C      -0.526250763      0.242562824      0.120328772
C       0.897076323      0.171822697      0.167396770
H      -0.485963592      1.111922952      0.662595153
H      -1.069530658     -0.866586781      0.877071552
H       1.342266974      1.052375336      0.413381283
H       1.773055507     -0.256924570      0.596981246
           6
  t=        10.50000    1    1
C      -0.508624328      0.254725993      0.134987812
C       0.910569960      0.186965867      0.184367914
H      -0.479038900      1.110355947      0.675423660
H      -1.044998851     -0.819852656      0.872719897
H       1.300584769      1.032512859      0.390709995
H       1.764139119     -0.255927867      0.585955666
           6
  t=        11.00000    1    1
C      -0.490172501      0.265191138      0.150425108
C       0.922901622      0.201298957      0.201312057
H      -0.479415593      1.118567633      0.690357513
H      -1.016837192     -0.762839897      0.859107107
H       1.264243576      1.033501926      0.368085281
H       1.757563858     -0.265954275      0.573087592
           6
  t=        11.50000    1    1
C      -0.470918839      0.273934683      0.166661107
C       0.933748828      0.214309304      0.218066558
H      -0.487179952      1.136938497      0.707161444
H      -0.985495848     -0.696306699      0.836447024
H       1.236786689      1.062018491      0.346782406
H       1.754446173     -0.286912382      0.558817516
           6
  t=        12.00000    1    1
C      -0.450907482      0.281090803      0.183773210
C       0.943127926      0.225964862      0.234615583
H      -0.502340468      1.164514736      0.724741626
H      -0.951856601     -0.621774120      0.805274413
H       1.219279526      1.118630656      0.326465324
H       1.754942061     -0.318112402      0.543306943
           6
  t=        12.50000    1    1
C      -0.430216313      0.287053156      0.201800782
C       0.951397175      0.236843541      0.251043000
H      -0.524343249      1.198890161      0.741296029
H      -0.917513708     -0.542329839      0.767167246
H       1.210117869      1.195701220      0.305955427
H       1.758355247     -0.358000122      0.526490140
           6
  t=        13.00000    1    1
C      -0.408888361      0.292412641      0.220691227
C       0.958997403      0.247686602      0.267419977
H      -0.552118066      1.237222544      0.754944327
H      -0.884840965     -0.462745690      0.724726787
H       1.207176510      1.282838711      0.284521191
H       1.763374464     -0.404443604      0.508156369
           6
  t=        13.50000    1    1
C      -0.386828195      0.297948884      0.240248243
C       0.966330324      0.259091585      0.283783505
H      -0.584325542      1.276810863      0.764063485
H      -0.857844216     -0.390110193      0.681916815
H       1.209037498      1.370646167      0.262151319
H       1.768160302     -0.454666214      0.487874499
           6
  t=        14.00000    1    1
C      -0.363743864      0.304647565      0.260108996
C       0.973734777      0.271379388      0.300143259
H      -0.619608455      1.315152254      0.767421707
H      -0.842893280     -0.334003175      0.644201042
H       1.215033119      1.452758866      0.239294554
H       1.770876786     -0.505789270      0.465172003
           6
  t=        14.50000    1    1
C      -0.339352388      0.313483669      0.279918789
C       0.981582734      0.284635552      0.316498334
H      -0.657166279      1.350219298      0.764188248
H      -0.847258463     -0.303837414      0.616502977
H       1.225241053      1.525063313      0.216576789
H       1.770111835     -0.554896002      0.439567468
           6
  t=        15.00000    1    1
C      -0.313786169      0.324921888      0.299588130
C       0.990255493      0.298888728      0.332772411
H      -0.695865073      1.380086427      0.754237209
H      -0.874230325     -0.302995374      0.599843426
H       1.239821277      1.584424507      0.194766590
H       1.764896310     -0.599421871      0.411373145
           6
  t=        15.50000    1    1
C      -0.287633073      0.338652868      0.319386864
C       0.999976050      0.314078020      0.348843815
H      -0.733978787      1.403553414      0.738252914
H      -0.920294587     -0.326578525      0.590334212
H       1.258534237      1.629648754      0.174284894
H       1.754577116     -0.637459690      0.381606420
           6
  t=        16.00000    1    1
C      -0.261829471      0.353903326      0.339692338
C       1.010869200      0.330030672      0.364642356
H      -0.769875598      1.419961109      0.716934877
H      -0.976538464     -0.364227588      0.582640911
H       1.280673642      1.660749894      0.155378532
H       1.738986411     -0.667450768      0.350995395
           6
  t=        16.50000    1    1
C      -0.237331588      0.370016625      0.360698407
C       1.023107046      0.346580885      0.380100900
H      -0.802299636      1.428675335      0.690828081
H      -1.034389681     -0.406784921      0.573692614
H       1.305605625      1.677711468      0.138484878
H       1.718273257     -0.688102199      0.320118642
           6
  t=        17.00000    1    1
C      -0.214866212      0.386585093      0.382443262
C       1.036883769      0.363589503      0.395138708
H      -0.830322127      1.429566785      0.660609237
H      -1.088216068     -0.448600392      0.562304584
H       1.332761484      1.680654471      0.123977383
H       1.692791783     -0.698540020      0.289617726
           6
  t=        17.50000    1    1
C      -0.194961839      0.403363341      0.404879736
C       1.052372872      0.380935940      0.409674906
H      -0.853277528      1.423068581      0.627084780
H      -1.134424071     -0.486446091      0.548243965
H       1.361567690      1.669776953      0.112157969
H       1.663086405     -0.698262430      0.260142856
           6
  t=        18.00000    1    1
C      -0.177975926      0.420182369      0.427909394
C       1.069665793      0.398519677      0.423633092
H      -0.870760873      1.409960733      0.591230947
H      -1.170497861     -0.518326265      0.531724086
H       1.391528954      1.645426253      0.103247689
H       1.629901404     -0.687181056      0.232366694
           6
  t=        18.50000    1    1
C      -0.164052281      0.436921235      0.451410027
C       1.088728422      0.416261842      0.436938372
H      -0.882630985      1.391269310      0.553983091
H      -1.194963001     -0.543197690      0.513296114
H       1.422285761      1.608192791      0.097514014
H       1.594100700     -0.665574689      0.206883871
           6
  t=        19.00000    1    1
C      -0.153146998      0.453481678      0.475256238
C       1.109411489      0.434095852      0.449532015
H      -0.888928471      1.368209257      0.516066638
H      -1.207272338     -0.560764239      0.493745820
H       1.453687531      1.559192364      0.095249067
H       1.556583818     -0.634105968      0.184085080
           6
  t=        19.50000    1    1
C      -0.145107690      0.469742696      0.499314920
C       1.131465802      0.451938051      0.461411178
H      -0.889826143      1.342090645      0.477887954
H      -1.207077613     -0.570806235      0.474106170
H       1.485863730      1.500464741      0.096648981
H       1.518199332     -0.593905760      0.163954798
           6
  t=        20.00000    1    1
C      -0.139726198      0.485588695      0.523398464
C       1.154538207      0.469653941      0.472673684
H      -0.885725174      1.314198016      0.440159273
H      -1.194016308     -0.572945308      0.455458504
H       1.519360931      1.435504653      0.101239858
H       1.480167039     -0.547151722      0.146243199
           6
  t=        20.50000    1    1
C      -0.136611088      0.500941832      0.547295593
C       1.178082429      0.487032724      0.483475264
H      -0.877562424      1.286056603      0.404060528
H      -1.168316532     -0.567097073      0.438667950
H       1.555348140      1.369210682      0.107758998
H       1.444327952     -0.496912679      0.130829799
           6
  t=        21.00000    1    1
C      -0.135269397      0.515704519      0.570881874
C       1.201436843      0.503792175      0.494010738
H      -0.866768696      1.259845457      0.370382656
H      -1.130456937     -0.553547884      0.424294649
H       1.595873753      1.307503632      0.114240067
H       1.412552832     -0.446476407      0.117491139
           6
  t=        21.50000    1    1
C      -0.135197695      0.529763124      0.594067470
C       1.223874723      0.519618991      0.504575025
H      -0.854993723      1.237868154      0.339504450
H      -1.080766534     -0.532482023      0.412890243
H       1.643963268      1.257631469      0.117960963
H       1.386455636     -0.400122962      0.105575192
           6
  t=        22.00000    1    1
C      -0.135955035      0.542993218      0.616791687
C       1.244733043      0.534291057      0.515489789
H      -0.843886037      1.222202605      0.311450258
H      -1.019445688     -0.503845658      0.405017331
H       1.703051860      1.225897842      0.116149060
H       1.367096338     -0.362158418      0.094158011
           6
  t=        22.50000    1    1
C      -0.137139672      0.555315000      0.639013660
C       1.263595263      0.547825409      0.526941592
H      -0.834876126      1.214523336      0.286000271
H      -0.946917682     -0.467808768      0.401146273
H       1.774851260      1.214214418      0.107555178
H       1.354793253     -0.335251091      0.082502144
           6
  t=        23.00000    1    1
C      -0.138388708      0.566775253      0.660706518
C       1.280432734      0.560503093      0.538853803
H      -0.828792376      1.215804954      0.262900327
H      -0.864291911     -0.425386058      0.401520205
H       1.857591764      1.219585210      0.093621857
H       1.349271082     -0.320271208      0.070409375
           6
  t=        23.50000    1    1
C      -0.139416606      0.577551022      0.681828757
C       1.295487584      0.572664248      0.550946103
H      -0.825624026      1.226164581      0.242155812
H      -0.773161701     -0.378329565      0.406312849
H       1.947002381      1.236759596      0.077640067
H       1.350095868     -0.316495834      0.058244363
           6
  t=        24.00000    1    1
C      -0.139965180      0.587955580      0.702310675
C       1.309082836      0.584550595      0.562864237
H      -0.824633640      1.244700893      0.224297559
H      -0.675820084     -0.329257879      0.415509604
H       2.038160377      1.260490858      0.063233865
H       1.356820467     -0.321771468      0.046918544
           6
  t=        24.50000    1    1
C      -0.139750411      0.598455254      0.722102900
C       1.321494729      0.596256132      0.574285615
H      -0.824701646      1.269747324      0.210310001
H      -0.575463657     -0.282211605      0.428412903
H       2.126909344      1.286689255      0.053179065
H       1.369002449     -0.332977839      0.037801437
           6
  t=        25.00000    1    1
C      -0.138433832      0.609693088      0.741259294
C       1.332936345      0.607808558      0.584970615
H      -0.824644830      1.299353625      0.201211061
H      -0.476265587     -0.243462359      0.443102866
H       2.210088631      1.312437779      0.049214070
H       1.386220341     -0.346968433      0.032270025
           6
  t=        25.50000    1    1
C      -0.135686584      0.622418865      0.759925221
C       1.343562826      0.619236861      0.594775958
H      -0.823392250      1.331682956      0.197837513
H      -0.382432825     -0.220934655      0.456762935
H       2.285315894      1.335775106      0.052352262
H       1.408225289     -0.361300148      0.031265887
           6
  t=        26.00000    1    1
C      -0.131336994      0.637256368      0.778251993
C       1.353476180      0.630556406      0.603631088
H      -0.820097801      1.365006099      0.200824068
H      -0.296554266     -0.221283547      0.466794134
H       2.351176501      1.355593210      0.063021932
H       1.434913632     -0.374096579      0.035362724
           6
  t=        26.50000    1    1
C      -0.125470983      0.654287975      0.796268772
C       1.362785378      0.641771372      0.611497668
H      -0.814179827      1.397720771      0.210462065
H      -0.218405535     -0.244831649      0.472528091
H       2.406982030      1.371413786      0.081295808
H       1.465893108     -0.383985895      0.044974180
           6
  t=        27.00000    1    1
C      -0.118270794      0.673002941      0.813827774
C       1.371635190      0.652881144      0.618358482
H      -0.805195357      1.428396674      0.226813701
H      -0.147068786     -0.284903813      0.475657661
H       2.452201597      1.383127665      0.107069610
H       1.500780286     -0.390010593      0.060415541
           6
  t=        27.50000    1    1
C      -0.109849411      0.692660522      0.830718103
C       1.380186539      0.663888544      0.624232087
H      -0.792835729      1.455888310      0.249743991
H      -0.082761771     -0.332337345      0.478787428
H       2.486436771      1.390884535      0.140053971
H       1.539311487     -0.391544692      0.081798462
           6
  t=        28.00000    1    1
C      -0.100214522      0.712590809      0.846768977
C       1.388575706      0.674805782      0.629168741
H      -0.777097139      1.479770947      0.278889367
H      -0.026329593     -0.379557766      0.484170109
H       2.509461478      1.394997681      0.179843620
H       1.581021789     -0.388214328      0.109075160
           6
  t=        28.50000    1    1
C      -0.089292630      0.732268246      0.861870826
C       1.396905079      0.685654752      0.633236112
H      -0.758279561      1.500204855      0.313723809
H       0.021312668     -0.421263568      0.493389447
H       2.521054798      1.395798118      0.226027086
H       1.625251385     -0.379810812      0.142098681
           6
  t=        29.00000    1    1
C      -0.076969369      0.751285961      0.875965980
C       1.405248992      0.696468784      0.636515037
H      -0.736901488      1.517700462      0.353630684
H       0.059414031     -0.453825538      0.507448009
H       2.520944375      1.393553068      0.278182466
H       1.671293609     -0.366289990      0.180628955
           6
  t=        29.50000    1    1
C      -0.063127382      0.769355931      0.889052025
C       1.413655994      0.707292898      0.639104409
H      -0.713651590      1.533003697      0.397925247
H       0.087488328     -0.475181648      0.526747806
H       2.508961720      1.388490235      0.335777520
H       1.718514938     -0.347791988      0.224331326
           6
  t=        30.00000    1    1
C      -0.047665711      0.786280383      0.901172022
C       1.422159698      0.718186589      0.641129035
H      -0.689392288      1.547037902      0.445847803
H       0.105231769     -0.484519425      0.551211322
H       2.485189095      1.380859046      0.398091057
H       1.766395754     -0.324654360      0.272763950
           6
  t=        30.50000    1    1
C      -0.030514768      0.801903882      0.912394895
C       1.430786519      0.729222721      0.642748122
H      -0.665166205      1.560898096      0.496568020
H       0.112478075     -0.481767377      0.580509511
H       2.450168809      1.371062523      0.464157266
H       1.814458771     -0.297462768      0.325333679
           6
  t=        31.00000    1    1
C      -0.011634983      0.816082347      0.922786246
C       1.439522041      0.740456948      0.644158769
H      -0.642111774      1.575770838      0.549302653
H       0.109152454     -0.467206914      0.614259683
H       2.405435410      1.360145892      0.532735679
H       1.862082918     -0.267113906      0.381316655
           6
  t=        31.50000    1    1
C       0.008977797      0.828684690      0.932392703
C       1.448244734      0.751878927      0.645583154
H      -0.621264444      1.592709148      0.603446636
H       0.095286978     -0.441225603      0.652112965
H       2.354235476      1.350482576      0.602423638
H       1.908423613     -0.234961415      0.439866450
           6
  t=        32.00000    1    1
C       0.031306170      0.839572914      0.941228985
C       1.456734512      0.763400981      0.647217529
H      -0.603374967      1.612424675      0.658692887
H       0.070762634     -0.403845060      0.693846454
H       2.301066286      1.345578579      0.672055275
H       1.952683166     -0.202512265      0.500165096
           6
  t=        32.50000    1    1
C       0.055265160      0.848663290      0.949310337
C       1.464717597      0.774842946      0.649202253
H      -0.588788215      1.635156607      0.715028419
H       0.035585344     -0.355026009      0.739029793
H       2.251099286      1.349647468      0.740851189
H       1.994303905     -0.171114042      0.561581179
           6
  t=        33.00000    1    1
C       0.080641920      0.856062611      0.956691395
C       1.471933888      0.785943318      0.651611951
H      -0.577320391      1.660551578      0.772718403
H      -0.009528831     -0.295801947      0.786612458
H       2.209407362      1.366937180      0.808443599
H       2.032948552     -0.141784300      0.623727617
           6
  t=        33.50000    1    1
C       0.107139271      0.862091631      0.963442796
C       1.478245985      0.796488110      0.654441891
H      -0.567976259      1.687711165      0.832165944
H      -0.063298491     -0.228876172      0.835453626
H       2.179166583      1.400411135      0.875209370
H       2.068342713     -0.115156971      0.686179956
           6
  t=        34.00000    1    1
C       0.134431022      0.867213006      0.969637574
C       1.483771750      0.806441138      0.657676176
H      -0.559043842      1.715425839      0.893606052
H      -0.124425414     -0.158142563      0.884772011
H       2.160009510      1.450214550      0.941653512
H       2.100326029     -0.091355540      0.748298623
           6
  t=        34.50000    1    1
C       0.162184476      0.871967238      0.975371974
C       1.488897441      0.815961782      0.661387726
H      -0.548552160      1.742360501      0.956972739
H      -0.191896773     -0.088025966      0.933914826
H       2.148499050      1.513396768      1.007155761
H       2.128713536     -0.070008990      0.809406963
           6
  t=        35.00000    1    1
C       0.190058375      0.876846355      0.980755787
C       1.494152154      0.825312972      0.665732297
H      -0.534581285      1.767293522      1.021957112
H      -0.265261133     -0.022478802      0.982429771
H       2.140384868      1.585429402      1.069968151
H       2.153146005     -0.050410712      0.868849952
           6
  t=        35.50000    1    1
C       0.217654522      0.882154231      0.985903901
C       1.500073551      0.834751811      0.670885873
H      -0.515442055      1.789389515      1.088068398
H      -0.344017739      0.036345778      1.030118030
H       2.132257728      1.661764090      1.127990318
H       2.173180934     -0.031708237      0.925951610
           6
  t=        36.00000    1    1
C       0.244438294      0.887966137      0.990953710
C       1.507148238      0.844470185      0.676993715
H      -0.489793165      1.808337409      1.154605319
H      -0.426432385      0.088623713      1.076859383
H       2.121928763      1.738555903      1.179468568
H       2.188503849     -0.013104826      0.979919111
           6
  t=        36.50000    1    1
C       0.269773933      0.894218969      0.996070245
C       1.515763837      0.854587772      0.684149097
H      -0.456764513      1.824179594      1.220646753
H      -0.509338747      0.136048566      1.122438746
H       2.108250377      1.812810650      1.223352670
H       2.199182609      0.005983603      1.029860993
           6
  t=        37.00000    1    1
C       0.293030776      0.900847847      1.001432075
C       1.526196682      0.865163142      0.692403361
H      -0.415977492      1.837004855      1.285033339
H      -0.589007150      0.180476114      1.166583979
H       2.090849651      1.882473127      1.259327213
H       2.205703944      0.025742893      1.074784638
           6
  t=        37.50000    1    1
C       0.313831828      0.907823221      1.007214585
C       1.538466693      0.876207357      0.701758994
H      -0.367623204      1.846891300      1.346545203
H      -0.662029676      0.223362374      1.208789336
H       2.069939898      1.946315910      1.287671042
H       2.208892480      0.046086650      1.114017362
           6
  t=        38.00000    1    1
C       0.331991287      0.915102611      1.013576368
C       1.552474939      0.887737968      0.712179318
H      -0.312229070      1.853970487      1.404508601
H      -0.725809597      0.265715383      1.248123913
H       2.046161112      2.003537015      1.308536922
H       2.209431702      0.066974315      1.147558339
           6
  t=        38.50000    1    1
C       0.347436781      0.922672702      1.020647844
C       1.568097678      0.899782749      0.723621068
H      -0.250611694      1.858369727      1.458460790
H      -0.778630819      0.307989832      1.283751765
H       2.020311238      2.053469196      1.322040067
H       2.207961046      0.088318803      1.175552520
           6
  t=        39.00000    1    1
C       0.360168057      0.930547347      1.028534251
C       1.585188905      0.912384469      0.736052370
H      -0.183681184      1.860316161      1.507951896
H      -0.819413212      0.350153063      1.315023134
H       1.993231700      2.095499820      1.328296209
H       2.205211786      0.109863615      1.198109651
           6
  t=        39.50000    1    1
C       0.370259766      0.938737064      1.037315850
C       1.603548423      0.925609995      0.749446343
H      -0.112341108      1.860203923      1.552631056
H      -0.847473216      0.391940842      1.341356862
H       1.965764970      2.129016794      1.327395245
H       2.202057452      0.131168843      1.215435785
           6
  t=        40.00000    1    1
C       0.377866180      0.947230574      1.047031788
C       1.622920365      0.939545700      0.763758930
H      -0.037499965      1.858631392      1.592457727
H      -0.862527029      0.433058747      1.362258441
H       1.938682420      2.153416089      1.319453833
H       2.199561939      0.151639748      1.228007829
           6
  t=        40.50000    1    1
C       0.383213736      0.956015121      1.057681553
C       1.643011078      0.954266560      0.778926802
H       0.039748979      1.856501039      1.627457721
H      -0.864566129      0.473174215      1.377531692
H       1.912603941      2.168187810      1.304893951
H       2.198991008      0.170474940      1.236334860
           6
  t=        41.00000    1    1
C       0.386546572      0.965063003      1.069238218
C       1.663505415      0.969847295      0.794877431
H       0.118005024      1.854912268      1.657870634
H      -0.853569792      0.511987962      1.387059632
H       1.888402084      2.172903998      1.284209665
H       2.201698210      0.186741987      1.240985288
           6
  t=        41.50000    1    1
C       0.388110864      0.974336891      1.081652815
C       1.684083273      0.986340119      0.811530619
H       0.195378839      1.854997010      1.684254596
H      -0.829648018      0.549185139      1.390779750
H       1.867613657      2.167486789      1.257891496
H       2.209026967      0.199524330      1.242512075
           6
  t=        42.00000    1    1
C       0.388163104      0.983821367      1.094868172
C       1.704455898      1.003727194      0.828801081
H       0.270054149      1.857827734      1.707325020
H      -0.793303783      0.584297752      1.388733490
H       1.851878167      2.152420769      1.226533146
H       2.222041444      0.208129162      1.241262113
           6
  t=        42.50000    1    1
C       0.386991793      0.993540505      1.108827150
C       1.724409941      1.021866003      0.846589150
H       0.340413081      1.864409982      1.727932994
H      -0.745686945      0.616630053      1.381112701
H       1.842596512      2.128996674      1.190924768
H       2.241212973      0.212367284      1.237270781
           6
  t=        43.00000    1    1
C       0.384951557      1.003567560      1.123469345
C       1.743791396      1.040469999      0.864785090
H       0.405090749      1.875514421      1.746970081
H      -0.688805949      0.645271663      1.368299580
H       1.840856512      2.099444460      1.152047993
H       2.266436566      0.212689959      1.230310023
           6
  t=        43.50000    1    1
C       0.382523669      1.014039828      1.138716642
C       1.762453136      1.059101367      0.883284782
H       0.463012822      1.891416348      1.765151508
H      -0.625858326      0.669074694      1.350990562
H       1.847445497      2.067223112      1.111052806
H       2.297215146      0.210091715      1.219989622
           6
  t=        44.00000    1    1
C       0.380359717      1.025168236      1.154461686
C       1.780239269      1.077159474      0.901994453
H       0.513468890      1.911766766      1.782797096
H      -0.561670310      0.686505475      1.330347966
H       1.862826300      2.037527087      1.069259788
H       2.332716016      0.205904317      1.205903441
           6
  t=        44.50000    1    1
C       0.379322937      1.037257128      1.170577009
C       1.796977573      1.093885327      0.920833005
H       0.555933569      1.935626619      1.799801914
H      -0.503326164      0.695234042      1.307975475
H       1.887484953      2.017516234      1.027917578
H       2.371828856      0.201654445      1.187789288
           6
  t=        45.00000    1    1
C       0.380416239      1.050687363      1.186952719
C       1.812486652      1.108465221      0.939763392
H       0.589943447      1.961679754      1.815702679
H      -0.459438640      0.692158299      1.285485150
H       1.922006617      2.015169054      0.987706721
H       2.413255795      0.198939453      1.165568698
           6
  t=        45.50000    1    1
C       0.384456499      1.065803155      1.203542158
C       1.826651951      1.120412025      0.958836425
H       0.615199970      1.988663479      1.829852096
H      -0.436751429      0.674470561      1.263773736
H       1.966439228      2.034887042      0.948283354
H       2.455622503      0.199131185      1.139286610
           6
  t=        46.00000    1    1
C       0.391743959      1.082773481      1.220381773
C       1.839485285      1.129775228      0.978132179
H       0.631362686      2.015606164      1.841689238
H      -0.436427491      0.641273606      1.242708022
H       2.019911232      2.074896457      0.908828840
H       2.497585591      0.203269099      1.109067360
           6
  t=        46.50000    1    1
C       0.401903239      1.101439587      1.237531193
C       1.851154996      1.137089370      0.997659483
H       0.638098954      2.041816358      1.850883067
H      -0.452677638      0.595138903      1.221790933
H       2.080654902      2.128150872      0.869080898
H       2.537923198      0.212041835      1.075185613
           6
  t=        47.00000    1    1
C       0.414210394      1.121402670      1.255010957
C       1.861935542      1.143022812      1.017321886
H       0.634798171      2.066958124      1.857509611
H      -0.476568234      0.541082735      1.200964267
H       2.146646220      2.186398716      0.829561538
H       2.575692302      0.225808638      1.038006073
           6
  t=        47.50000    1    1
C       0.428000101      1.142209251      1.272771412
C       1.872133327      1.148152317      1.036966638
H       0.621258933      2.091025175      1.861682283
H      -0.500243172      0.484440582      1.180781422
H       2.215293113      2.242818416      0.791557341
H       2.610107009      0.244592892      0.997987133
           6
  t=        48.00000    1    1
C       0.442803955      1.163465632      1.290709494
C       1.882020479      1.152880851      1.056444557
H       0.598196064      2.114191532      1.863285731
H      -0.518555383      0.429472226      1.162120447
H       2.283757971      2.293097085      0.756734712
H       2.640481797      0.268163236      0.955705361
           6
  t=        48.50000    1    1
C       0.458317179      1.184853902      1.308709087
C       1.891819357      1.157489463      1.075601149
H       0.566346454      2.136784121      1.862509661
H      -0.528611897      0.379148613      1.145870998
H       2.349993176      2.334673406      0.726498363
H       2.666216527      0.296222374      0.911901179
           6
  t=        49.00000    1    1
C       0.474315585      1.206094905      1.326646008
C       1.901694142      1.162197071      1.094291861
H       0.526676064      2.159325930      1.859855435
H      -0.528868597      0.335492927      1.132793297
H       2.412594739      2.366247884      0.701904319
H       2.686920097      0.328241379      0.867459155
           6
  t=        49.50000    1    1
C       0.490671524      1.226946330      1.344407378
C       1.911724228      1.167176153      1.112398540
H       0.480121402      2.182217881      1.855942727
H      -0.518474223      0.300051937      1.123435860
H       2.470622187      2.387343316      0.683581835
H       2.702320225      0.363581873      0.823334739
           6
  t=        50.00000    1    1
C       0.507341417      1.247223044      1.361908874
C       1.921936075      1.172556696      1.129838097
H       0.427544825      2.205558182      1.851240988
H      -0.497143053      0.273982168      1.118109776
H       2.523344632      2.398066445      0.671827212
H       2.712203685      0.401539501      0.780445939
           6
  t=        50.50000    1    1
C       0.524343800      1.266813596      1.379098810
C       1.932306873      1.178453593      1.146558942
H       0.369965374      2.229057645      1.845887352
H      -0.465128861      0.257863489      1.116933699
H       2.570214556      2.398870147      0.666810036
H       2.716403669      0.441329670      0.739597948
           6
  t=        51.00000    1    1
C       0.541694099      1.285667763      1.395955183
C       1.942800528      1.184986873      1.162519052
H       0.308501330      2.252033805      1.839772084
H      -0.422846132      0.251930578      1.119944490
H       2.610861422      2.390228777      0.668699066
H       2.714833186      0.482094049      0.701457825
           6
  t=        51.50000    1    1
C       0.559361241      1.303780879      1.412480154
C       1.953395674      1.192277134      1.177679611
H       0.244316127      2.273553426      1.832659134
H      -0.370689961      0.256251120      1.127153842
H       2.645059627      2.372624769      0.677691782
H       2.707574348      0.522834337      0.666489207
           6
  t=        52.00000    1    1
C       0.577254711      1.321179132      1.428689636
C       1.964099676      1.200439162      1.192009137
H       0.178720502      2.292571906      1.824246374
H      -0.309073886      0.270769388      1.138577211
H       2.672647006      2.346693602      0.694040570
H       2.694882928      0.562335567      0.634911897
           6
  t=        52.50000    1    1
C       0.595230594      1.337903537      1.444603338
C       1.974955329      1.209582899      1.205489230
H       0.113274911      2.308061497      1.814229529
H      -0.238571684      0.295272839      1.154223416
H       2.693474966      2.313259003      0.718051211
H       2.677125716      0.599215576      0.606699947
           6
  t=        53.00000    1    1
C       0.613115356      1.353992459      1.460238559
C       1.986036339      1.219822202      1.218111534
H       0.049743174      2.319152335      1.802366751
H      -0.160015334      0.329349241      1.174087267
H       2.707415754      2.273126386      0.750102605
H       2.654688173      0.632137200      0.581614970
           6
  t=        53.50000    1    1
C       0.630744966      1.369472757      1.475603619
C       1.997420170      1.231281159      1.229870981
H      -0.010005785      2.325260133      1.788475514
H      -0.074570713      0.372229036      1.198219390
H       2.714505540      2.227104617      0.790745909
H       2.627862568      0.659846785      0.559198954
           6
  t=        54.00000    1    1
C       0.647991532      1.384381994      1.490703273
C       2.009150540      1.244042382      1.240800725
H      -0.064191951      2.326195507      1.772528374
H       0.016041330      0.422458499      1.226589231
H       2.715406248      2.176581705      0.840324414
H       2.596930824      0.681167467      0.538714863
           6
  t=        54.50000    1    1
C       0.664816707      1.398780213      1.505501669
C       2.021154385      1.258132686      1.250977033
H      -0.111143354      2.321863739      1.754639734
H       0.109723329      0.478017572      1.259362120
H       2.711700148      2.123536948      0.899023788
H       2.562063664      0.695199771      0.519215764
           6
  t=        55.00000    1    1
C       0.681314481      1.413053627      1.519993532
C       2.033254704      1.273325696      1.260524601
H      -0.149054306      2.311463929      1.736040681
H       0.203571869      0.535245068      1.294967899
H       2.704780463      2.071414924      0.965280981
H       2.523954767      0.701056590      0.501180772
           6
  t=        55.50000    1    1
C       0.697704137      1.427895751      1.534283315
C       2.045234842      1.289160305      1.269619277
H      -0.176753918      2.294501827      1.718273691
H       0.293539826      0.587507464      1.330196103
H       2.696753407      2.024877149      1.036395525
H       2.483342807      0.698434922      0.485638380
           6
  t=        56.00000    1    1
C       0.714258564      1.443962052      1.548587570
C       2.056804557      1.305176012      1.278394826
H      -0.194098624      2.271661887      1.701639830
H       0.374518345      0.625824517      1.362375159
H       2.692822082      1.989208060      1.110469174
H       2.440196756      0.688022946      0.472683062
           6
  t=        56.50000    1    1
C       0.731243069      1.461936862      1.563079085
C       2.067452808      1.320811336      1.286953582
H      -0.200895066      2.243710114      1.686416261
H       0.441798946      0.640404771      1.389288425
H       2.700150839      1.970636257      1.185823022
H       2.394795486      0.671153649      0.462654959
           6
  t=        57.00000    1    1
C       0.748672318      1.482066835      1.577818916
C       2.076770549      1.335622655      1.295255191
H      -0.197364223      2.211789514      1.672912237
H       0.493959104      0.626572947      1.410132119
H       2.724521359      1.973212114      1.261973025
H       2.347700094      0.649655962      0.456285942
           6
  t=        57.50000    1    1
C       0.766325548      1.503894996      1.592708135
C       2.084728310      1.349544717      1.303151088
H      -0.184268886      2.177328325      1.661520056
H       0.532858864      0.588032350      1.425899859
H       2.767108034      1.996165395      1.339619982
H       2.299620671      0.625391253      0.454438363
           6
  t=        58.00000    1    1
C       0.783925729      1.526494630      1.607554543
C       2.091733836      1.362895048      1.310526574
H      -0.162971368      2.141929166      1.652698960
H       0.561619853      0.534209428      1.438539985
H       2.823779178      2.033971998      1.419224158
H       2.251371977      0.600113464      0.457901260
           6
  t=        58.50000    1    1
C       0.801310037      1.548940136      1.622186304
C       2.098389920      1.376127324      1.317390510
H      -0.135544611      2.107291710      1.646873280
H       0.582965646      0.474850821      1.449811683
H       2.887567416      2.079029100      1.499840432
H       2.204028265      0.575602387      0.467378209
           6
  t=        59.00000    1    1
C       0.818473152      1.570523331      1.636504341
C       2.105204302      1.389580659      1.323825654
H      -0.104883777      2.075274084      1.644321306
H       0.598760926      0.417225001      1.460913138
H       2.952341959      2.125174341      1.579782550
H       2.158764117      0.553291522      0.483273426
           6
  t=        59.50000    1    1
C       0.835556170      1.590766748      1.650480346
C       2.112500361      1.403428412      1.329938036
H      -0.074715347      2.047895930      1.645119428
H       0.610038347      0.365800868      1.472600737
H       3.013832003      2.168248808      1.657157930
H       2.117009649      0.534474851      0.505720597
           6
  t=        60.00000    1    1
C       0.852780162      1.609355024      1.664123087
C       2.120440140      1.417725768      1.335830276
H      -0.049036621      2.027118438      1.649252221
H       0.617312145      0.323189212      1.485383394
H       3.069279954      2.205688693      1.730251178
H       2.080440427      0.520244435      0.534614385
           6
  t=        60.50000    1    1
C       0.870341076      1.626120304      1.677470330
C       2.129079891      1.432446624      1.341586336
H      -0.031248986      2.014393807      1.656576549
H       0.620975106      0.290788400      1.499560102
H       3.117196016      2.236254705      1.797844306
H       2.050549744      0.511300118      0.569566434
           6
  t=        61.00000    1    1
C       0.888311623      1.641062088      1.690576534
C       2.138420539      1.447518447      1.347284473
H      -0.023074848      2.010185736      1.666851864
H       0.621431477      0.268993713      1.515150284
H       3.157015219      2.259643833      1.859162274
H       2.028343278      0.507956184      0.609991525
           6
  t=        61.50000    1    1
C       0.906585728      1.654277218      1.703498070
C       2.148486043      1.462871175      1.353010038
H      -0.024260837      2.014087388      1.679846303
H       0.618956344      0.257785388      1.532059180
H       3.188419075      2.275784501      1.913487498
H       2.014589547      0.510391692      0.655245151
           6
  t=        62.00000    1    1
C       0.924890425      1.665908723      1.716283906
C       2.159337337      1.478461823      1.358858718
H      -0.032805107      2.025092397      1.695409886
H       0.613684060      0.257021302      1.550157091
H       3.211143072      2.284620249      1.960070268
H       2.009943371      0.518619507      0.704633027
           6
  t=        62.50000    1    1
C       0.942850841      1.676121896      1.728972296
C       2.171056336      1.494280152      1.364930879
H      -0.045592051      2.041867984      1.713451971
H       0.605689239      0.266435588      1.569293191
H       3.225067249      2.286175077      1.998257931
H       2.014825256      0.532366707      0.757397521
           6
  t=        63.00000    1    1
C       0.960069739      1.685069267      1.741584152
C       2.183730846      1.510351724      1.371332089
H      -0.059200518      2.063077422      1.733935125
H       0.595079105      0.285723294      1.589300997
H       3.230217891      2.280560284      2.027525792
H       2.029367658      0.551041572      0.812760154
           6
  t=        63.50000    1    1
C       0.976189420      1.692871391      1.754120702
C       2.197436574      1.526744947      1.378179850
H      -0.070482592      2.087583767      1.756852356
H       0.582103132      0.314613710      1.610009778
H       3.226729131      2.267961055      2.047481191
H       2.053399171      0.573614966      0.869876571
           6
  t=        64.00000    1    1
C       0.990928326      1.699615067      1.766567111
C       2.212215681      1.543577813      1.385604981
H      -0.076849123      2.114531583      1.782204272
H       0.567263901      0.352921239      1.631243393
H       3.214836527      2.248681212      2.057918887
H       2.086445068      0.598383864      0.927745497
           6
  t=        64.50000    1    1
C       1.004079548      1.705356239      1.778900140
C       2.228064971      1.561014276      1.393744920
H      -0.076313234      2.143373165      1.809997253
H       0.551410482      0.400613781      1.652796793
H       3.194914882      2.223239116      2.058869555
H       2.127798150      0.622789492      0.985174182
           6
  t=        65.00000    1    1
C       1.015489057      1.710136977      1.791099616
C       2.244927033      1.579237996      1.402727427
H      -0.067428065      2.173861235      1.840204429
H       0.535746327      0.457689610      1.674431678
H       3.167614875      2.192474502      2.050639832
H       2.176676866      0.643551367      1.040839194
           6
  t=        65.50000    1    1
C       1.025037950      1.714008600      1.803158931
C       2.262683334      1.598392157      1.412644349
H      -0.049237658      2.206030437      1.872714508
H       0.521550192      0.523881839      1.695928733
H       3.133996759      2.157573131      2.033785335
H       2.232615476      0.657398357      1.093499834
           6
  t=        66.00000    1    1
C       1.032690910      1.717056450      1.815086228
C       2.281113252      1.618450386      1.423482184
H      -0.021482277      2.240149469      1.907313182
H       0.509834842      0.598273007      1.717056088
H       3.096070339      2.120454973      2.009530918
H       2.295381347      0.662356610      1.142441283
           6
  t=        66.50000    1    1
C       1.038516855      1.719385250      1.826886819
C       2.299862954      1.639154043      1.435085751
H       0.015576448      2.276557918      1.943782961
H       0.501413154      0.679416156      1.737414184
H       3.057309303      2.084066460      1.980152722
H       2.364344505      0.658421068      1.187790236
           6
  t=        67.00000    1    1
C       1.042714303      1.721170708      1.838550962
C       2.318383027      1.659971565      1.447122893
H       0.061325103      2.315536509      1.982025416
H       0.496490623      0.764825488      1.756402419
H       3.023647011      2.052903094      1.949683355
H       2.438160656      0.647541551      1.230287082
           6
  t=        67.50000    1    1
C       1.045646834      1.722718282      1.850057400
C       2.335875308      1.680134618      1.459068749
H       0.114937970      2.357342100      2.022032937
H       0.493793025      0.850231366      1.773373089
H       3.004297910      2.033243851      1.924476339
H       2.514893661      0.632967369      1.270740965
           6
  t=        68.00000    1    1
C       1.047837831      1.724501736      1.861403314
C       2.351408282      1.698798338      1.470326830
H       0.175521311      2.402310783      2.063875724
H       0.490176546      0.929506465      1.787570942
H       3.009886215      2.031554313      1.911702595
H       2.592819994      0.618446056      1.309807177
           6
  t=        68.50000    1    1
C       1.049927886      1.727151269      1.872635960
C       2.364459862      1.715387134      1.480604330
H       0.242181399      2.450819921      2.107712326
H       0.481051735      0.995260098      1.797918713
H       3.045885251      2.051275188      1.914905759
H       2.670537481      0.606899538      1.347786707
           6
  t=        69.00000    1    1
C       1.052531230      1.731273476      1.883836948
C       2.375299609      1.729776186      1.490099455
H       0.314111071      2.503048594      2.153695932
H       0.461607375      1.040913176      1.803273464
H       3.108720608      2.091099327      1.931709929
H       2.746707885      0.600294306      1.384711004
           6
  t=        69.50000    1    1
C       1.056011318      1.737162922      1.895077494
C       2.384819837      1.742192446      1.499335616
H       0.390766103      2.558521190      2.201856913
H       0.429236148      1.064186301      1.802904813
H       3.187973998      2.146181632      1.955783629
H       2.819937736      0.600016253      1.420526160
           6
  t=        70.00000    1    1
C       1.060396363      1.744731823      1.906401648
C       2.393983092      1.752961107      1.508807005
H       0.471761310      2.615983884      2.251793276
H       0.384784742      1.067966909      1.797000350
H       3.272595039      2.211009096      1.981167142
H       2.889010338      0.607115870      1.454992784
           6
  t=        70.50000    1    1
C       1.065512167      1.753693547      1.917827707
C       2.403508128      1.762379827      1.518860908
H       0.556411263      2.673722079      2.302108676
H       0.332147423      1.058102564      1.787138052
H       3.353779888      2.280490360      2.004278378
H       2.953031935      0.622420176      1.487155179
           6
  t=        71.00000    1    1
C       1.071066452      1.763748863      1.929361054
C       2.413842258      1.770636710      1.529678876
H       0.643546941      2.729865219      2.351034692
H       0.276736436      1.040994675      1.775469440
H       3.426231228      2.351198898      2.023859668
H       3.011209310      0.646148991      1.515660434
           6
  t=        71.50000    1    1
C       1.076806169      1.774622438      1.940975990
C       2.425222441      1.777875941      1.541366723
H       0.731994187      2.782645844      2.397562722
H       0.223381019      1.022212387      1.763397496
H       3.487283564      2.421250176      2.039159316
H       3.062744557      0.677947876      1.539911288
           6
  t=        72.00000    1    1
C       1.082607817      1.786145379      1.952641940
C       2.437727822      1.784240694      1.553972317
H       0.820634145      2.830303702      2.441126341
H       0.175655399      1.005769399      1.751782633
H       3.535581146      2.489159440      2.049603146
H       3.107066616      0.717354602      1.559981852
           6
  t=        72.50000    1    1
C       1.088456353      1.798250191      1.964340696
C       2.451360477      1.789859420      1.567506193
H       0.908240386      2.871296072      2.481253890
H       0.135900192      0.994265598      1.741289517
H       3.570438388      2.553693424      2.054919616
H       3.143901390      0.763818943      1.576042072
           6
  t=        73.00000    1    1
C       1.094421435      1.810893877      1.976053955
C       2.466016596      1.794868849      1.581942092
H       0.993522425      2.904466977      2.517526504
H       0.105451685      0.989439541      1.732519454
H       3.592015635      2.614000346      2.055249515
H       3.173449669      0.816493207      1.588299728
           6
  t=        73.50000    1    1
C       1.100613812      1.824053546      1.987767431
C       2.481557047      1.799419826      1.597249711
H       1.075156229      2.929055014      2.549575127
H       0.085024980      0.992378005      1.725989609
H       3.600688300      2.669414179      2.050875880
H       3.196283182      0.874193383      1.596854984
           6
  t=        74.00000    1    1
C       1.107148865      1.837709786      1.999468113
C       2.497818469      1.803705328      1.613389766
H       1.151884277      2.944737749      2.577232021
H       0.074971033      1.003676623      1.722088314
H       3.596860937      2.719368997      2.042107108
H       3.213475638      0.935144066      1.601801952
           6
  t=        74.50000    1    1
C       1.114146567      1.851845208      2.011141942
C       2.514601059      1.807967435      1.630318732
H       1.222489788      2.951465475      2.600475174
H       0.075539144      1.023677481      1.721145838
H       3.580830113      2.763318158      2.029261404
H       3.226649206      0.996922150      1.603200346
           6
  t=        75.00000    1    1
C       1.121735421      1.866441449      2.022771931
C       2.531647706      1.812496763      1.647990643
H       1.285769780      2.949444119      2.619401409
H       0.086892214      1.052524246      1.723471931
H       3.552881833      2.800774292      2.012732952
H       3.238090386      1.056421365      1.600999513
           6
  t=        75.50000    1    1
C       1.130055303      1.881478026      2.034335014
C       2.548639327      1.817620586      1.666365394
H       1.340561400      2.939129211      2.634205824
H       0.109014013      1.090129709      1.729369596
H       3.513392064      2.831350908      1.993034437
H       3.250737675      1.110004219      1.594941423
           6
  t=        76.00000    1    1
C       1.139259720      1.896933793      2.045800628
C       2.565229692      1.823663647      1.685421806
H       1.385818706      2.921197562      2.645135057
H       0.141540759      1.136083476      1.739118544
H       3.462897488      2.854770831      1.970807457
H       3.267760551      1.154063960      1.584474667
           6
  t=        76.50000    1    1
C       1.149506381      1.912785685      2.057137061
C       2.581134573      1.830878803      1.705155336
H       1.420607079      2.896588699      2.652510394
H       0.183646232      1.189598108      1.752906018
H       3.402146508      2.870864491      1.946779887
H       3.291678992      1.185879904      1.568794811
           6
  t=        77.00000    1    1
C       1.160949618      1.928975469      2.068309833
C       2.596205015      1.839359594      1.725537150
H       1.444388815      2.866922182      2.656967393
H       0.233909702      1.249397000      1.770653430
H       3.332280401      2.879737411      1.921792098
H       3.323246101      1.204582870      1.547258982
           6
  t=        77.50000    1    1
C       1.173701182      1.945406928      2.079287440
C       2.610500737      1.848982736      1.746465418
H       1.457197340      2.834654904      2.659652701
H       0.290328273      1.313754318      1.791903176
H       3.254744291      2.881814813      1.896717029
H       3.360943037      1.211632100      1.519893935
           6
  t=        78.00000    1    1
C       1.187886318      1.961969348      2.090024054
C       2.624187897      1.859474371      1.767763815
H       1.459450313      2.802952599      2.662326571
H       0.350119666      1.380361770      1.815853295
H       3.171426225      2.877937826      1.872401669
H       3.401774104      1.209911437      1.487541506
           6
  t=        78.50000    1    1
C       1.203692025      1.978586759      2.100471348
C       2.637427629      1.870447697      1.789201629
H       1.452005431      2.775631729      2.667423894
H       0.408798918      1.445592063      1.841108576
H       3.085297736      2.869918770      1.849605844
H       3.442246800      1.202933633      1.451727120
           6
  t=        79.00000    1    1
C       1.221434015      1.995218376      2.110590429
C       2.650257508      1.881445605      1.810547503
H       1.436247468      2.756987304      2.677957132
H       0.459760615      1.504417646      1.865498938
H       3.000443784      2.861147506      1.828843043
H       3.479287157      1.193974124      1.414315128
           6
  t=        79.50000    1    1
C       1.241564854      2.011848119      2.120367492
C       2.662608367      1.891934529      1.831612700
H       1.413910244      2.751193438      2.696800380
H       0.495145851      1.551351109      1.886393970
H       2.920893691      2.856816391      1.810453075
H       3.510422476      1.185703228      1.377135442
           6
  t=        80.00000    1    1
C       1.264481017      2.028446807      2.129785348
C       2.674427527      1.901422120      1.852267499
H       1.386640641      2.761151820      2.725826853
H       0.508941836      1.582471838      1.901800572
H       2.848806573      2.862340495      1.794673612
H       3.533762985      1.179939217      1.341820823
           6
  t=        80.50000    1    1
C       1.290110653      2.044907239      2.138838723
C       2.685767605      1.909632651      1.872437917
H       1.355153400      2.786764613      2.764983987
H       0.500661030      1.597597594      1.911660065
H       2.785359766      2.881424685      1.781181087
H       3.548133341      1.177820112      1.309750480
           6
  t=        81.00000    1    1
C       1.317832485      2.061076859      2.147600949
C       2.696772327      1.916620365      1.892083931
H       1.319632517      2.824791648      2.812006931
H       0.475478155      1.600012285      1.917584242
H       2.731444583      2.914349229      1.769123758
H       3.552973835      1.180193405      1.282032310
           6
  t=        81.50000    1    1
C       1.346813298      2.076867689      2.156247462
C       2.707611473      1.922735627      1.911157071
H       1.280459705      2.870330993      2.863120005
H       0.441033529      1.594360026      1.921591910
H       2.687147031      2.957610313      1.757915401
H       3.548081724      1.187694175      1.259496522
           6
  t=        82.00000    1    1
C       1.376245836      2.092276399      2.165007410
C       2.718411506      1.928468241      1.929576008
H       1.238637769      2.918457818      2.914142855
H       0.404470462      1.584760423      1.925381964
H       2.652316216      3.005950015      1.747713330
H       3.533573904      1.200588929      1.242705900
           6
  t=        82.50000    1    1
C       1.405453268      2.107338380      2.174085769
C       2.729247223      1.934255675      1.947252736
H       1.195765975      2.965446529      2.961729529
H       0.371032054      1.573974710      1.930002110
H       2.626874792      3.054786761      1.739070705
H       3.509858961      1.218789147      1.232011767
           6
  t=        83.00000    1    1
C       1.433906557      2.122112285      2.183635272
C       2.740179588      1.940381757      1.964130203
H       1.153589356      3.008897345      3.003705707
H       0.344129313      1.563603412      1.935913781
H       2.610561359      3.101161444      1.732465195
H       3.477619710      1.241972306      1.227509220
           6
  t=        83.50000    1    1
C       1.461189663      2.136669915      2.193760936
C       2.751285857      1.947008587      1.980186344
H       1.113522703      3.047269682      3.038835920
H       0.325892945      1.554666820      1.943315526
H       2.602921249      3.143335367      1.728127168
H       3.437802111      1.269610325      1.229016388
           6
  t=        84.00000    1    1
C       1.486976543      2.151077217      2.204527728
C       2.762647612      1.954246995      1.995423752
H       1.076647583      3.079668191      3.066550106
H       0.317547701      1.547814029      1.952270429
H       2.603411073      3.180248565      1.726202659
H       3.391556182      1.300902971      1.236089191
           6
  t=        84.50000    1    1
C       1.511032864      2.165392719      2.215969128
C       2.774326345      1.962175814      2.009886417
H       1.043795492      3.105700745      3.086729788
H       0.319671332      1.543433011      1.962713106
H       2.611307641      3.211389570      1.726783377
H       3.340255372      1.334729142      1.247896677
           6
  t=        85.00000    1    1
C       1.533198732      2.179666684      2.228101319
C       2.786343406      1.970872376      2.023670709
H       1.015629665      3.125272062      3.099498150
H       0.332334172      1.541692445      1.974502354
H       2.625882107      3.236688642      1.729910624
H       3.285545831      1.369564811      1.263074408
           6
  t=        85.50000    1    1
C       1.553339633      2.193934889      2.240941093
C       2.798674453      1.980456414      2.036930352
H       0.992756706      3.138384374      3.105041657
H       0.355319710      1.542628446      1.987490583
H       2.646661458      3.256288515      1.735590632
H       3.229403300      1.403375867      1.279545461
           6
  t=        86.00000    1    1
C       1.571329275      2.208222650      2.254508075
C       2.811267604      1.991090540      2.049882149
H       0.975760832      3.145082714      3.103544459
H       0.388285234      1.546233892      2.001560230
H       2.673352290      3.270424866      1.743819040
H       3.174002792      1.433649437      1.294430443
           6
  t=        86.50000    1    1
C       1.587046048      2.222532320      2.268822874
C       2.824069396      2.002968518      2.062775568
H       0.965200985      3.145437524      3.095166331
H       0.430956629      1.552553936      2.016642306
H       2.705859774      3.279344397      1.754603264
H       3.121240388      1.457686367      1.304412964
           6
  t=        87.00000    1    1
C       1.600401437      2.236841103      2.283899710
C       2.837046794      2.016265571      2.075822473
H       0.961553205      3.139552955      3.080059168
H       0.483184951      1.561703739      2.032717988
H       2.744255068      3.283238603      1.767974970
H       3.072166219      1.473259572      1.306634361
           6
  t=        87.50000    1    1
C       1.611355426      2.251113940      2.299747981
C       2.850196020      2.031075626      2.089100131
H       0.965171859      3.127628592      3.058446775
H       0.544815816      1.573771608      2.049779805
H       2.788740070      3.282131801      1.783992867
H       3.026900212      1.479355398      1.299786920
           6
  t=        88.00000    1    1
C       1.619914908      2.265308925      2.316376061
C       2.863533054      2.047385236      2.102488137
H       0.976304097      3.110130795      3.030758131
H       0.615413163      1.588609724      2.067730344
H       2.839638555      3.275830331      1.802768411
H       2.985034961      1.476508521      1.284762526
           6
  t=        88.50000    1    1
C       1.626215101      2.279387332      2.333766555
C       2.877064343      2.065054953      2.115707800
H       0.994918416      3.088122553      2.997851438
H       0.693709715      1.605507235      2.086236506
H       2.897055465      3.264072090      1.824417971
H       2.946076292      1.466751988      1.264447804
           6
  t=        89.00000    1    1
C       1.630510745      2.293311368      2.351882211
C       2.890764683      2.083892287      2.128432596
H       1.020574353      3.063166204      2.960951460
H       0.777525061      1.623149147      2.104763932
H       2.961058141      3.246778783      1.848992126
H       2.909842628      1.452660708      1.242436379
           6
  t=        89.50000    1    1
C       1.633215799      2.307055501      2.370651733
C       2.904571003      2.103670634      2.140383778
H       1.051942457      3.037548572      2.922000729
H       0.863590471      1.639390490      2.122492386
H       3.031778214      3.224308729      1.876230590
H       2.876619469      1.436738878      1.222037248
           6
  t=        90.00000    1    1
C       1.634932474      2.320553844      2.389890721
C       2.918392681      2.124168127      2.151358384
H       1.086431503      3.014968139      2.883808347
H       0.947679484      1.650937426      2.138699967
H       3.109579905      3.197567808      1.906061354
H       2.846764347      1.421104782      1.205850906
           6
  t=        90.50000    1    1
C       1.636481648      2.333673812      2.409241305
C       2.932110758      2.145122137      2.161217794
H       1.119823409      3.001013677      2.850150538
H       1.024959607      1.653398444      2.153196788
H       3.194819420      3.168211605      1.938866620
H       2.820607792      1.407614792      1.195824804
           6
  t=        91.00000    1    1
C       1.638858818      2.346328397      2.428334629
C       2.945470744      2.166142637      2.169875180
H       1.146450388      3.002110217      2.825556661
H       1.090873031      1.641978805      2.165578985
H       3.287775717      3.138913939      1.974607902
H       2.799266837      1.397649011      1.193301745
           6
  t=        91.50000    1    1
C       1.642945864      2.358510942      2.447043019
C       2.958106166      2.186823021      2.177309696
H       1.161092899      3.023453879      2.813535911
H       1.142732307      1.613212770      2.174400210
H       3.388348849      3.112052563      2.012318039
H       2.784607027      1.392023595      1.198955743
           6
  t=        92.00000    1    1
C       1.649043893      2.370168738      2.465347463
C       2.969773880      2.206919593      2.183553167
H       1.161906194      3.066381692      2.814490790
H       1.181602774      1.568029193      2.179495665
H       3.495449554      3.088409001      2.051440596
H       2.777806335      1.391223017      1.212952852
           6
  t=        92.50000    1    1
C       1.656810751      2.381209085      2.483300050
C       2.980442188      2.226364174      2.188664874
H       1.151174889      3.127490424      2.826004600
H       1.211068611      1.511815804      2.182098453
H       3.607367194      3.067392954      2.091601619
H       2.779161305      1.395770028      1.235523572
           6
  t=        93.00000    1    1
C       1.665653748      2.391608358      2.500961701
C       2.990224527      2.245238196      2.192696011
H       1.133244736      3.200136474      2.844438460
H       1.234551995      1.451615749      2.184405512
H       3.722180311      3.047431360      2.132737008
H       2.788536096      1.406149374      1.266838042
           6
  t=        93.50000    1    1
C       1.675030702      2.401521905      2.518411280
C       2.999352041      2.263684583      2.195713881
H       1.112647693      3.276662594      2.866340646
H       1.254192350      1.393590068      2.188484355
H       3.836905083      3.026344126      2.174846990
H       2.805949380      1.422483217      1.306538536
           6
  t=        94.00000    1    1
C       1.684560231      2.411137538      2.535710433
C       3.008118018      2.281867688      2.197835502
H       1.092879081      3.351028940      2.889336017
H       1.270866885      1.341834276      2.195702951
H       3.948173297      3.002248351      2.217742073
H       2.831446525      1.444402534      1.353692819
           6
  t=        94.50000    1    1
C       1.693998872      2.420584498      2.552877697
C       3.016827751      2.299951625      2.199233615
H       1.076213966      3.419073334      2.912021942
H       1.284797758      1.299035363      2.206932076
H       4.052968606      2.974030784      2.261047615
H       2.864809927      1.471000200      1.406928204
           6
  t=        95.00000    1    1
C       1.703213340      2.429937342      2.569893584
C       3.025752729      2.318108718      2.200139853
H       1.064025947      3.478053091      2.933646078
H       1.296121222      1.267030609      2.222684796
H       4.148735702      2.941256921      2.304302455
H       2.905438235      1.500674412      1.464417268
           6
  t=        95.50000    1    1
C       1.712167980      2.439235847      2.586716757
C       3.035116567      2.336540088      2.200852226
H       1.057022007      3.526319553      2.953826452
H       1.304994566      1.247004473      2.243257122
H       4.233221037      2.903936123      2.347012826
H       2.952481048      1.531009512      1.523681311
           6
  t=        96.00000    1    1
C       1.720886263      2.448520094      2.603324734
C       3.045085613      2.355500180      2.201733591
H       1.055575876      3.562889323      2.972218731
H       1.311679112      1.239530746      2.268699731
H       4.304497507      2.862403330      2.388688909
H       3.004968614      1.558570715      1.581448002
           6
  t=        96.50000    1    1
C       1.729419128      2.457838749      2.619714536
C       3.055748627      2.375273128      2.203153561
H       1.059933962      3.587148997      2.988525906
H       1.316465725      1.244777715      2.298835014
H       4.361135781      2.817374985      2.428909535
H       3.062128374      1.579121133      1.634244428
           6
  t=        97.00000    1    1
C       1.737845179      2.467241737      2.635893886
C       3.067088780      2.396074363      2.205398028
H       1.070216600      3.598924852      3.002558400
H       1.319702342      1.262492127      2.333212962
H       4.402522765      2.770053833      2.467422945
H       3.123369062      1.588723132      1.679463347
           6
  t=        97.50000    1    1
C       1.746248119      2.476773522      2.651876858
C       3.079029134      2.417929840      2.208594739
H       1.086466692      3.598250088      3.014188250
H       1.321815844      1.292325460      2.371212480
H       4.428633370      2.721932666      2.504073959
H       3.188165379      1.585360121      1.716319063
           6
  t=        98.00000    1    1
C       1.754707214      2.486481852      2.667671535
C       3.091500224      2.440603090      2.212714560
H       1.108644919      3.585327646      3.023413711
H       1.323246014      1.333786597      2.412076303
H       4.439732186      2.674609578      2.538643325
H       3.255735472      1.569970951      1.746040698
           6
  t=        98.50000    1    1
C       1.763289516      2.496411971      2.683277023
C       3.104481904      2.463649340      2.217633381
H       1.136490923      3.560822859      3.030442504
H       1.324348040      1.385979474      2.455000600
H       4.436454953      2.629676439      2.570902170
H       3.324789867      1.545955116      1.770942740
           6
  t=        99.00000    1    1
C       1.772061992      2.506589192      2.698683368
C       3.118031758      2.486565296      2.223215001
H       1.169522783      3.525902407      3.035663830
H       1.325331826      1.447620053      2.499221151
H       4.419529183      2.588706592      2.600728974
H       3.393388945      1.517552120      1.793263274
           6
  t=        99.50000    1    1
C       1.781141314      2.517030398      2.713868975
C       3.132229173      2.508891066      2.229355599
H       1.206968666      3.482464167      3.039668568
H       1.326015902      1.516534744      2.543943933
H       4.389912683      2.553242576      2.628173822
H       3.459192049      1.488773858      1.814649745
           6
  t=       100.00000    1    1
C       1.790727513      2.527774146      2.728803449
C       3.147135882      2.530260156      2.235998665
H       1.247651920      3.433282931      3.043286332
H       1.325516020      1.589240063      2.588296268
H       4.348818959      2.524773363      2.653443849
H       3.519927465      1.462747667      1.835973644
           6
  t=       100.50000    1    1
C       1.801152498      2.538858603      2.743425418
C       3.162760080      2.550411712      2.243136725
H       1.289722735      3.382265868      3.047740025
H       1.322075113      1.661071842      2.631374233
H       4.297602869      2.504636474      2.676776528
H       3.573794644      1.441546463      1.857498843
           6
  t=       101.00000    1    1
C       1.812921363      2.550223039      2.757608228
C       3.178986919      2.569184293      2.250789578
H       1.330123705      3.335679398      3.055072452
H       1.313300136      1.726308426      2.672208396
H       4.238080097      2.493785021      2.698455454
H       3.619778310      1.426319716      1.879141633
           6
  t=       101.50000    1    1
C       1.826643809      2.561644848      2.771148305
C       3.195522860      2.586486564      2.258940237
H       1.364688089      3.301859214      3.068256914
H       1.296586868      1.779337083      2.709893970
H       4.173593972      2.492854039      2.719335513
H       3.657538816      1.417450230      1.900606752
           6
  t=       102.00000    1    1
C       1.842863371      2.572763656      2.783790520
C       3.211904547      2.602277738      2.267477220
H       1.389223845      3.288523104      3.090549790
H       1.269991264      1.816961593      2.743974647
H       4.109260021      2.502106167      2.741326234
H       3.687141324      1.414933923      1.921553020
           6
  t=       102.50000    1    1
C       1.861707920      2.583269490      2.795375964
C       3.227549925      2.616549461      2.276167528
H       1.402051431      3.299332426      3.123880257
H       1.233645843      1.839467883      2.774324468
H       4.051753137      2.521380086      2.767619357
H       3.708869886      1.418777885      1.941655319
           6
  t=       103.00000    1    1
C       1.882814744      2.593079976      2.805941289
C       3.241838629      2.629297691      2.284668134
H       1.404984756      3.332451259      3.167867048
H       1.189841280      1.849910506      2.800897498
H       4.008279563      2.550329853      2.802607384
H       3.723127688      1.429139144      1.960599004
           6
  t=       103.50000    1    1
C       1.905474535      2.602356778      2.815711245
C       3.254305520      2.640496656      2.292625710
H       1.402363424      3.381775869      3.220027259
H       1.142303625      1.852689519      2.823599183
H       3.984246358      2.588761715      2.850635119
H       3.730436363      1.446295882      1.978148852
           6
  t=       104.00000    1    1
C       1.928885513      2.611370627      2.824987089
C       3.264897964      2.650061506      2.299888347
H       1.399006888      3.439888761      3.276986328
H       1.095190125      1.852192038      2.842338742
H       3.980409512      2.636998901      2.913515455
H       3.731244122      1.470740350      1.994177700
           6
  t=       104.50000    1    1
C       1.952332029      2.620386124      2.834053505
C       3.274054286      2.657914226      2.306660309
H       1.398768924      3.500211504      3.335514805
H       1.052149865      1.851943612      2.857169507
H       3.992187443      2.695427607      2.988689060
H       3.725934185      1.502915945      2.008594851
           6
  t=       105.00000    1    1
C       1.975272216      2.629575568      2.843128621
C       3.282413304      2.664112927      2.313381099
H       1.403988983      3.558267136      3.393184014
H       1.015864388      1.854266311      2.868250891
H       4.012904951      2.763521339      3.070651589
H       3.715005550      1.542758543      2.021337824
           6
  t=       105.50000    1    1
C       1.997340451      2.639043709      2.852374073
C       3.290517167      2.668850957      2.320530144
H       1.415926889      3.611337667      3.448271725
H       0.988122556      1.860473574      2.875725240
H       4.036659548      2.839739141      3.153450016
H       3.699208571      1.589661636      2.032300820
           6
  t=       106.00000    1    1
C       2.018303237      2.648858545      2.861921561
C       3.298690666      2.672437832      2.328497173
H       1.435258768      3.657628189      3.499452533
H       0.970242756      1.871414824      2.879717972
H       4.059213019      2.921790560      3.232179116
H       3.679699112      1.642362811      2.041375855
           6
  t=       106.50000    1    1
C       2.038014722      2.659065368      2.871876133
C       3.307079127      2.675274715      2.337583322
H       1.462234373      3.696002726      3.545748064
H       0.963120760      1.887595579      2.880348407
H       4.077877312      3.007288904      3.303263122
H       3.658025987      1.698559407      2.048157812
           6
  t=       107.00000    1    1
C       2.056412388      2.669699585      2.882309403
C       3.315660793      2.677857006      2.348016425
H       1.496744328      3.725800367      3.586482570
H       0.967203077      1.909220298      2.877796973
H       4.091311077      3.094114805      3.364584472
H       3.636197592      1.754502333      2.051691441
           6
  t=       107.50000    1    1
C       2.073492894      2.680799143      2.893266558
C       3.324289501      2.680775819      2.359992826
H       1.538427532      3.746631123      3.621179335
H       0.982640353      1.936287766      2.872337765
H       4.098973067      3.180296067      3.414962791
H       3.616747082      1.805059285      2.050481740
           6
  t=       108.00000    1    1
C       2.089303427      2.692402165      2.904774423
C       3.332776642      2.684653952      2.373687790
H       1.586673508      3.758371529      3.649605550
H       1.009205850      1.968588424      2.864315518
H       4.100704531      3.264010585      3.453766738
H       3.602355564      1.844510083      2.042640098
           6
  t=       108.50000    1    1
C       2.103896581      2.704563231      2.916857803
C       3.340978587      2.689997960      2.389252142
H       1.640757080      3.760963591      3.671642018
H       1.046435258      2.005767189      2.854108825
H       4.096543328      3.343622718      3.480597886
H       3.595259394      1.868217148      2.026212745
           6
  t=       109.00000    1    1
C       2.117322771      2.717352829      2.929534562
C       3.348875901      2.697013851      2.406751318
H       1.699881714      3.754347703      3.687239875
H       1.093532146      2.047282727      2.842131515
H       4.086688735      3.417605231      3.495042836
H       3.596483116      1.875014017      2.000255591
           6
  t=       109.50000    1    1
C       2.129655134      2.730848873      2.942811920
C       3.356590115      2.705550388      2.426102527
H       1.763163712      3.738495763      3.696408758
H       1.149122148      2.092295095      2.828778146
H       4.071537943      3.484462472      3.496555617
H       3.605568009      1.868138088      1.965810876
           6
  t=       110.00000    1    1
C       2.141036908      2.745118327      2.956684220
C       3.364321106      2.715246459      2.447066695
H       1.829532983      3.713641961      3.699283774
H       1.210922327      2.139511039      2.814372290
H       4.051824537      3.542857343      3.484785116
H       3.621045054      1.853490463      1.925687160
           6
  t=       110.50000    1    1
C       2.151715094      2.760205856      2.971132723
C       3.372257125      2.725739375      2.469338894
H       1.897807298      3.680471962      3.696243631
H       1.275710811      2.187153752      2.799006825
H       4.028494559      3.591765638      3.459733975
H       3.641186013      1.836975988      1.883266952
           6
  t=       111.00000    1    1
C       2.162052904      2.776145476      2.986121450
C       3.380549233      2.736743626      2.492630453
H       1.966777684      3.640458993      3.688275553
H       1.339193746      2.232713248      2.782271158
H       4.002475839      3.630445098      3.421577679
H       3.664437960      1.823370397      1.841666517
           6
  t=       111.50000    1    1
C       2.172522583      2.792931573      3.001573850
C       3.389314642      2.748062561      2.516677320
H       2.035056078      3.596444782      3.677553091
H       1.396031082      2.272851943      2.763090858
H       3.974744599      3.658464486      3.370791011
H       3.689529013      1.816010904      1.803370491
           6
  t=       112.00000    1    1
C       2.183615230      2.810431150      3.017322080
C       3.398646070      2.759604297      2.541270126
H       2.101209151      3.552873326      3.667831810
H       1.440679528      2.304014851      2.739789646
H       3.946361001      3.675349292      3.307757922
H       3.715419043      1.817162605      1.770410386
           6
  t=       112.50000    1    1
C       2.195622930      2.828249364      3.033027583
C       3.408628100      2.771315606      2.566213429
H       2.164013086      3.516055328      3.664758090
H       1.469373496      2.323815199      2.710864228
H       3.918677303      3.680832014      3.233063987
H       3.741256955      1.828508133      1.744420479
           6
  t=       113.00000    1    1
C       2.208504704      2.845686809      3.048132809
C       3.419310032      2.783021541      2.591179226
H       2.222636510      3.493977381      3.675820649
H       1.482176805      2.332363814      2.676092498
H       3.893257063      3.676137739      3.148825738
H       3.766147602      1.851143495      1.726569600
           6
  t=       113.50000    1    1
C       2.221922821      2.862080836      3.062089975
C       3.430634218      2.794403186      2.615726853
H       2.277319642      3.492075832      3.706589279
H       1.482901932      2.332412205      2.637205320
H       3.871625041      3.664656610      3.058937212
H       3.789224714      1.885186706      1.717441043
           6
  t=       114.00000    1    1
C       2.235421146      2.877193368      3.074714599
C       3.442473960      2.805024194      2.639389345
H       2.328010010      3.509662760      3.757159154
H       1.476444878      2.327771267      2.597310412
H       3.856473317      3.651836583      2.967764627
H       3.809897553      1.930103051      1.717228159
           6
  t=       114.50000    1    1
C       2.248623692      2.891209702      3.086244585
C       3.454628308      2.814315558      2.661750260
H       2.374014427      3.541331859      3.822605901
H       1.466791624      2.321658962      2.559538815
H       3.851760223      3.645232248      2.879172101
H       3.827789576      1.985098446      1.725987554
           6
  t=       115.00000    1    1
C       2.261282128      2.904481788      3.097111197
C       3.466892873      2.821703163      2.682565144
H       2.414375849      3.580558889      3.896197252
H       1.456866800      2.316360255      2.526388752
H       3.861240038      3.652906201      2.795342592
H       3.842573385      2.048996804      1.743544331
           6
  t=       115.50000    1    1
C       2.273243184      2.917338457      3.107748044
C       3.479232449      2.826972977      2.701818945
H       2.448051564      3.622147359      3.972217155
H       1.448740562      2.313346739      2.499495984
H       3.886311002      3.679150663      2.716084166
H       3.854069104      2.119862910      1.769183361
           6
  t=       116.00000    1    1
C       2.284402771      2.930027984      3.118506864
C       3.491883514      2.830529238      2.719614556
H       2.474453622      3.662533096      4.046176216
H       1.444027334      2.313674031      2.480005570
H       3.924350963      3.721121971      2.640522494
H       3.862294931      2.195273841      1.801706032
           6
  t=       116.50000    1    1
C       2.294719528      2.942716604      3.129624820
C       3.505198681      2.833148473      2.736043107
H       2.493262800      3.699417485      4.114775691
H       1.443832704      2.318114626      2.468784545
H       3.970631720      3.771977260      2.569030007
H       3.867483896      2.272364936      1.839259816
           6
  t=       117.00000    1    1
C       2.304219676      2.955503762      3.141249359
C       3.519422419      2.835675866      2.751223954
H       2.504331041      3.731268485      4.175857030
H       1.448611855      2.327055911      2.466297122
H       4.020960782      3.825172619      2.503033096
H       3.870295928      2.347568864      1.878933527
           6
  t=       117.50000    1    1
C       2.312973073      2.968447338      3.153457938
C       3.534595341      2.838798875      2.765399123
H       2.507765923      3.757014988      4.228038858
H       1.458382678      2.340602615      2.472730128
H       4.072678327      3.876519653      2.443931868
H       3.871949047      2.417159210      1.916714727
           6
  t=       118.00000    1    1
C       2.321096961      2.981586003      3.166277145
C       3.550577495      2.843005911      2.778939249
H       2.503824529      3.776055837      4.270642709
H       1.472960228      2.358610906      2.488006427
H       4.124344620      3.923914668      2.392659399
H       3.874081442      2.477704120      1.947692773
           6
  t=       118.50000    1    1
C       2.328747842      2.994948652      3.179707875
C       3.567128013      2.848622894      2.792283112
H       2.493012684      3.788199479      4.303432475
H       1.492031465      2.380732421      2.511694379
H       4.175047842      3.966478753      2.349819422
H       3.878417418      2.526394548      1.966692647
           6
  t=       119.00000    1    1
C       2.336097387      3.008561721      3.193750441
C       3.584017338      2.855819590      2.805778878
H       2.475999793      3.793463439      4.326229576
H       1.515147845      2.406483951      2.543159098
H       4.224137312      4.003972210      2.315910828
H       3.886076554      2.561597994      1.969876574
           6
  t=       119.50000    1    1
C       2.343320007      3.022452598      3.208415474
C       3.601118979      2.864628636      2.819501187
H       2.453527302      3.791924696      4.338777984
H       1.541665092      2.435310455      2.581693182
H       4.271000825      4.036250515      2.291466969
H       3.897002901      2.583221824      1.956658578
           6
  t=       120.00000    1    1
C       2.350599444      3.036650269      3.223723557
C       3.618419844      2.874975783      2.833210872
H       2.426304551      3.783723897      4.340840447
H       1.570645142      2.466575747      2.626528033
H       4.315025129      4.063085553      2.277005671
H       3.910005013      2.592529008      1.930131226
           6
  t=       120.50000    1    1
C       2.358136669      3.051196361      3.239718960
C       3.635967651      2.886725594      2.846492126
H       2.394902681      3.769112810      4.332411207
H       1.600686535      2.499410399      2.676621041
H       4.355727120      4.084256117      2.272815043
H       3.923433025      2.591476245      1.895481938
           6
  t=       121.00000    1    1
C       2.366164320      3.066160049      3.256478948
C       3.653818709      2.899728969      2.858915458
H       2.359847913      3.748577540      4.313899313
H       1.629665485      2.532370608      2.730308267
H       4.392813306      4.099576130      2.278928913
H       3.935734957      2.582159657      1.858128752
           6
  t=       121.50000    1    1
C       2.374952075      3.081640953      3.274095977
C       3.672011635      2.913855527      2.870128185
H       2.321742300      3.722884155      4.286190810
H       1.654740620      2.563351707      2.785284648
H       4.426046781      4.108815385      2.295250591
H       3.945713555      2.566514594      1.822688171
           6
  t=       122.00000    1    1
C       2.384776003      3.097719845      3.292602401
C       3.690562141      2.929002988      2.879883700
H       2.281297059      3.693319149      4.250942631
H       1.672820229      2.589924725      2.839066321
H       4.455148999      4.111644002      2.321661205
H       3.952551026      2.546269697      1.792658955
           6
  t=       122.50000    1    1
C       2.395872943      3.114376165      3.311876306
C       3.709460010      2.945099057      2.888026803
H       2.239214124      3.662126423      4.211234097
H       1.681287799      2.609840169      2.889485685
H       4.479822548      4.107645831      2.358039807
H       3.955759046      2.522953124      1.770552323
           6
  t=       123.00000    1    1
C       2.408398989      3.131411276      3.331546487
C       3.728664916      2.962100119      2.894481295
H       2.195871973      3.632878556      4.172281791
H       1.678889506      2.621549491      2.935105371
H       4.499802232      4.096337841      2.404221185
H       3.955098698      2.497910488      1.758085428
           6
  t=       123.50000    1    1
C       2.422412281      3.148441847      3.350992753
C       3.748124700      2.979979463      2.899238300
H       2.150795167      3.610216040      4.141117878
H       1.666320512      2.624646724      2.975577427
H       4.514805834      4.077180507      2.460020620
H       3.950561209      2.472332699      1.756254520
           6
  t=       124.00000    1    1
C       2.437873659      3.165004612      3.369539203
C       3.767773839      2.998707707      2.902371260
H       2.102515611      3.598444739      4.124309022
H       1.646283557      2.620078357      3.011669459
H       4.524592517      4.049655235      2.525052054
H       3.942400137      2.447356241      1.765290069
           6
  t=       124.50000    1    1
C       2.454626949      3.180739090      3.386752328
C       3.787520742      3.018233233      2.904001981
H       2.049742790      3.600059136      4.125298967
H       1.622661559      2.609459551      3.044434386
H       4.529100027      4.013516150      2.598707502
H       3.931037621      2.424027794      1.785017571
           6
  t=       125.00000    1    1
C       2.472357300      3.195506599      3.402622999
C       3.807193956      3.038432323      2.904315491
H       1.992989143      3.614760223      4.142678268
H       1.599537886      2.594634097      3.074778755
H       4.528879108      3.969406518      2.679896183
H       3.917121751      2.403285971      1.814934748
           6
  t=       125.50000    1    1
C       2.490615284      3.209345131      3.417466109
C       3.826527822      3.059089849      2.903523028
H       1.934985009      3.640258766      4.171539929
H       1.580403884      2.577321391      3.103341348
H       4.525446627      3.919167780      2.767198959
H       3.901434717      2.385969855      1.854459735
           6
  t=       126.00000    1    1
C       2.508918145      3.222377389      3.431689647
C       3.845158077      3.079868310      2.901860797
H       1.879530615      3.673535946      4.206096157
H       1.567849051      2.559038040      3.130610435
H       4.521657028      3.866210414      2.859057730
H       3.884825149      2.372730643      1.902774152
           6
  t=       126.50000    1    1
C       2.526860281      3.234723685      3.445620623
C       3.862556773      3.100290448      2.899544535
H       1.830139483      3.711959797      4.241498900
H       1.563809612      2.540969550      3.157084366
H       4.522370108      3.815722860      2.954439181
H       3.868107379      2.364079624      1.958793834
           6
  t=       127.00000    1    1
C       2.544159163      3.246489442      3.459498475
C       3.878045251      3.119862305      2.896730716
H       1.789583431      3.753262023      4.274255629
H       1.569608911      2.524162203      3.182956619
H       4.533966722      3.773573164      3.053372182
H       3.852258595      2.360000417      2.021071398
           6
  t=       127.50000    1    1
C       2.560650025      3.257774197      3.473475598
C       3.891073008      3.138286035      2.893573202
H       1.759821064      3.795438809      4.302523398
H       1.585863851      2.509843984      3.207663193
H       4.561230345      3.743785463      3.156485335
H       3.838442735      2.359607691      2.087735920
           6
  t=       128.00000    1    1
C       2.576219515      3.268649380      3.487613689
C       3.901560819      3.155672830      2.890305958
H       1.742129324      3.837064752      4.325647145
H       1.612576934      2.499137252      3.230409935
H       4.604214345      3.725950323      3.263828475
H       3.827621671      2.361437880      2.156663766
           6
  t=       128.50000    1    1
C       2.590785730      3.279155400      3.501933205
C       3.909932848      3.172521369      2.887321831
H       1.737193252      3.877208304      4.343312599
H       1.649183384      2.492815414      3.250736217
H       4.658213481      3.715760233      3.373476080
H       3.820302095      2.363533014      2.225630570
           6
  t=       129.00000    1    1
C       2.604313532      3.289321428      3.516447742
C       3.916802923      3.189451721      2.885120134
H       1.745126744      3.915270227      4.355138354
H       1.694766387      2.491263909      3.268718912
H       4.716979894      3.708233767      3.482004094
H       3.816639315      2.363352213      2.292253279
           6
  t=       129.50000    1    1
C       2.616800147      3.299189382      3.531177853
C       3.922732901      3.206990534      2.884182086
H       1.765786236      3.950690785      4.360781873
H       1.748137418      2.494653662      3.284532697
H       4.775227224      3.699915332      3.585653410
H       3.816589922      2.357964991      2.354479886
           6
  t=       130.00000    1    1
C       2.628296674      3.308828877      3.546133733
C       3.928157533      3.225467368      2.884875503
H       1.798867687      3.982966779      4.359914613
H       1.807872566      2.502799096      3.298461146
H       4.829009653      3.688865862      3.681150004
H       3.820038455      2.345242799      2.411125125
           6
  t=       130.50000    1    1
C       2.638946573      3.318360843      3.561306509
C       3.933336424      3.244965408      2.887407533
H       1.843802729      4.011684311      4.352297070
H       1.872331804      2.514957534      3.310843996
H       4.875654521      3.674157977      3.766088915
H       3.827063189      2.324837395      2.462131160
           6
  t=       131.00000    1    1
C       2.648974999      3.327951921      3.576667678
C       3.938362439      3.265342729      2.891834991
H       1.899774255      4.036585920      4.337955722
H       1.939559807      2.529756736      3.321838712
H       4.913845355      3.655654554      3.839098491
H       3.837963592      2.298221106      2.508348334
           6
  t=       131.50000    1    1
C       2.658682109      3.337801329      3.592166405
C       3.943229028      3.286299036      2.898116932
H       1.965629035      4.057620840      4.317357199
H       2.007216531      2.545270854      3.331322153
H       4.943218877      3.633769185      3.899664832
H       3.853097692      2.268161354      2.551040675
           6
  t=       132.00000    1    1
C       2.668424003      3.348122947      3.607732009
C       3.947893566      3.307460080      2.906185092
H       2.039823010      4.075052861      4.291442274
H       2.072731520      2.559147468      3.338919540
H       4.963867780      3.609209397      3.947760669
H       3.872752069      2.237950133      2.591325099
           6
  t=       132.50000    1    1
C       2.678600417      3.359102791      3.623254909
C       3.952315367      3.328452369      2.915986678
H       2.120250140      4.089764959      4.261794977
H       2.133511512      2.568788828      3.344101332
H       4.976077131      3.582816447      3.983582116
H       3.897062603      2.210694885      2.629885785
           6
  t=       133.00000    1    1
C       2.689610512      3.370825790      3.638564915
C       3.956482018      3.348949239      2.927483250
H       2.204191779      4.103548389      4.230711113
H       2.187286945      2.571839461      3.346447172
H       4.980312278      3.555502947      4.007518069
H       3.925943805      2.188927636      2.666944351
           6
  t=       133.50000    1    1
C       2.701802572      3.383169489      3.653398091
C       3.960437479      3.368686695      2.940631955
H       2.288290005      4.119401067      4.201296844
H       2.232567781      2.567041869      3.346026019
H       4.977178821      3.528228954      4.020130880
H       3.958964183      2.174552717      2.702418927
           6
  t=       134.00000    1    1
C       2.715428702      3.395743691      3.667382779
C       3.964291174      3.387456766      2.955389532
H       2.368852447      4.141594026      4.177345853
H       2.268933093      2.554910919      3.343687570
H       4.967245751      3.501963179      4.021982162
H       3.995360182      2.168943114      2.736048567
           6
  t=       134.50000    1    1
C       2.730589580      3.407987913      3.680121138
C       3.968200974      3.405094458      2.971721790
H       2.442843895      4.174640000      4.162395757
H       2.296870859      2.537689492      3.340983881
H       4.950899285      3.477650233      4.013465912
H       4.034212035      2.173043124      2.767497545
           6
  t=       135.00000    1    1
C       2.747198380      3.419430725      3.691348084
C       3.972348598      3.421467381      2.989604772
H       2.508939025      4.221157759      4.158282890
H       2.317253636      2.518453428      3.339674920
H       4.928368022      3.456243295      3.994785007
H       4.074613192      2.187399911      2.796410813
           6
  t=       135.50000    1    1
C       2.765000721      3.429922377      3.701043776
C       3.976917674      3.436473531      3.009001372
H       2.567641108      4.280132998      4.164380761
H       2.330949763      2.500123328      3.341207561
H       4.899974265      3.438839430      3.966237478
H       4.115712800      2.212009922      2.822348501
           6
  t=       136.00000    1    1
C       2.783654362      3.439652646      3.709408671
C       3.982073011      3.450042222      3.029819094
H       2.620314033      4.347214696      4.178232607
H       2.338737645      2.485031649      3.346530098
H       4.866434376      3.426690173      3.928602569
H       4.156766436      2.246221116      2.844753404
           6
  t=       136.50000    1    1
C       2.802811621      3.448969741      3.716728131
C       3.987933622      3.462129831      3.051910793
H       2.668222962      4.416914788      4.196946561
H       2.341386843      2.474830386      3.356134191
H       4.829105438      3.421079238      3.883228036
H       4.197107036      2.288956519      2.863031038
           6
  t=       137.00000    1    1
C       2.822146182      3.458215242      3.723283427
C       3.994530859      3.472728647      3.075058081
H       2.712229097      4.484309479      4.217971626
H       2.339803417      2.470657012      3.370191103
H       4.790475117      3.423291534      3.832430144
H       4.235994373      2.338739274      2.876495594
           6
  t=       137.50000    1    1
C       2.841352315      3.467649796      3.729326707
C       4.001768725      3.481874989      3.098909772
H       2.752810679      4.545602918      4.239365433
H       2.334953197      2.473413688      3.388731463
H       4.754618849      3.434562701      3.780061630
H       4.272695787      2.393688866      2.884386140
           6
  t=       138.00000    1    1
C       2.860149388      3.477441748      3.735079060
C       4.009323807      3.489659299      3.122913904
H       2.790164002      4.598210565      4.259865599
H       2.327634631      2.483822738      3.411624367
H       4.728203211      3.455973875      3.732123633
H       4.306747562      2.451502769      2.886037433
           6
  t=       138.50000    1    1
C       2.878286634      3.487707801      3.740750034
C       4.016592226      3.496223374      3.146350285
H       2.824286239      4.640481043      4.278709739
H       2.318415288      2.502300354      3.438483617
H       4.720897162      3.488594133      3.696451070
H       4.338099663      2.509266880      2.880847791
           6
  t=       139.00000    1    1
C       2.895530037      3.498554817      3.746557881
C       4.022990477      3.501690914      3.168608311
H       2.855061070      4.671508523      4.295481214
H       2.307748485      2.528749177      3.468699525
H       4.741801377      3.533839781      3.679375498
H       4.367055756      2.563820784      2.868187135
           6
  t=       139.50000    1    1
C       2.911640738      3.510081232      3.752747018
C       4.028498984      3.506145079      3.189514916
H       2.882225478      4.690739271      4.309890555
H       2.296027330      2.562855185      3.501627340
H       4.793314517      3.593093296      3.681409498
H       4.394166501      2.612485907      2.847626888
           6
  t=       140.00000    1    1
C       2.926400605      3.522367698      3.759555966
C       4.033889673      3.509706956      3.209367506
H       2.905411069      4.697922798      4.321775072
H       2.283559144      2.604166466      3.536746451
H       4.868284941      3.666150572      3.696821065
H       4.420045793      2.653764912      2.819196439
           6
  t=       140.50000    1    1
C       2.939645847      3.535474324      3.767186862
C       4.040322259      3.512598001      3.228586270
H       2.924328532      4.693340658      4.331143677
H       2.270525929      2.651866102      3.573639909
H       4.954505564      3.750320691      3.718077625
H       4.445140916      2.687529036      2.783420965
           6
  t=       141.00000    1    1
C       2.951256346      3.549459109      3.775790062
C       4.048782587      3.515024495      3.247408291
H       2.938860029      4.677507183      4.338205226
H       2.256815090      2.704878299      3.611828230
H       5.041960210      3.842167705      3.739841670
H       4.469382753      2.714626645      2.741291993
           6
  t=       141.50000    1    1
C       2.961178957      3.564377130      3.785471163
C       4.059915886      3.517114818      3.265868097
H       2.949078377      4.651294846      4.343287523
H       2.242082404      2.761839873      3.650732451
H       5.124244548      3.938322701      3.759181099
H       4.492391978      2.736731296      2.694323115
           6
  t=       142.00000    1    1
C       2.969501196      3.580248069      3.796254314
C       4.074013329      3.518924057      3.283907342
H       2.955229101      4.616159800      4.346914789
H       2.225822156      2.821222947      3.689700326
H       5.197587272      4.035785629      3.774606799
H       4.513687721      2.756023885      2.644538947
           6
  t=       142.50000    1    1
C       2.976411364      3.597025487      3.808077242
C       4.091129930      3.520472366      3.301430461
H       2.957499393      4.574288203      4.349979997
H       2.207438726      2.881519479      3.728158121
H       5.260027280      4.132036900      3.785444293
H       4.532740271      2.774659073      2.594175467
           6
  t=       143.00000    1    1
C       2.982179468      3.614559179      3.820774790
C       4.111131614      3.521787676      3.318335926
H       2.956004354      4.528979190      4.354080948
H       2.186356779      2.941270068      3.765657302
H       5.310810318      4.225091785      3.791618597
H       4.549144403      2.794238829      2.545336120
           6
  t=       143.50000    1    1
C       2.987118095      3.632546663      3.834072104
C       4.133744983      3.522902415      3.334536917
H       2.950792568      4.484888347      4.361751355
H       2.162287734      2.999407275      3.801868180
H       5.349886308      4.313486335      3.793402283
H       4.562723208      2.815856824      2.499853891
           6
  t=       144.00000    1    1
C       2.991551134      3.650523129      3.847585382
C       4.158621080      3.523872914      3.349989138
H       2.942047962      4.448061687      4.376488512
H       2.135355157      3.055191875      3.836467129
H       5.377268011      4.395942419      3.791098531
H       4.573455139      2.840351729      2.459353038
           6
  t=       144.50000    1    1
C       2.995789716      3.667973271      3.860879407
C       4.185363897      3.524804516      3.364712208
H       2.930347038      4.424619047      4.402049164
H       2.105920841      3.107996532      3.869061434
H       5.392938760      4.471276008      3.784960679
H       4.581429949      2.868300029      2.425168300
           6
  t=       145.00000    1    1
C       3.000081169      3.684523991      3.873597250
C       4.213593294      3.525836897      3.378755556
H       2.916367987      4.418388271      4.441170695
H       2.074736140      3.157585454      3.899307470
H       5.396888172      4.538376007      3.775200430
H       4.586810998      2.900002170      2.398358303
           6
  t=       145.50000    1    1
C       3.004576796      3.700124357      3.885610220
C       4.242944150      3.527119497      3.392178059
H       2.900986796      4.429110185      4.494031810
H       2.042958355      3.203959192      3.926869490
H       5.389395749      4.596378170      3.762110514
H       4.589833308      2.935407216      2.379619222
           6
  t=       146.00000    1    1
C       3.009320957      3.715032933      3.897062909
C       4.273086296      3.528801686      3.405032713
H       2.885316288      4.452873089      4.557915700
H       2.012048636      3.247203442      3.951397955
H       5.371008892      4.644609225      3.746064186
H       4.590781092      2.974153648      2.369289765
           6
  t=       146.50000    1    1
C       3.014279970      3.729632876      3.908274596
C       4.303730533      3.531041228      3.417365272
H       2.870585779      4.484366215      4.628484564
H       1.983610437      3.287425771      3.972481167
H       5.342390675      4.682425020      3.727438846
H       4.590005868      3.015643358      2.367392411
           6
  t=       147.00000    1    1
C       3.019392913      3.744277050      3.919613277
C       4.334613615      3.534019911      3.429237370
H       2.858039340      4.518582376      4.701101468
H       1.959237934      3.324782496      3.989646066
H       5.304141134      4.709077392      3.706556842
H       4.587932016      3.059104664      2.373595480
           6
  t=       147.50000    1    1
C       3.024614283      3.759212952      3.931395067
C       4.365510743      3.537937962      3.440732593
H       2.848606642      4.551745242      4.771890474
H       1.940405904      3.359526766      4.002451213
H       5.256650222      4.723626576      3.683689836
H       4.584985975      3.103665571      2.387181982
           6
  t=       148.00000    1    1
C       3.029927660      3.774584620      3.943848476
C       4.396240723      3.543010390      3.451945647
H       2.842814622      4.581401765      4.838086159
H       1.928293619      3.391915455      4.010563942
H       5.200197188      4.724969771      3.659148644
H       4.581536983      3.148346755      2.407087847
           6
  t=       148.50000    1    1
C       3.035363082      3.790457284      3.957099432
C       4.426594378      3.549441602      3.462997544
H       2.841028926      4.606074238      4.897809641
H       1.923606108      3.422060251      4.013869010
H       5.135549741      4.712435323      3.633499870
H       4.577881224      3.191972999      2.431798135
           6
  t=       149.00000    1    1
C       3.040990795      3.806830378      3.971159108
C       4.456260543      3.557358858      3.474049087
H       2.843595422      4.625117778      4.950010533
H       1.926684343      3.449824832      4.012498843
H       5.064650963      4.686742056      3.607747841
H       4.574259491      3.233097024      2.459177296
           6
  t=       149.50000    1    1
C       3.046896570      3.823659778      3.985971588
C       4.484902031      3.566796960      3.485312290
H       2.850733322      4.638381861      4.994213276
H       1.937425383      3.475068275      4.006806450
H       4.990114956      4.649785627      3.583007086
H       4.570937189      3.270225719      2.486373307
           6
  t=       150.00000    1    1
C       3.053213725      3.840909058      4.001469041
C       4.512204318      3.577675453      3.496989276
H       2.862305196      4.645878167      5.030196779
H       1.955295231      3.497714339      3.997289195
H       4.914541764      4.604278640      3.560373153
H       4.568144920      3.302103731      2.510414168
           6
  t=       150.50000    1    1
C       3.060122135      3.858537334      4.017583608
C       4.537787824      3.589635448      3.509228231
H       2.877943803      4.647744078      5.057772234
H       1.979395824      3.517633973      3.984510095
H       4.841551062      4.555978908      3.541120626
H       4.565907904      3.327728494      2.528693965
           6
  t=       151.00000    1    1
C       3.067791281      3.876497606      4.034290057
C       4.561229689      3.601960153      3.522089843
H       2.897289356      4.644081608      5.076515022
H       2.008574790      3.534627196      3.968965082
H       4.775648936      4.514464376      3.526163930
H       4.564251416      3.346721125      2.539804459
           6
  t=       151.50000    1    1
C       3.076355223      3.894722662      4.051565840
C       4.582209326      3.613594329      3.535547421
H       2.919886263      4.635088078      5.086159244
H       2.041308212      3.548562862      3.951216590
H       4.721026237      4.492880966      3.515669368
H       4.563186699      3.359244302      2.543869515
           6
  t=       152.00000    1    1
C       3.085908610      3.913109370      4.069372212
C       4.600579885      3.623587007      3.549549625
H       2.945239080      4.621085576      5.086806707
H       2.075811153      3.559256735      3.931860020
H       4.680494046      4.503353861      3.508800182
H       4.562805058      3.365595306      2.542102141
           6
  t=       152.50000    1    1
C       3.096566633      3.931534903      4.087642290
C       4.616376624      3.631757943      3.564025270
H       2.972868332      4.602636942      5.079056573
H       2.110367076      3.566489428      3.911316777
H       4.654235268      4.548713153      3.504330634
H       4.563326911      3.366211869      2.536352636
           6
  t=       153.00000    1    1
C       3.108400726      3.949866960      4.106285305
C       4.629813072      3.638758063      3.578840747
H       3.002392547      4.580682511      5.064146986
H       2.143625454      3.570270662      3.889632285
H       4.640543246      4.621148982      3.501533702
H       4.564795370      3.361774057      2.528738108
           6
  t=       153.50000    1    1
C       3.121475206      3.967950008      4.125120840
C       4.641056627      3.645554679      3.593809289
H       3.033418776      4.556618553      5.044227915
H       2.174879411      3.570754745      3.866781958
H       4.637747441      4.708731213      3.500457105
H       4.567219784      3.352988505      2.521460669
           6
  t=       154.00000    1    1
C       3.135849619      3.985576854      4.143807416
C       4.650265721      3.652912241      3.608756686
H       3.065291285      4.532576543      5.022863827
H       2.204075436      3.568430886      3.842991865
H       4.644084184      4.801255263      3.501353724
H       4.570475691      3.340799037      2.516621723
           6
  t=       154.50000    1    1
C       3.151572336      4.002456488      4.161852695
C       4.657578899      3.661318803      3.623553194
H       3.097199679      4.511574553      5.005120108
H       2.231635185      3.564104012      3.818722386
H       4.657800172      4.891342328      3.504310416
H       4.574477909      3.326413551      2.516021139
           6
  t=       155.00000    1    1
C       3.168663899      4.018227850      4.178671350
C       4.663104655      3.671066470      3.638120763
H       3.128423950      4.497199837      4.997053356
H       2.258261172      3.558770244      3.794576189
H       4.677412133      4.974235571      3.509398404
H       4.579189662      3.310827145      2.520833034
           6
  t=       155.50000    1    1
C       3.187107272      4.032546388      4.193703311
C       4.666917312      3.682280845      3.652422445
H       3.158457554      4.492660460      5.004343899
H       2.284827457      3.553458293      3.771316386
H       4.701845060      5.047637231      3.516643874
H       4.584635823      3.294709709      2.531701637
           6
  t=       156.00000    1    1
C       3.206857437      4.045211615      4.206601092
C       4.669069421      3.694965398      3.666449719
H       3.187044846      4.499467972      5.030013885
H       2.312184087      3.549097226      3.749880220
H       4.730346508      5.110975302      3.526031772
H       4.590884670      3.278540256      2.548924674
           6
  t=       156.50000    1    1
C       3.227865416      4.056238285      4.217383523
C       4.669594220      3.709088417      3.680198559
H       3.214066044      4.516737579      5.072863292
H       2.340989741      3.546427972      3.731209166
H       4.762404728      5.164225595      3.537550691
H       4.598096607      3.262688881      2.572595720
           6
  t=       157.00000    1    1
C       3.250075270      4.065829405      4.226414102
C       4.668537767      3.724633243      3.693659280
H       3.239378127      4.541607631      5.127935301
H       2.371665252      3.545983724      3.716138299
H       4.797651875      5.207106300      3.551148400
H       4.606479416      3.247545406      2.602672811
           6
  t=       157.50000    1    1
C       3.273413188      4.074264260      4.234210078
C       4.665977876      3.741613925      3.706816545
H       3.262788715      4.570560609      5.188846230
H       2.404378642      3.548052993      3.705340219
H       4.835875580      5.238906573      3.566698619
H       4.616222100      3.233554404      2.639012698
           6
  t=       158.00000    1    1
C       3.297778759      4.081801723      4.241259442
C       4.662028556      3.760061824      3.719658066
H       3.284190107      4.600560524      5.249915460
H       2.439064124      3.552661805      3.699263440
H       4.876967795      5.258755969      3.584041973
H       4.627444199      3.221137965      2.681338530
           6
  t=       158.50000    1    1
C       3.323030946      4.088665701      4.247956164
C       4.656870857      3.779965964      3.732189874
H       3.303664973      4.629432979      5.306886297
H       2.475506701      3.559636515      3.698071528
H       4.920627794      5.266110920      3.603039966
H       4.640101954      3.210650449      2.729115670
           6
  t=       159.00000    1    1
C       3.348991279      4.095047678      4.254613576
C       4.650739619      3.801294496      3.744428651
H       3.321415048      4.655707726      5.356693724
H       2.513375699      3.568640434      3.701754917
H       4.966475784      5.260718966      3.623639852
H       4.654032452      3.202249106      2.781539086
           6
  t=       159.50000    1    1
C       3.375445337      4.101111961      4.261501498
C       4.643915949      3.824018904      3.756388886
H       3.337658349      4.678448702      5.397141094
H       2.552182384      3.579196746      3.710180805
H       5.014160911      5.242439792      3.645851717
H       4.669062602      3.195869108      2.837540424
           6
  t=       160.00000    1    1
C       3.402152779      4.107012244      4.268871575
C       4.636734601      3.848095483      3.768087157
H       3.352568925      4.697178776      5.426755401
H       2.591213521      3.590718332      3.723024237
H       5.063223155      5.211309112      3.669694270
H       4.685066657      3.191228381      2.895702859
           6
  t=       160.50000    1    1
C       3.428850979      4.112891708      4.276955162
C       4.629566416      3.873482678      3.779531201
H       3.366300070      4.711800952      5.444750196
H       2.629526678      3.602485351      3.739815721
H       5.113171277      5.167499586      3.695220313
H       4.702035507      3.187760166      2.954380598
           6
  t=       161.00000    1    1
C       3.455239073      4.118888044      4.285975459
C       4.622825218      3.900130789      3.790692142
H       3.378992085      4.722448620      5.450876898
H       2.665998707      3.613712362      3.760002124
H       5.163512855      5.111372679      3.722493513
H       4.720098454      3.184706569      3.011996185
           6
  t=       161.50000    1    1
C       3.480958817      4.125138728      4.296156057
C       4.616985325      3.927950084      3.801477225
H       3.390758459      4.729428404      5.445299018
H       2.699448924      3.623578597      3.783024775
H       5.213775020      5.043626166      3.751624431
H       4.739412455      3.181315065      3.067275213
           6
  t=       162.00000    1    1
C       3.505579485      4.131782693      4.307737543
C       4.612588625      3.956789308      3.811707766
H       3.401676395      4.733135089      5.428372923
H       2.728794506      3.631263474      3.808412575
H       5.263579397      4.965378808      3.782823575
H       4.760036928      3.177039512      3.119384306
           6
  t=       162.50000    1    1
C       3.528629206      4.138946543      4.320951901
C       4.610172754      3.986375839      3.821140467
H       3.411794148      4.733989892      5.400774966
H       2.753271040      3.636109401      3.835764939
H       5.312977546      4.878776556      3.816255650
H       4.781852834      3.171710231      3.168017785
           6
  t=       163.00000    1    1
C       3.549642097      4.146721011      4.335990486
C       4.610179745      4.016317719      3.829506342
H       3.421097724      4.732512272      5.363530313
H       2.772627437      3.637666389      3.864810662
H       5.362898080      4.787023359      3.852046677
H       4.804480851      3.165643120      3.213220717
           6
  t=       163.50000    1    1
C       3.568217588      4.155130341      4.352940767
C       4.612879869      4.046140715      3.836551531
H       3.429453884      4.729597518      5.318521035
H       2.787194479      3.635772980      3.895330260
H       5.415317375      4.694069862      3.890319849
H       4.827299628      3.159515605      3.255189971
           6
  t=       164.00000    1    1
C       3.584078285      4.164110992      4.371734545
C       4.618365821      4.075374758      3.842057606
H       3.436513773      4.726805545      5.268908334
H       2.797639522      3.630551479      3.927117921
H       5.472899205      4.603832632      3.931366013
H       4.849527747      3.154087240      3.294094658
           6
  t=       164.50000    1    1
C       3.597119432      4.173485825      4.392096684
C       4.626638796      4.103674665      3.845872921
H       3.441618280      4.726622426      5.219399050
H       2.804735903      3.622385293      3.960030731
H       5.537583395      4.518893092      3.975594082
H       4.870345112      3.150130919      3.330047336
           6
  t=       165.00000    1    1
C       3.607421989      4.182936649      4.413515257
C       4.637744410      4.130860960      3.847966943
H       3.443746616      4.732849142      5.176372676
H       2.809280624      3.611828193      3.993995840
H       5.608883306      4.440079026      4.023207434
H       4.888953929      3.148394167      3.363001784
           6
  t=       165.50000    1    1
C       3.615261950      4.192028896      4.435296884
C       4.651774351      4.156858536      3.848485705
H       3.441549664      4.750298333      5.146982502
H       2.812009916      3.599576458      4.029012231
H       5.683685048      4.367330401      4.073763034
H       4.904699800      3.149501215      3.392770749
           6
  t=       166.00000    1    1
C       3.621009254      4.200360129      4.456818440
C       4.668813777      4.181598954      3.847693497
H       3.433678381      4.783152097      5.136658716
H       2.813482296      3.586410323      4.065167090
H       5.757851949      4.300807816      4.126234942
H       4.917087135      3.153939906      3.419138550
           6
  t=       166.50000    1    1
C       3.625005726      4.207792241      4.477809086
C       4.688876312      4.204961433      3.845893213
H       3.419727562      4.832431302      5.146258577
H       2.814173157      3.573070051      4.102541367
H       5.827599302      4.241318906      4.179487225
H       4.925595038      3.162226332      3.441920997
           6
  t=       167.00000    1    1
C       3.627530616      4.214559939      4.498395929
C       4.711821517      4.226793628      3.843420295
H       3.400813674      4.895069539      5.171487419
H       2.814824061      3.559950197      4.141242933
H       5.889981910      4.189811323      4.232714225
H       4.929656652      3.175103293      3.460598899
           6
  t=       167.50000    1    1
C       3.628842152      4.221116653      4.518883558
C       4.737315588      4.246991005      3.840645663
H       3.378953970      4.965584078      5.205690327
H       2.816409231      3.547242744      4.181317583
H       5.943121198      4.146866835      4.285298457
H       4.929059597      3.193122440      3.474349760
           6
  t=       168.00000    1    1
C       3.629210972      4.227898399      4.539504815
C       4.764905807      4.265535764      3.837936388
H       3.356032840      5.038312366      5.243161092
H       2.819652712      3.535466622      4.222631264
H       5.986245437      4.112835763      4.336434439
H       4.924136786      3.216093743      3.482670963
           6
  t=       168.50000    1    1
C       3.628943200      4.235224670      4.560353833
C       4.794094333      4.282495926      3.835636545
H       3.333482693      5.108688025      5.280076525
H       2.824791773      3.525334730      4.264842806
H       6.019210898      4.087890120      4.385161942
H       4.915646717      3.243081157      3.485465512
           6
  t=       169.00000    1    1
C       3.628355831      4.243320414      4.581435438
C       4.824397747      4.297990504      3.834077240
H       3.312314820      5.173508139      5.313946571
H       2.831814446      3.517377959      4.307614543
H       6.041951395      4.071947246      4.430536136
H       4.904639280      3.272740863      3.482503115
           6
  t=       169.50000    1    1
C       3.627748627      4.252340113      4.602703664
C       4.855376319      4.312189075      3.833560959
H       3.293258249      5.230577480      5.343165811
H       2.840516461      3.511883606      4.350666867
H       6.054481534      4.064671290      4.471648210
H       4.892242960      3.303455264      3.473521025
           6
  t=       170.00000    1    1
C       3.627383169      4.262391757      4.624096484
C       4.886677678      4.325255878      3.834347155
H       3.276850010      5.278327934      5.366779892
H       2.850567008      3.509034773      4.393699757
H       6.056753975      4.065799910      4.507580910
H       4.879380677      3.333627929      3.458338367
           6
  t=       170.50000    1    1
C       3.627470570      4.273552089      4.645560713
C       4.918027239      4.337327250      3.836622624
H       3.263405674      5.315743273      5.384314787
H       2.861583481      3.508824148      4.436425391
H       6.048944849      4.075039523      4.537618115
H       4.866699664      3.362036942      3.436841094
           6
  t=       171.00000    1    1
C       3.628189627      4.285866453      4.667041515
C       4.949187092      4.348490468      3.840510658
H       3.253115025      5.342258546      5.395643402
H       2.873203716      3.511125286      4.478544582
H       6.031511281      4.092061151      4.561257952
H       4.854619515      3.388122461      3.409141615
           6
  t=       171.50000    1    1
C       3.629703826      4.299350453      4.688469593
C       4.979914872      4.358773847      3.846083782
H       3.246104897      5.357689743      5.400888724
H       2.885131118      3.515745856      4.519740695
H       6.005236302      4.116487636      4.578198326
H       4.843466881      3.412114630      3.375697238
           6
  t=       172.00000    1    1
C       3.632166196      4.313991388      4.709756900
C       5.009931283      4.368157298      3.853357203
H       3.242449380      5.362202422      5.400383135
H       2.897127624      3.522448944      4.559693377
H       5.971402098      4.147836493      4.588429696
H       4.833628115      3.434958027      3.337373413
           6
  t=       172.50000    1    1
C       3.635709238      4.329753325      4.730806131
C       5.038898490      4.376602991      3.862263772
H       3.242160074      5.356260214      5.394611550
H       2.908991642      3.530954846      4.598136324
H       5.932073774      4.185413134      4.592498563
H       4.825674762      3.458042227      3.295364582
           6
  t=       173.00000    1    1
C       3.640429441      4.346572615      4.751523814
C       5.066421765      4.384089943      3.872629279
H       3.245159819      5.340625417      5.384182446
H       2.920558134      3.540984407      4.634923801
H       5.890238627      4.228251509      4.591767945
H       4.820415475      3.482858596      3.251034620
           6
  t=       173.50000    1    1
C       3.646394552      4.364336192      4.771812182
C       5.092054379      4.390620293      3.884180919
H       3.251237650      5.316492368      5.369898966
H       2.931730461      3.552370844      4.670016637
H       5.849758097      4.275283182      4.588501179
H       4.818812241      3.510769787      3.205771819
           6
  t=       174.00000    1    1
C       3.653662888      4.382855516      4.791543132
C       5.115257593      4.396225624      3.896516974
H       3.259987591      5.285751959      5.352937087
H       2.942507793      3.565054203      4.703455100
H       5.815788445      4.325448700      4.586423336
H       4.821840139      3.542874553      3.160948048
           6
  t=       174.50000    1    1
C       3.662305387      4.401835798      4.810532913
C       5.135453928      4.400950220      3.909142774
H       3.270658943      5.251332008      5.335061124
H       2.952994544      3.579047860      4.735325640
H       5.794198936      4.378050121      4.590434074
H       4.830311975      3.579914593      3.117896734
           6
  t=       175.00000    1    1
C       3.672435920      4.420840582      4.828525109
C       5.152182127      4.404817273      3.921619293
H       3.281847243      5.217661676      5.318880111
H       2.963397055      3.594397876      4.765663592
H       5.789804690      4.433148405      4.604891468
H       4.844750103      3.622278039      3.077902062
           6
  t=       175.50000    1    1
C       3.684211804      4.439296285      4.845208766
C       5.165306776      4.407858011      3.933747582
H       3.291311477      5.190835574      5.307890710
H       2.973994728      3.610978567      4.794387311
H       5.804143851      4.491271374      4.631241274
H       4.865316980      3.669930652      3.042179135
           6
  t=       176.00000    1    1
C       3.697815371      4.456615460      4.860281930
C       5.175063045      4.410156958      3.945683124
H       3.296404454      5.177265190      5.305718466
H       2.985067337      3.628500578      4.821281806
H       5.834741728      4.552713939      4.666845616
H       4.891879905      3.722448085      3.011700558
           6
  t=       176.50000    1    1
C       3.713371833      4.472368149      4.873547504
C       5.181903487      4.411878197      3.957798205
H       3.295071851      5.181562828      5.314920754
H       2.996870801      3.646647987      4.846057534
H       5.876848639      4.617010532      4.706672052
H       4.924102515      3.779167585      2.987143453
           6
  t=       177.00000    1    1
C       3.730826865      4.486451691      4.885018446
C       5.186338333      4.413242487      3.970491817
H       3.287197460      5.204541944      5.335765517
H       3.009625540      3.665085290      4.868386740
H       5.925400207      4.683042042      4.745509775
H       4.961512526      3.839323087      2.968869750
           6
  t=       177.50000    1    1
C       3.749892363      4.499120666      4.894933121
C       5.188875820      4.414499983      3.984075919
H       3.275125110      5.242900532      5.366071785
H       3.023475072      3.683422404      4.887975751
H       5.975885789      4.749332447      4.779150387
H       5.003510221      3.902068476      2.957005054
           6
  t=       178.00000    1    1
C       3.770153242      4.510825222      4.903638355
C       5.189975195      4.415894917      3.998753388
H       3.262556034      5.291070961      5.402450136
H       3.038397109      3.701314301      4.904614836
H       6.024814913      4.814462085      4.804784200
H       5.049380899      3.966462032      2.951408096
           6
  t=       178.50000    1    1
C       3.791225603      4.522003999      4.911450918
C       5.189997347      4.417637010      4.014658669
H       3.253004720      5.343608420      5.441661252
H       3.054283045      3.718533960      4.918190269
H       6.069795328      4.877278242      4.820813148
H       5.098385104      4.031602657      2.951653451
           6
  t=       179.00000    1    1
C       3.812818568      4.532992406      4.918606251
C       5.189218263      4.419904226      4.031876634
H       3.249135716      5.396223894      5.481195490
H       3.071027014      3.734994125      4.928670841
H       6.109209146      4.936891568      4.826589287
H       5.149759476      4.096638779      2.957113191
           6
  t=       179.50000    1    1
C       3.834736601      4.544015233      4.925258438
C       5.187850933      4.422855612      4.050460650
H       3.252766738      5.445818188      5.519252579
H       3.088558567      3.750746812      4.936113432
H       6.141858402      4.992561285      4.822069082
H       5.202746760      4.160784679      2.967102308
           6
  t=       180.00000    1    1
C       3.856863043      4.555212919      4.931498783
C       5.186058761      4.426631413      4.070434533
H       3.265056378      5.490202070      5.554563807
H       3.106795103      3.765933537      4.940650394
H       6.166839913      5.043678417      4.807621657
H       5.256617129      4.223352527      2.981016299
           6
  t=       180.50000    1    1
C       3.879143820      4.566663824      4.937375370
C       5.183971696      4.431343616      4.091778626
H       3.286585966      5.527926070      5.586316789
H       3.125597166      3.780739621      4.942447900
H       6.183546914      5.089834141      4.783991211
H       5.310631366      4.283747164      2.998418454
           6
  t=       181.00000    1    1
C       3.901552582      4.578404634      4.942920129
C       5.181711926      4.437082082      4.114418628
H       3.317517074      5.558078858      5.614023038
H       3.144794241      3.795371299      4.941673189
H       6.191627828      5.130790134      4.752212379
H       5.364008035      4.341404118      3.019100286
           6
  t=       181.50000    1    1
C       3.924066617      4.590448091      4.948166669
C       5.179410578      4.443922834      4.138226334
H       3.357736774      5.580097760      5.637401524
H       3.164218627      3.810046458      4.938480976
H       6.190913177      5.166433015      4.713528325
H       5.415905389      4.395723876      3.043072088
           6
  t=       182.00000    1    1
C       3.946653324      4.602795711      4.953160688
C       5.177212772      4.451933830      4.163029382
H       3.406962107      5.593623881      5.656284176
H       3.183733460      3.824991219      4.933016432
H       6.181361896      5.196737645      4.669322825
H       5.465443607      4.446036493      3.070482311
           6
  t=       182.50000    1    1
C       3.969265096      4.615442602      4.957965170
C       5.175273388      4.461170522      4.188619867
H       3.464757087      5.598462044      5.670596189
H       3.203233467      3.840439756      4.925430461
H       6.163080395      5.221798524      4.621102051
H       5.511779265      4.491606041      3.101475468
           6
  t=       183.00000    1    1
C       3.991837275      4.628377888      4.962661365
C       5.173754091      4.471667145      4.214762220
H       3.530501407      5.594618204      5.680351637
H       3.222645109      3.856614736      4.915918966
H       6.136393018      5.241892529      4.570583976
H       5.554125988      4.531648685      3.135962464
           6
  t=       183.50000    1    1
C       4.014279057      4.641582174      4.967347125
C       5.172827985      4.483435656      4.241198763
H       3.603424578      5.582326911      5.685697083
H       3.241936078      3.873723556      4.904700035
H       6.101796731      5.257479917      4.519595000
H       5.591808929      4.565350815      3.173656648
           6
  t=       184.00000    1    1
C       4.036465875      4.655014034      4.972134826
C       5.172666271      4.496446801      4.267641748
H       3.682576563      5.562229716      5.687011193
H       3.261070828      3.891916585      4.892025392
H       6.060240862      5.269451786      4.470165380
H       5.624308704      4.591871658      3.213987093
           6
  t=       184.50000    1    1
C       4.058251571      4.668593616      4.977128934
C       5.173430572      4.510624203      4.293781144
H       3.766746651      5.535567526      5.685079838
H       3.279941874      3.911256915      4.878210246
H       6.013219761      5.279201426      4.424404481
H       5.651264837      4.610375474      3.256192750
           6
  t=       185.00000    1    1
C       4.079482676      4.682189374      4.982395979
C       5.175265454      4.525846755      4.319303353
H       3.854413824      5.504346026      5.681296959
H       3.298369247      3.931701311      4.863669969
H       5.962763416      5.288604832      4.384398301
H       5.672454445      4.620034351      3.299322322
           6
  t=       185.50000    1    1
C       4.099994048      4.695609437      4.987948095
C       5.178281221      4.541941139      4.343903997
H       3.943835912      5.471397885      5.677761641
H       3.316159993      3.953103474      4.848925332
H       5.911607404      5.300174144      4.352174567
H       5.687730495      4.620001260      3.342210503
           6
  t=       186.00000    1    1
C       4.119596861      4.708592299      4.993738258
C       5.182549735      4.558665347      4.367312699
H       4.033147476      5.440438727      5.677375312
H       3.333138225      3.975282926      4.834570139
H       5.863171769      5.317006261      4.329259156
H       5.697107979      4.609643854      3.383618223
           6
  t=       186.50000    1    1
C       4.138011352      4.720826064      4.999720838
C       5.188223750      4.575783876      4.389241199
H       4.120674255      5.415702423      5.683731086
H       3.349025662      3.998085750      4.821156251
H       5.820800058      5.342321650      4.316692315
H       5.700709269      4.588184357      3.422338809
           6
  t=       187.00000    1    1
C       4.154918664      4.732079778      5.005912047
C       5.195523943      4.593086211      4.409466338
H       4.205588149      5.400311372      5.699934727
H       3.363186990      4.021504512      4.809000579
H       5.786419146      5.378859853      4.314390036
H       5.699240809      4.555028631      3.457499473
           6
  t=       187.50000    1    1
C       4.170053877      4.742297569      5.012406944
C       5.204664952      4.610488629      4.427875671
H       4.287976522      5.394957997      5.727183584
H       3.374901743      4.045595210      4.798312514
H       5.760209349      5.428002782      4.321639875
H       5.693754518      4.509709746      3.488613117
           6
  t=       188.00000    1    1
C       4.183214932      4.751612431      5.019417937
C       5.215880014      4.628052318      4.444396959
H       4.367763700      5.398273676      5.764328098
H       3.383790588      4.070163714      4.789434800
H       5.741526317      5.488899038      4.337765264
H       5.684978245      4.452328017      3.515492891
           6
  t=       188.50000    1    1
C       4.194333385      4.760293612      5.027237141
C       5.229359056      4.645902373      4.459000723
H       4.443955661      5.407631342      5.808538058
H       3.389915307      4.094889792      4.782794049
H       5.729407425      5.558607845      4.361755601
H       5.673359300      4.384072686      3.538423528
           6
  t=       189.00000    1    1
C       4.203462988      4.768649254      5.036195455
C       5.245266364      4.664206391      4.471648897
H       4.514974025      5.419935258      5.856427022
H       3.393275153      4.119505516      4.778645005
H       5.722449056      5.632955590      4.392152268
H       5.659282371      4.306812250      3.558506030
           6
  t=       189.50000    1    1
C       4.210775863      4.776951910      5.046534454
C       5.263664858      4.683090668      4.482327547
H       4.579017051      5.432557483      5.905021893
H       3.393879206      4.143752329      4.777266867
H       5.719409121      5.707797262      4.427523026
H       5.642981520      4.222825677      3.577154050
           6
  t=       190.00000    1    1
C       4.216570029      4.785406810      5.058332275
C       5.284421767      4.702588669      4.491111046
H       4.634705207      5.443683577      5.952125204
H       3.391902351      4.167350222      4.778859583
H       5.719349806      5.779374712      4.466293453
H       5.624630159      4.135121357      3.596122248
           6
  t=       190.50000    1    1
C       4.221195513      4.794169329      5.071572295
C       5.307284037      4.722652958      4.498115927
H       4.681025032      5.452006835      5.996150811
H       3.387729867      4.190084655      4.783500138
H       5.721587521      5.844425138      4.506812502
H       5.604384570      4.047197160      3.617380351
           6
  t=       191.00000    1    1
C       4.225038521      4.803359944      5.086170712
C       5.331896113      4.743170128      4.503510859
H       4.717193223      5.456570371      6.036051628
H       3.381872772      4.211870172      4.791228154
H       5.725652003      5.900807466      4.547682853
H       5.582622062      3.962152268      3.642321893
           6
  t=       191.50000    1    1
C       4.228487233      4.813057566      5.101989939
C       5.357822210      4.763996176      4.507516094
H       4.742734088      5.456841558      6.071268866
H       3.374865975      4.232654119      4.802078761
H       5.731398044      5.947213909      4.587702490
H       5.559995883      3.882655359      3.671687545
           6
  t=       192.00000    1    1
C       4.231913571      4.823320562      5.118872926
C       5.384605446      4.784961767      4.510377590
H       4.757330442      5.452573643      6.101501230
H       3.367220617      4.252391719      4.816078271
H       5.738864536      5.982905583      4.625832571
H       5.537285546      3.811059102      3.705731728
           6
  t=       192.50000    1    1
C       4.235650569      4.834187909      5.136668240
C       5.411797323      4.805891119      4.512350179
H       4.760878802      5.443706654      6.126604881
H       3.359310116      4.271096968      4.833194286
H       5.748179911      6.007481721      4.661104057
H       5.515468499      3.749440368      3.744367634
           6
  t=       193.00000    1    1
C       4.239986338      4.845678112      5.155237165
C       5.438965042      4.826616252      4.513684250
H       4.753431067      5.430365940      6.146477689
H       3.351419396      4.288840077      4.853376940
H       5.759603770      6.020765873      4.692703744
H       5.495672372      3.699561150      3.787229840
           6
  t=       193.50000    1    1
C       4.245149352      4.857779451      5.174442008
C       5.465698033      4.846972882      4.514620729
H       4.735284447      5.412923659      6.161194117
H       3.343826670      4.305780659      4.876533266
H       5.773530704      6.022899997      4.719982887
H       5.479096964      3.662844913      3.833755470
           6
  t=       194.00000    1    1
C       4.251291362      4.870436074      5.194128430
C       5.491620948      4.866804743      4.515382540
H       4.707092140      5.392080552      6.171168718
H       3.336892558      4.322192165      4.902518317
H       5.790465104      6.014408249      4.742523554
H       5.466888383      3.640320830      3.883275632
           6
  t=       194.50000    1    1
C       4.258481714      4.883547036      5.214116572
C       5.516404654      4.885965133      4.516158773
H       4.669881760      5.368897421      6.177250954
H       3.331092557      4.338420536      4.931139984
H       5.810999140      5.996181232      4.760229140
H       5.460046845      3.632642478      3.935119575
           6
  t=       195.00000    1    1
C       4.266713198      4.896981058      5.234201773
C       5.539768747      4.904307819      4.517093146
H       4.624997773      5.344748554      6.180775697
H       3.326995586      4.354796917      4.962146660
H       5.835808634      5.969486016      4.773367777
H       5.459410291      3.640144045      3.988662081
           6
  t=       195.50000    1    1
C       4.275911057      4.910590317      5.254142718
C       5.561482897      4.921675357      4.518281327
H       4.574068303      5.321316921      6.183762098
H       3.325235836      4.371532579      4.995195920
H       5.865662019      5.936206401      4.782647362
H       5.465583286      3.662684971      4.043254016
           6
  t=       196.00000    1    1
C       4.285955207      4.924211162      5.273636888
C       5.581364537      4.937876290      4.519764582
H       4.518870761      5.300664495      6.189311333
H       3.326449337      4.388668045      5.029826805
H       5.901485413      5.899240916      4.789293543
H       5.478832553      3.699495599      4.098142512
           6
  t=       196.50000    1    1
C       4.296736411      4.937675403      5.292330278
C       5.599242688      4.952663016      4.521532224
H       4.460904231      5.285096719      6.201514847
H       3.331198559      4.406140352      5.065489020
H       5.944482658      5.862474025      4.794989504
H       5.499231676      3.749403406      4.152448785
           6
  t=       197.00000    1    1
C       4.308200572      4.950840856      5.309903469
C       5.614950567      4.965814129      4.523569338
H       4.401155412      5.276624919      6.224165132
H       3.339866912      4.423826657      5.101519695
H       5.996035614      5.830129167      4.801649802
H       5.526660594      3.810628912      4.205112491
           6
  t=       197.50000    1    1
C       4.320352409      4.963651972      5.326232590
C       5.628338163      4.977278916      4.525924953
H       4.340152607      5.276325523      6.258881220
H       3.352472860      4.441446260      5.137032443
H       6.057461596      5.805456841      4.810836257
H       5.560986498      3.880392060      4.254730937
           6
  t=       198.00000    1    1
C       4.333217425      4.976153028      5.341475974
C       5.639351583      4.987322714      4.528749928
H       4.278270418      5.284081924      6.304067844
H       3.368650309      4.458457262      5.170965377
H       6.129441568      5.789476908      4.823160976
H       5.601858189      3.954642226      4.299664934
           6
  t=       198.50000    1    1
C       4.346793599      4.988449424      5.355996165
C       5.648109904      4.996613052      4.532302359
H       4.216182753      5.298937814      6.355655906
H       3.387827819      4.474123367      5.202289602
H       6.211169074      5.780446823      4.838076987
H       5.648584864      4.027604603      4.338164140
           6
  t=       199.00000    1    1
C       4.361033648      5.000666062      5.370201980
C       5.654889273      5.006196330      4.536934821
H       4.155133604      5.319666372      6.408844033
H       3.409387022      4.487690281      5.230120973
H       6.299965045      5.774892544      4.854211747
H       5.700492885      4.090777495      4.368214065
           6
  t=       199.50000    1    1
C       4.375869582      5.012919454      5.384417055
C       5.659983763      5.017257339      4.543027695
H       4.096755574      5.345143058      6.459476552
H       3.432784274      4.498493609      5.253792735
H       6.392024983      5.769315969      4.870030209
H       5.757603887      4.133942030      4.387783378
           6
  t=       200.00000    1    1
C       4.391232243      5.025302153      5.398848147
C       5.663625742      5.030616587      4.550850630
H       4.042674526      5.374463971      6.504453055
H       3.457617852      4.505973694      5.272952694
H       6.483458499      5.761206891      4.884427126
H       5.820639336      4.150192234      4.395753223
