6
Properties=species:S:1:pos:R:3:forces:R:3:charge:R:1 Nonphysical=T test=T input:=T planar=T ethene=T geometry=T in=T angstroms=T energy=-170.6494725257032 free_energy=-170.6494725257032 dipole="-2.045186192381154e-09 2.2325179484445862e-15 1.5428360549328534e-17" pbc="F F F"
C       -0.65867623      -0.00000000       0.00000000       0.05801771       0.00000000      -0.00000000      -0.07714792
C        0.65867623       0.00000000       0.00000000      -0.05801771      -0.00000000       0.00000000      -0.07714792
H       -1.22717751       0.91632134      -0.00000000      -0.00814080      -0.03391116       0.00000000       0.03857396
H       -1.22717751      -0.91632134      -0.00000000      -0.00814080       0.03391116       0.00000000       0.03857396
H        1.22717751       0.91632134      -0.00000000       0.00814080      -0.03391116       0.00000000       0.03857396
H        1.22717751      -0.91632134       0.00000000       0.00814080       0.03391116       0.00000000       0.03857396
