[Molden Format]
[N_Atoms]
                    6
[Atoms] (AU)
C1          1      6          -1.24471768      0.00000000      0.00000000
C2          2      6           1.24471768      0.00000000      0.00000000
H3          3      1          -2.31902940      1.73159638      0.00000000
H4          4      1          -2.31902940     -1.73159638      0.00000000
H5          5      1           2.31902940      1.73159638      0.00000000
H6          6      1           2.31902940     -1.73159638      0.00000000
[5D]
[7F]
[9G]
[Charge] (Mulliken)
 -0.12962561072339795     
 -0.12962561343178791     
   6.4812805611155100E-002
   6.4812805469775636E-002
   6.4812806536840517E-002
   6.4812806537266066E-002
[GTO] (AU)
   1
   s   9
  6.665000000E+03  6.920001793E-04
  1.000000000E+03  5.329001381E-03
  2.280000000E+02  2.707700701E-02
  6.471000000E+01  1.017180264E-01
  2.106000000E+01  2.747400712E-01
  7.495000000E+00  4.485641162E-01
  2.797000000E+00  2.850740738E-01
  5.215000000E-01  1.520400394E-02
  1.596000000E-01 -3.191000827E-03
   s   9
  6.665000000E+03 -1.460000642E-04
  1.000000000E+03 -1.154000508E-03
  2.280000000E+02 -5.725002519E-03
  6.471000000E+01 -2.331201026E-02
  2.106000000E+01 -6.395502813E-02
  7.495000000E+00 -1.499810660E-01
  2.797000000E+00 -1.272620560E-01
  5.215000000E-01  5.445292395E-01
  1.596000000E-01  5.804962554E-01
   s   1
  1.596000000E-01  1.000000000E+00
   p   4
  9.439000000E+00  3.810902127E-02
  2.002000000E+00  2.094801169E-01
  5.456000000E-01  5.085572839E-01
  1.517000000E-01  4.688422617E-01
   p   1
  1.517000000E-01  1.000000000E+00
   d   1
  5.500000000E-01  1.000000000E+00
 
   2
   s   9
  6.665000000E+03  6.920001793E-04
  1.000000000E+03  5.329001381E-03
  2.280000000E+02  2.707700701E-02
  6.471000000E+01  1.017180264E-01
  2.106000000E+01  2.747400712E-01
  7.495000000E+00  4.485641162E-01
  2.797000000E+00  2.850740738E-01
  5.215000000E-01  1.520400394E-02
  1.596000000E-01 -3.191000827E-03
   s   9
  6.665000000E+03 -1.460000642E-04
  1.000000000E+03 -1.154000508E-03
  2.280000000E+02 -5.725002519E-03
  6.471000000E+01 -2.331201026E-02
  2.106000000E+01 -6.395502813E-02
  7.495000000E+00 -1.499810660E-01
  2.797000000E+00 -1.272620560E-01
  5.215000000E-01  5.445292395E-01
  1.596000000E-01  5.804962554E-01
   s   1
  1.596000000E-01  1.000000000E+00
   p   4
  9.439000000E+00  3.810902127E-02
  2.002000000E+00  2.094801169E-01
  5.456000000E-01  5.085572839E-01
  1.517000000E-01  4.688422617E-01
   p   1
  1.517000000E-01  1.000000000E+00
   d   1
  5.500000000E-01  1.000000000E+00
 
   3
   s   4
  1.301000000E+01  1.968498999E-02
  1.962000000E+00  1.379769298E-01
  4.446000000E-01  4.781477569E-01
  1.220000000E-01  5.012397451E-01
   s   1
  1.220000000E-01  1.000000000E+00
   p   1
  7.270000000E-01  1.000000000E+00
 
   4
   s   4
  1.301000000E+01  1.968498999E-02
  1.962000000E+00  1.379769298E-01
  4.446000000E-01  4.781477569E-01
  1.220000000E-01  5.012397451E-01
   s   1
  1.220000000E-01  1.000000000E+00
   p   1
  7.270000000E-01  1.000000000E+00
 
   5
   s   4
  1.301000000E+01  1.968498999E-02
  1.962000000E+00  1.379769298E-01
  4.446000000E-01  4.781477569E-01
  1.220000000E-01  5.012397451E-01
   s   1
  1.220000000E-01  1.000000000E+00
   p   1
  7.270000000E-01  1.000000000E+00
 
   6
   s   4
  1.301000000E+01  1.968498999E-02
  1.962000000E+00  1.379769298E-01
  4.446000000E-01  4.781477569E-01
  1.220000000E-01  5.012397451E-01
   s   1
  1.220000000E-01  1.000000000E+00
   p   1
  7.270000000E-01  1.000000000E+00
 
[MO]
Sym=     1a  
Ene=   -11.2530
Spin= Alpha
Occup=    2.00000
   1         0.70774444
   2         0.00517396
   3        -0.00497425
   4         0.00016125
   5        -0.00000000
   6        -0.00000000
   7         0.00015922
   8        -0.00000000
   9         0.00000000
  10        -0.00033282
  11         0.00000000
  12        -0.00000000
  13         0.00014582
  14         0.00000000
  15         0.70774441
  16         0.00517396
  17        -0.00497425
  18        -0.00016125
  19        -0.00000000
  20        -0.00000000
  21        -0.00015922
  22         0.00000000
  23         0.00000000
  24        -0.00033282
  25        -0.00000000
  26         0.00000000
  27         0.00014582
  28        -0.00000000
  29        -0.00016329
  30         0.00114616
  31         0.00000906
  32         0.00020759
  33         0.00000000
  34        -0.00016329
  35         0.00114616
  36         0.00000906
  37        -0.00020759
  38         0.00000000
  39        -0.00016329
  40         0.00114616
  41        -0.00000906
  42         0.00020759
  43        -0.00000000
  44        -0.00016329
  45         0.00114616
  46        -0.00000906
  47        -0.00020759
  48         0.00000000
Sym=     2a  
Ene=   -11.2510
Spin= Alpha
Occup=    2.00000
   1        -0.70848071
   2        -0.00687824
   3         0.00767098
   4        -0.00081268
   5         0.00000000
   6         0.00000000
   7         0.00122514
   8        -0.00000000
   9        -0.00000000
  10         0.00086571
  11         0.00000000
  12         0.00000000
  13        -0.00023673
  14        -0.00000000
  15         0.70848075
  16         0.00687824
  17        -0.00767098
  18        -0.00081268
  19        -0.00000000
  20        -0.00000000
  21         0.00122514
  22         0.00000000
  23        -0.00000000
  24        -0.00086571
  25         0.00000000
  26        -0.00000000
  27         0.00023673
  28        -0.00000000
  29         0.00056356
  30        -0.00098432
  31         0.00022733
  32        -0.00040391
  33         0.00000000
  34         0.00056356
  35        -0.00098432
  36         0.00022733
  37         0.00040391
  38        -0.00000000
  39        -0.00056356
  40         0.00098432
  41         0.00022733
  42         0.00040391
  43         0.00000000
  44        -0.00056356
  45         0.00098432
  46         0.00022733
  47        -0.00040391
  48        -0.00000000
Sym=     3a  
Ene=    -1.0553
Spin= Alpha
Occup=    2.00000
   1        -0.02161104
   2         0.61380439
   3        -0.17382669
   4         0.20697891
   5         0.00000000
   6        -0.00000000
   7        -0.07107248
   8         0.00000000
   9        -0.00000000
  10        -0.01208306
  11        -0.00000000
  12         0.00000000
  13         0.01922007
  14        -0.00000000
  15        -0.02161104
  16         0.61380439
  17        -0.17382669
  18        -0.20697891
  19         0.00000000
  20        -0.00000000
  21         0.07107248
  22        -0.00000000
  23         0.00000000
  24        -0.01208306
  25        -0.00000000
  26         0.00000000
  27         0.01922007
  28        -0.00000000
  29         0.18115431
  30        -0.08505876
  31         0.01171525
  32        -0.01353325
  33        -0.00000000
  34         0.18115431
  35        -0.08505876
  36         0.01171525
  37         0.01353325
  38        -0.00000000
  39         0.18115431
  40        -0.08505876
  41        -0.01171525
  42        -0.01353325
  43         0.00000000
  44         0.18115431
  45        -0.08505876
  46        -0.01171525
  47         0.01353325
  48         0.00000000
Sym=     4a  
Ene=    -0.8008
Spin= Alpha
Occup=    2.00000
   1         0.01513786
   2        -0.47469188
   3         0.08845537
   4         0.23845107
   5        -0.00000000
   6         0.00000000
   7        -0.05344032
   8        -0.00000000
   9         0.00000000
  10        -0.00324807
  11         0.00000000
  12         0.00000000
  13         0.01501922
  14         0.00000000
  15        -0.01513786
  16         0.47469188
  17        -0.08845537
  18         0.23845107
  19        -0.00000000
  20         0.00000000
  21        -0.05344032
  22         0.00000000
  23        -0.00000000
  24         0.00324807
  25         0.00000000
  26        -0.00000000
  27        -0.01501922
  28         0.00000000
  29        -0.33192296
  30         0.13120227
  31        -0.00951189
  32         0.02066969
  33        -0.00000000
  34        -0.33192296
  35         0.13120227
  36        -0.00951189
  37        -0.02066969
  38         0.00000000
  39         0.33192296
  40        -0.13120227
  41        -0.00951189
  42        -0.02066969
  43        -0.00000000
  44         0.33192296
  45        -0.13120227
  46        -0.00951189
  47         0.02066969
  48        -0.00000000
Sym=     5a  
Ene=    -0.6569
Spin= Alpha
Occup=    2.00000
   1         0.00000000
   2        -0.00000000
   3        -0.00000000
   4         0.00000000
   5         0.47748723
   6         0.00000000
   7        -0.00000000
   8        -0.10364235
   9        -0.00000000
  10         0.00000000
  11        -0.00000000
  12        -0.00000000
  13         0.00000000
  14         0.00478122
  15        -0.00000000
  16         0.00000000
  17         0.00000000
  18        -0.00000000
  19         0.47748723
  20         0.00000000
  21        -0.00000000
  22        -0.10364235
  23         0.00000000
  24         0.00000000
  25        -0.00000000
  26        -0.00000000
  27         0.00000000
  28        -0.00478122
  29         0.35017771
  30        -0.12331502
  31         0.01183507
  32        -0.01097852
  33         0.00000000
  34        -0.35017771
  35         0.12331502
  36        -0.01183507
  37        -0.01097852
  38        -0.00000000
  39         0.35017771
  40        -0.12331502
  41        -0.01183507
  42        -0.01097852
  43         0.00000000
  44        -0.35017771
  45         0.12331502
  46         0.01183507
  47        -0.01097852
  48         0.00000000
Sym=     6a  
Ene=    -0.6051
Spin= Alpha
Occup=    2.00000
   1        -0.00409070
   2        -0.03681535
   3         0.04646775
   4        -0.60708571
   5         0.00000000
   6        -0.00000000
   7         0.14987172
   8         0.00000000
   9         0.00000000
  10         0.00230842
  11        -0.00000000
  12        -0.00000000
  13        -0.02717668
  14        -0.00000000
  15        -0.00409070
  16        -0.03681535
  17         0.04646775
  18         0.60708571
  19         0.00000000
  20        -0.00000000
  21        -0.14987172
  22        -0.00000000
  23         0.00000000
  24         0.00230842
  25        -0.00000000
  26         0.00000000
  27        -0.02717668
  28        -0.00000000
  29         0.28866916
  30        -0.08229464
  31        -0.00216385
  32        -0.01361197
  33         0.00000000
  34         0.28866916
  35        -0.08229464
  36        -0.00216385
  37         0.01361197
  38        -0.00000000
  39         0.28866916
  40        -0.08229464
  41         0.00216385
  42        -0.01361197
  43        -0.00000000
  44         0.28866916
  45        -0.08229464
  46         0.00216385
  47         0.01361197
  48         0.00000000
Sym=     7a  
Ene=    -0.5100
Spin= Alpha
Occup=    2.00000
   1        -0.00000000
   2        -0.00000000
   3        -0.00000000
   4         0.00000000
   5        -0.45477703
   6        -0.00000000
   7         0.00000000
   8         0.08555078
   9         0.00000000
  10         0.00000000
  11         0.00000000
  12         0.00000000
  13        -0.00000000
  14         0.03698564
  15        -0.00000000
  16        -0.00000000
  17         0.00000000
  18        -0.00000000
  19         0.45477703
  20        -0.00000000
  21        -0.00000000
  22        -0.08555078
  23         0.00000000
  24         0.00000000
  25         0.00000000
  26        -0.00000000
  27         0.00000000
  28         0.03698564
  29        -0.42928570
  30         0.09381967
  31        -0.01312668
  32         0.00675860
  33         0.00000000
  34         0.42928570
  35        -0.09381967
  36         0.01312668
  37         0.00675860
  38         0.00000000
  39         0.42928570
  40        -0.09381967
  41        -0.01312668
  42        -0.00675860
  43         0.00000000
  44        -0.42928570
  45         0.09381967
  46         0.01312668
  47        -0.00675860
  48        -0.00000000
Sym=     8a  
Ene=    -0.1529
Spin= Alpha
Occup=    1.00000
   1        -0.00000000
   2        -0.00000000
   3         0.00000000
   4        -0.00000000
   5        -0.00000000
   6         0.77796946
   7        -0.00000000
   8        -0.00000000
   9         0.28151395
  10        -0.00000000
  11         0.02588745
  12        -0.00000000
  13        -0.00000000
  14         0.00000000
  15        -0.00000000
  16        -0.00000000
  17         0.00000000
  18        -0.00000000
  19        -0.00000000
  20         0.13346045
  21        -0.00000000
  22         0.00000000
  23        -0.21055412
  24        -0.00000000
  25        -0.04436048
  26        -0.00000000
  27        -0.00000000
  28         0.00000000
  29        -0.00000000
  30         0.00000000
  31         0.00000000
  32        -0.00000000
  33         0.02116547
  34        -0.00000000
  35        -0.00000000
  36         0.00000000
  37         0.00000000
  38         0.02116547
  39         0.00000000
  40        -0.00000000
  41         0.00000000
  42        -0.00000000
  43        -0.00023343
  44        -0.00000000
  45        -0.00000000
  46         0.00000000
  47         0.00000000
  48        -0.00023343
Sym=     9a  
Ene=    -0.0545
Spin= Alpha
Occup=    1.00000
   1        -0.00000000
   2        -0.00000000
   3        -0.00000000
   4        -0.00000000
   5        -0.00000000
   6        -0.16868733
   7        -0.00000000
   8         0.00000000
   9        -0.33999240
  10         0.00000000
  11         0.03740673
  12         0.00000000
  13        -0.00000000
  14        -0.00000000
  15        -0.00000000
  16         0.00000000
  17         0.00000000
  18         0.00000000
  19         0.00000000
  20         0.78478036
  21        -0.00000000
  22        -0.00000000
  23         0.38795863
  24        -0.00000000
  25        -0.01007828
  26        -0.00000000
  27        -0.00000000
  28        -0.00000000
  29         0.00000000
  30        -0.00000000
  31         0.00000000
  32        -0.00000000
  33        -0.00875381
  34         0.00000000
  35        -0.00000000
  36         0.00000000
  37         0.00000000
  38        -0.00875381
  39        -0.00000000
  40         0.00000000
  41         0.00000000
  42         0.00000000
  43         0.02290310
  44        -0.00000000
  45         0.00000000
  46         0.00000000
  47        -0.00000000
  48         0.02290310
Sym=    10a  
Ene=     0.2014
Spin= Alpha
Occup=    0.00000
   1         0.04490198
   2        -0.11681542
   3        -1.34036657
   4         0.19637335
   5        -0.00000000
   6        -0.00000000
   7         0.45227027
   8        -0.00000000
   9         0.00000000
  10         0.01417666
  11        -0.00000000
  12         0.00000000
  13         0.00450461
  14        -0.00000000
  15         0.04490198
  16        -0.11681542
  17        -1.34036657
  18        -0.19637335
  19        -0.00000000
  20        -0.00000000
  21        -0.45227027
  22        -0.00000000
  23         0.00000000
  24         0.01417666
  25         0.00000000
  26        -0.00000000
  27         0.00450461
  28        -0.00000000
  29         0.01584717
  30         0.93324954
  31         0.00998080
  32        -0.01031660
  33        -0.00000000
  34         0.01584717
  35         0.93324954
  36         0.00998080
  37         0.01031660
  38        -0.00000000
  39         0.01584717
  40         0.93324954
  41        -0.00998080
  42        -0.01031660
  43         0.00000000
  44         0.01584717
  45         0.93324954
  46        -0.00998080
  47         0.01031660
  48         0.00000000
Sym=    11a  
Ene=     0.2263
Spin= Alpha
Occup=    0.00000
   1         0.00000000
   2        -0.00000000
   3        -0.00000000
   4         0.00000000
   5         0.33408533
   6        -0.00000000
   7         0.00000000
   8         0.60835995
   9         0.00000000
  10         0.00000000
  11        -0.00000000
  12         0.00000000
  13        -0.00000000
  14         0.00840025
  15        -0.00000000
  16         0.00000000
  17         0.00000000
  18        -0.00000000
  19         0.33408533
  20        -0.00000000
  21         0.00000000
  22         0.60835995
  23         0.00000000
  24        -0.00000000
  25         0.00000000
  26         0.00000000
  27        -0.00000000
  28        -0.00840025
  29        -0.05919642
  30        -1.15079091
  31        -0.00744264
  32         0.01003319
  33        -0.00000000
  34         0.05919642
  35         1.15079091
  36         0.00744264
  37         0.01003319
  38         0.00000000
  39        -0.05919642
  40        -1.15079091
  41         0.00744264
  42         0.01003319
  43         0.00000000
  44         0.05919642
  45         1.15079091
  46        -0.00744264
  47         0.01003319
  48         0.00000000
Sym=    12a  
Ene=     0.2379
Spin= Alpha
Occup=    0.00000
   1         0.04957487
   2        -0.17190766
   3        -1.45606371
   4         0.11401377
   5        -0.00000000
   6        -0.00000000
   7         0.30239007
   8        -0.00000000
   9        -0.00000000
  10         0.01977611
  11        -0.00000000
  12         0.00000000
  13         0.01573092
  14         0.00000000
  15        -0.04957487
  16         0.17190766
  17         1.45606371
  18         0.11401377
  19        -0.00000000
  20         0.00000000
  21         0.30239007
  22        -0.00000000
  23         0.00000000
  24        -0.01977611
  25        -0.00000000
  26        -0.00000000
  27        -0.01573092
  28         0.00000000
  29         0.03215210
  30         1.07838858
  31         0.00555712
  32        -0.01844793
  33        -0.00000000
  34         0.03215210
  35         1.07838858
  36         0.00555712
  37         0.01844793
  38         0.00000000
  39        -0.03215210
  40        -1.07838858
  41         0.00555712
  42         0.01844793
  43         0.00000000
  44        -0.03215210
  45        -1.07838858
  46         0.00555712
  47        -0.01844793
  48         0.00000000
Sym=    13a  
Ene=     0.3015
Spin= Alpha
Occup=    0.00000
   1        -0.00000000
   2        -0.00000000
   3         0.00000000
   4        -0.00000000
   5        -0.29576446
   6        -0.00000000
   7        -0.00000000
   8        -1.52044000
   9         0.00000000
  10        -0.00000000
  11         0.00000000
  12         0.00000000
  13         0.00000000
  14         0.02854389
  15         0.00000000
  16        -0.00000000
  17        -0.00000000
  18         0.00000000
  19         0.29576446
  20         0.00000000
  21        -0.00000000
  22         1.52044000
  23        -0.00000000
  24         0.00000000
  25         0.00000000
  26        -0.00000000
  27        -0.00000000
  28         0.02854389
  29        -0.02891558
  30         1.70944244
  31         0.01681296
  32        -0.01408899
  33        -0.00000000
  34         0.02891558
  35        -1.70944244
  36        -0.01681296
  37        -0.01408899
  38         0.00000000
  39         0.02891558
  40        -1.70944244
  41         0.01681296
  42         0.01408899
  43        -0.00000000
  44        -0.02891558
  45         1.70944244
  46        -0.01681296
  47         0.01408899
  48        -0.00000000
Sym=    14a  
Ene=     0.4655
Spin= Alpha
Occup=    0.00000
   1        -0.06770115
   2        -0.02453101
   3         3.81362670
   4         0.23345066
   5         0.00000000
   6         0.00000000
   7         3.32982066
   8        -0.00000000
   9        -0.00000000
  10        -0.05184045
  11         0.00000000
  12        -0.00000000
  13         0.01711350
  14         0.00000000
  15         0.06770115
  16         0.02453101
  17        -3.81362670
  18         0.23345066
  19         0.00000000
  20        -0.00000000
  21         3.32982066
  22        -0.00000000
  23         0.00000000
  24         0.05184045
  25         0.00000000
  26        -0.00000000
  27        -0.01711350
  28         0.00000000
  29         0.17076239
  30         0.64826749
  31        -0.00397871
  32         0.01882436
  33        -0.00000000
  34         0.17076239
  35         0.64826749
  36        -0.00397871
  37        -0.01882436
  38        -0.00000000
  39        -0.17076239
  40        -0.64826749
  41        -0.00397871
  42        -0.01882436
  43         0.00000000
  44        -0.17076239
  45        -0.64826749
  46        -0.00397871
  47         0.01882436
  48        -0.00000000
Sym=    15a  
Ene=     0.5670
Spin= Alpha
Occup=    0.00000
   1        -0.09652519
   2        -0.40802798
   3        -0.11909121
   4        -0.62885720
   5        -0.00000000
   6         0.00000000
   7         1.33052628
   8         0.00000000
   9        -0.00000000
  10         0.00110633
  11         0.00000000
  12        -0.00000000
  13        -0.05884478
  14         0.00000000
  15        -0.09652519
  16        -0.40802798
  17        -0.11909121
  18         0.62885720
  19        -0.00000000
  20         0.00000000
  21        -1.33052628
  22         0.00000000
  23         0.00000000
  24         0.00110633
  25         0.00000000
  26         0.00000000
  27        -0.05884478
  28        -0.00000000
  29         0.35155531
  30        -0.13343024
  31         0.03155283
  32         0.00346410
  33         0.00000000
  34         0.35155531
  35        -0.13343024
  36         0.03155283
  37        -0.00346410
  38         0.00000000
  39         0.35155531
  40        -0.13343024
  41        -0.03155283
  42         0.00346410
  43        -0.00000000
  44         0.35155531
  45        -0.13343024
  46        -0.03155283
  47        -0.00346410
  48        -0.00000000
Sym=    16a  
Ene=     0.6030
Spin= Alpha
Occup=    0.00000
   1        -0.00000000
   2         0.00000000
   3         0.00000000
   4         0.00000000
   5        -0.09636770
   6         0.00000000
   7        -0.00000000
   8         0.44089309
   9        -0.00000000
  10         0.00000000
  11        -0.00000000
  12        -0.00000000
  13         0.00000000
  14         0.15317012
  15         0.00000000
  16        -0.00000000
  17         0.00000000
  18        -0.00000000
  19        -0.09636770
  20         0.00000000
  21         0.00000000
  22         0.44089309
  23        -0.00000000
  24        -0.00000000
  25        -0.00000000
  26         0.00000000
  27         0.00000000
  28        -0.15317012
  29        -0.87790665
  30         0.66861397
  31         0.06730111
  32        -0.01705955
  33         0.00000000
  34         0.87790665
  35        -0.66861397
  36        -0.06730111
  37        -0.01705955
  38        -0.00000000
  39        -0.87790665
  40         0.66861397
  41        -0.06730111
  42        -0.01705955
  43         0.00000000
  44         0.87790665
  45        -0.66861397
  46         0.06730111
  47        -0.01705955
  48         0.00000000
Sym=    17a  
Ene=     0.6800
Spin= Alpha
Occup=    0.00000
   1         0.00000000
   2         0.00000000
   3        -0.00000000
   4         0.00000000
   5        -0.00000000
   6        -1.00825299
   7        -0.00000000
   8         0.00000000
   9         1.08403354
  10        -0.00000000
  11        -0.11332730
  12        -0.00000000
  13        -0.00000000
  14         0.00000000
  15         0.00000000
  16         0.00000000
  17         0.00000000
  18         0.00000000
  19         0.00000000
  20        -1.00825299
  21        -0.00000000
  22        -0.00000000
  23         1.08403354
  24        -0.00000000
  25         0.11332730
  26        -0.00000000
  27        -0.00000000
  28         0.00000000
  29        -0.00000000
  30        -0.00000000
  31         0.00000000
  32         0.00000000
  33        -0.02232400
  34         0.00000000
  35        -0.00000000
  36         0.00000000
  37        -0.00000000
  38        -0.02232400
  39        -0.00000000
  40         0.00000000
  41        -0.00000000
  42         0.00000000
  43        -0.02232400
  44         0.00000000
  45        -0.00000000
  46         0.00000000
  47        -0.00000000
  48        -0.02232400
Sym=    18a  
Ene=     0.7066
Spin= Alpha
Occup=    0.00000
   1         0.18326432
   2         0.63896639
   3        -0.93421266
   4         0.35189004
   5        -0.00000000
   6        -0.00000000
   7        -0.17365905
   8         0.00000000
   9         0.00000000
  10        -0.19846077
  11         0.00000000
  12         0.00000000
  13        -0.08032733
  14         0.00000000
  15         0.18326432
  16         0.63896639
  17        -0.93421266
  18        -0.35189004
  19         0.00000000
  20         0.00000000
  21         0.17365905
  22         0.00000000
  23        -0.00000000
  24        -0.19846077
  25         0.00000000
  26         0.00000000
  27        -0.08032733
  28        -0.00000000
  29         0.83761466
  30        -0.54312965
  31        -0.02255903
  32         0.08742698
  33         0.00000000
  34         0.83761466
  35        -0.54312965
  36        -0.02255903
  37        -0.08742698
  38         0.00000000
  39         0.83761466
  40        -0.54312965
  41         0.02255903
  42         0.08742698
  43         0.00000000
  44         0.83761466
  45        -0.54312965
  46         0.02255903
  47        -0.08742698
  48         0.00000000
Sym=    19a  
Ene=     0.7727
Spin= Alpha
Occup=    0.00000
   1        -0.00423335
   2         0.40398107
   3         0.34148805
   4         0.25347296
   5         0.00000000
   6        -0.00000000
   7         0.17839735
   8        -0.00000000
   9         0.00000000
  10         0.21906380
  11         0.00000000
  12         0.00000000
  13         0.00063715
  14         0.00000000
  15         0.00423335
  16        -0.40398107
  17        -0.34148805
  18         0.25347296
  19        -0.00000000
  20         0.00000000
  21         0.17839734
  22         0.00000000
  23        -0.00000000
  24        -0.21906379
  25         0.00000000
  26        -0.00000000
  27        -0.00063715
  28         0.00000000
  29        -0.90798986
  30         0.87664879
  31         0.05967437
  32        -0.09349897
  33        -0.00000000
  34        -0.90798986
  35         0.87664879
  36         0.05967437
  37         0.09349897
  38        -0.00000000
  39         0.90798986
  40        -0.87664879
  41         0.05967437
  42         0.09349897
  43         0.00000000
  44         0.90798986
  45        -0.87664879
  46         0.05967437
  47        -0.09349897
  48        -0.00000000
Sym=    20a  
Ene=     0.7904
Spin= Alpha
Occup=    0.00000
   1         0.00000000
   2         0.00000000
   3        -0.00000000
   4         0.00000000
   5        -0.00000000
   6         1.11915198
   7        -0.00000000
   8        -0.00000000
   9        -1.69780332
  10         0.00000000
  11        -0.08567494
  12         0.00000000
  13        -0.00000000
  14        -0.00000000
  15         0.00000000
  16         0.00000000
  17        -0.00000000
  18         0.00000000
  19        -0.00000000
  20        -1.11915198
  21        -0.00000000
  22         0.00000000
  23         1.69780332
  24        -0.00000000
  25        -0.08567494
  26        -0.00000000
  27        -0.00000000
  28         0.00000000
  29        -0.00000000
  30         0.00000000
  31         0.00000000
  32        -0.00000000
  33         0.03229876
  34        -0.00000000
  35         0.00000000
  36        -0.00000000
  37         0.00000000
  38         0.03229876
  39         0.00000000
  40        -0.00000000
  41         0.00000000
  42         0.00000000
  43        -0.03229876
  44         0.00000000
  45         0.00000000
  46        -0.00000000
  47        -0.00000000
  48        -0.03229876
Sym=    21a  
Ene=     0.8429
Spin= Alpha
Occup=    0.00000
   1        -0.00000000
   2        -0.00000000
   3         0.00000000
   4         0.00000000
   5        -0.87475353
   6        -0.00000000
   7        -0.00000000
   8         1.80147867
   9         0.00000000
  10         0.00000000
  11        -0.00000000
  12         0.00000000
  13        -0.00000000
  14        -0.24163925
  15        -0.00000000
  16        -0.00000000
  17         0.00000000
  18        -0.00000000
  19        -0.87475353
  20         0.00000000
  21         0.00000000
  22         1.80147867
  23        -0.00000000
  24        -0.00000000
  25         0.00000000
  26        -0.00000000
  27        -0.00000000
  28         0.24163925
  29         0.01259647
  30        -1.12242543
  31        -0.06914322
  32         0.13935330
  33         0.00000000
  34        -0.01259647
  35         1.12242543
  36         0.06914322
  37         0.13935330
  38        -0.00000000
  39         0.01259647
  40        -1.12242543
  41         0.06914322
  42         0.13935330
  43         0.00000000
  44        -0.01259647
  45         1.12242543
  46        -0.06914322
  47         0.13935330
  48         0.00000000
Sym=    22a  
Ene=     0.9267
Spin= Alpha
Occup=    0.00000
   1         0.00000000
   2         0.00000000
   3        -0.00000000
   4        -0.00000000
   5         1.03288459
   6        -0.00000000
   7         0.00000000
   8        -2.63644709
   9         0.00000000
  10        -0.00000000
  11         0.00000000
  12         0.00000000
  13         0.00000000
  14         0.12816638
  15        -0.00000000
  16         0.00000000
  17         0.00000000
  18        -0.00000000
  19        -1.03288459
  20         0.00000000
  21        -0.00000000
  22         2.63644709
  23        -0.00000000
  24         0.00000000
  25        -0.00000000
  26         0.00000000
  27         0.00000000
  28         0.12816638
  29        -0.19864184
  30         1.39610083
  31         0.13472223
  32        -0.12101308
  33         0.00000000
  34         0.19864184
  35        -1.39610083
  36        -0.13472223
  37        -0.12101308
  38        -0.00000000
  39         0.19864184
  40        -1.39610083
  41         0.13472223
  42         0.12101308
  43         0.00000000
  44        -0.19864184
  45         1.39610083
  46        -0.13472223
  47         0.12101308
  48        -0.00000000
Sym=    23a  
Ene=     0.9725
Spin= Alpha
Occup=    0.00000
   1         0.13276466
   2         0.52063654
   3         0.28566705
   4        -0.98677430
   5        -0.00000000
   6         0.00000000
   7         2.56370815
   8         0.00000000
   9        -0.00000000
  10        -0.04395658
  11         0.00000000
  12        -0.00000000
  13         0.29467933
  14        -0.00000000
  15        -0.13276466
  16        -0.52063654
  17        -0.28566704
  18        -0.98677430
  19         0.00000000
  20        -0.00000000
  21         2.56370815
  22        -0.00000000
  23         0.00000000
  24         0.04395658
  25        -0.00000000
  26         0.00000000
  27        -0.29467933
  28        -0.00000000
  29        -0.12620303
  30         1.00037640
  31        -0.00007399
  32        -0.13762775
  33        -0.00000000
  34        -0.12620303
  35         1.00037640
  36        -0.00007399
  37         0.13762775
  38         0.00000000
  39         0.12620303
  40        -1.00037640
  41        -0.00007399
  42         0.13762775
  43         0.00000000
  44         0.12620303
  45        -1.00037640
  46        -0.00007399
  47        -0.13762775
  48        -0.00000000
Sym=    24a  
Ene=     1.0050
Spin= Alpha
Occup=    0.00000
   1         0.48190140
   2         2.23375119
   3        -3.58921321
   4        -0.35549482
   5        -0.00000000
   6        -0.00000000
   7         0.84943837
   8         0.00000000
   9         0.00000000
  10         0.00591886
  11        -0.00000000
  12        -0.00000000
  13         0.14733692
  14        -0.00000000
  15         0.48190140
  16         2.23375119
  17        -3.58921321
  18         0.35549482
  19         0.00000000
  20         0.00000000
  21        -0.84943837
  22        -0.00000000
  23        -0.00000000
  24         0.00591886
  25         0.00000000
  26        -0.00000000
  27         0.14733692
  28         0.00000000
  29        -0.05300610
  30         0.86310974
  31         0.05529112
  32        -0.15158293
  33         0.00000000
  34        -0.05300610
  35         0.86310974
  36         0.05529112
  37         0.15158293
  38         0.00000000
  39        -0.05300610
  40         0.86310974
  41        -0.05529112
  42        -0.15158293
  43         0.00000000
  44        -0.05300610
  45         0.86310974
  46        -0.05529112
  47         0.15158293
  48        -0.00000000
Sym=    25a  
Ene=     1.1207
Spin= Alpha
Occup=    0.00000
   1         0.00000000
   2         0.00000000
   3        -0.00000000
   4        -0.00000000
   5        -0.00000000
   6         0.00000000
   7        -0.00000000
   8        -0.00000000
   9         0.00000000
  10        -0.00000000
  11        -0.00000000
  12         0.48670016
  13        -0.00000000
  14        -0.00000000
  15        -0.00000000
  16        -0.00000000
  17         0.00000000
  18         0.00000000
  19         0.00000000
  20         0.00000000
  21        -0.00000000
  22         0.00000000
  23        -0.00000000
  24         0.00000000
  25         0.00000000
  26         0.48670016
  27         0.00000000
  28        -0.00000000
  29         0.00000000
  30         0.00000000
  31        -0.00000000
  32         0.00000000
  33         0.19066946
  34        -0.00000000
  35         0.00000000
  36         0.00000000
  37        -0.00000000
  38        -0.19066946
  39        -0.00000000
  40         0.00000000
  41        -0.00000000
  42        -0.00000000
  43         0.19066946
  44         0.00000000
  45         0.00000000
  46         0.00000000
  47         0.00000000
  48        -0.19066946
Sym=    26a  
Ene=     1.2232
Spin= Alpha
Occup=    0.00000
   1         0.62616601
   2         2.71586986
   3        -7.87138896
   4         0.13249800
   5        -0.00000000
   6         0.00000000
   7        -2.31195186
   8        -0.00000000
   9        -0.00000000
  10         0.05020781
  11        -0.00000000
  12         0.00000000
  13        -0.25819548
  14        -0.00000000
  15        -0.62616601
  16        -2.71586986
  17         7.87138896
  18         0.13249800
  19        -0.00000000
  20         0.00000000
  21        -2.31195186
  22         0.00000000
  23        -0.00000000
  24        -0.05020781
  25         0.00000000
  26        -0.00000000
  27         0.25819548
  28        -0.00000000
  29         0.41760844
  30         0.04777858
  31         0.08729438
  32        -0.09108382
  33         0.00000000
  34         0.41760844
  35         0.04777858
  36         0.08729438
  37         0.09108382
  38         0.00000000
  39        -0.41760844
  40        -0.04777858
  41         0.08729438
  42         0.09108382
  43         0.00000000
  44        -0.41760844
  45        -0.04777858
  46         0.08729438
  47        -0.09108382
  48         0.00000000
Sym=    27a  
Ene=     1.2408
Spin= Alpha
Occup=    0.00000
   1         0.00000000
   2         0.00000000
   3        -0.00000000
   4        -0.00000000
   5        -0.23937413
   6         0.00000000
   7        -0.00000000
   8         3.13578294
   9        -0.00000000
  10        -0.00000000
  11        -0.00000000
  12         0.00000000
  13        -0.00000000
  14         0.26608488
  15        -0.00000000
  16        -0.00000000
  17         0.00000000
  18        -0.00000000
  19         0.23937412
  20         0.00000000
  21        -0.00000000
  22        -3.13578294
  23        -0.00000000
  24         0.00000000
  25         0.00000000
  26         0.00000000
  27         0.00000000
  28         0.26608488
  29        -1.11993143
  30        -0.35670846
  31         0.14451621
  32         0.02220137
  33         0.00000000
  34         1.11993143
  35         0.35670846
  36        -0.14451621
  37         0.02220137
  38         0.00000000
  39         1.11993143
  40         0.35670846
  41         0.14451621
  42        -0.02220137
  43         0.00000000
  44        -1.11993143
  45        -0.35670846
  46        -0.14451621
  47        -0.02220137
  48         0.00000000
Sym=    28a  
Ene=     1.2436
Spin= Alpha
Occup=    0.00000
   1        -0.00000000
   2        -0.00000000
   3         0.00000000
   4        -0.00000000
   5         0.00000000
   6         0.32333477
   7         0.00000000
   8        -0.00000000
   9        -0.28423006
  10         0.00000000
  11        -0.48666769
  12        -0.00000000
  13         0.00000000
  14        -0.00000000
  15         0.00000000
  16         0.00000000
  17        -0.00000000
  18        -0.00000000
  19        -0.00000000
  20         0.32333477
  21         0.00000000
  22         0.00000000
  23        -0.28423006
  24         0.00000000
  25         0.48666769
  26        -0.00000000
  27        -0.00000000
  28        -0.00000000
  29         0.00000000
  30         0.00000000
  31        -0.00000000
  32         0.00000000
  33         0.18876761
  34        -0.00000000
  35        -0.00000000
  36         0.00000000
  37        -0.00000000
  38         0.18876761
  39        -0.00000000
  40        -0.00000000
  41        -0.00000000
  42        -0.00000000
  43         0.18876761
  44         0.00000000
  45         0.00000000
  46         0.00000000
  47         0.00000000
  48         0.18876761
Sym=    29a  
Ene=     1.2836
Spin= Alpha
Occup=    0.00000
   1         0.00000000
   2         0.00000000
   3        -0.00000000
   4         0.00000000
   5        -0.00000000
   6         0.00000000
   7        -0.00000000
   8         0.00000000
   9        -0.00000000
  10        -0.00000000
  11        -0.00000000
  12        -0.39956276
  13        -0.00000000
  14         0.00000000
  15        -0.00000000
  16        -0.00000000
  17         0.00000000
  18         0.00000000
  19         0.00000000
  20         0.00000000
  21        -0.00000000
  22        -0.00000000
  23        -0.00000000
  24        -0.00000000
  25         0.00000000
  26         0.39956276
  27         0.00000000
  28         0.00000000
  29        -0.00000000
  30        -0.00000000
  31         0.00000000
  32        -0.00000000
  33        -0.30574124
  34         0.00000000
  35         0.00000000
  36         0.00000000
  37         0.00000000
  38         0.30574124
  39         0.00000000
  40         0.00000000
  41         0.00000000
  42         0.00000000
  43         0.30574124
  44        -0.00000000
  45        -0.00000000
  46         0.00000000
  47         0.00000000
  48        -0.30574124
Sym=    30a  
Ene=     1.5850
Spin= Alpha
Occup=    0.00000
   1         0.13150639
   2         0.45336616
   3        -1.24510930
   4         0.00599401
   5         0.00000000
   6         0.00000000
   7         0.61010581
   8         0.00000000
   9         0.00000000
  10         0.54453506
  11        -0.00000000
  12         0.00000000
  13         0.32698847
  14         0.00000000
  15         0.13150639
  16         0.45336616
  17        -1.24510930
  18        -0.00599401
  19         0.00000000
  20        -0.00000000
  21        -0.61010581
  22         0.00000000
  23        -0.00000000
  24         0.54453506
  25         0.00000000
  26         0.00000000
  27         0.32698847
  28        -0.00000000
  29         0.92388015
  30        -0.30087949
  31        -0.16541617
  32         0.00583242
  33        -0.00000000
  34         0.92388015
  35        -0.30087949
  36        -0.16541617
  37        -0.00583242
  38        -0.00000000
  39         0.92388015
  40        -0.30087949
  41         0.16541617
  42         0.00583242
  43         0.00000000
  44         0.92388015
  45        -0.30087949
  46         0.16541617
  47        -0.00583242
  48        -0.00000000
Sym=    31a  
Ene=     1.7419
Spin= Alpha
Occup=    0.00000
   1        -0.00000000
   2        -0.00000000
   3        -0.00000000
   4        -0.00000000
   5         0.09603556
   6         0.00000000
   7        -0.00000000
   8        -2.18351471
   9         0.00000000
  10        -0.00000000
  11         0.00000000
  12        -0.00000000
  13        -0.00000000
  14         0.03767673
  15         0.00000000
  16         0.00000000
  17         0.00000000
  18        -0.00000000
  19        -0.09603556
  20         0.00000000
  21        -0.00000000
  22         2.18351471
  23        -0.00000000
  24         0.00000000
  25         0.00000000
  26        -0.00000000
  27         0.00000000
  28         0.03767673
  29         0.90159823
  30         0.20650208
  31         0.33978290
  32         0.35995638
  33        -0.00000000
  34        -0.90159823
  35        -0.20650208
  36        -0.33978290
  37         0.35995638
  38        -0.00000000
  39        -0.90159823
  40        -0.20650208
  41         0.33978290
  42        -0.35995638
  43         0.00000000
  44         0.90159823
  45         0.20650208
  46        -0.33978290
  47        -0.35995638
  48        -0.00000000
Sym=    32a  
Ene=     1.7570
Spin= Alpha
Occup=    0.00000
   1         0.00000000
   2         0.00000000
   3        -0.00000000
   4         0.00000000
   5         0.01859947
   6         0.00000000
   7        -0.00000000
   8        -0.60411634
   9         0.00000000
  10         0.00000000
  11         0.00000000
  12         0.00000000
  13        -0.00000000
  14         0.35319834
  15         0.00000000
  16         0.00000000
  17        -0.00000000
  18        -0.00000000
  19         0.01859947
  20        -0.00000000
  21         0.00000000
  22        -0.60411634
  23        -0.00000000
  24         0.00000000
  25         0.00000000
  26        -0.00000000
  27        -0.00000000
  28        -0.35319834
  29         0.70581136
  30        -0.21637557
  31         0.20278789
  32         0.35334309
  33        -0.00000000
  34        -0.70581136
  35         0.21637557
  36        -0.20278789
  37         0.35334309
  38         0.00000000
  39         0.70581136
  40        -0.21637557
  41        -0.20278789
  42         0.35334309
  43         0.00000000
  44        -0.70581136
  45         0.21637557
  46         0.20278789
  47         0.35334309
  48         0.00000000
Sym=    33a  
Ene=     1.8133
Spin= Alpha
Occup=    0.00000
   1        -0.00000000
   2        -0.00000000
   3         0.00000000
   4        -0.00000000
   5        -0.00000000
   6         0.36716944
   7        -0.00000000
   8         0.00000000
   9         0.47144428
  10        -0.00000000
  11         0.41168142
  12         0.00000000
  13        -0.00000000
  14         0.00000000
  15        -0.00000000
  16        -0.00000000
  17         0.00000000
  18        -0.00000000
  19         0.00000000
  20        -0.36716944
  21        -0.00000000
  22         0.00000000
  23        -0.47144428
  24        -0.00000000
  25         0.41168142
  26        -0.00000000
  27         0.00000000
  28         0.00000000
  29        -0.00000000
  30        -0.00000000
  31         0.00000000
  32        -0.00000000
  33        -0.48160127
  34        -0.00000000
  35         0.00000000
  36         0.00000000
  37         0.00000000
  38        -0.48160127
  39        -0.00000000
  40        -0.00000000
  41         0.00000000
  42        -0.00000000
  43         0.48160127
  44         0.00000000
  45         0.00000000
  46         0.00000000
  47         0.00000000
  48         0.48160127
Sym=    34a  
Ene=     1.8460
Spin= Alpha
Occup=    0.00000
   1         0.35983325
   2         1.43794861
   3        -1.11741491
   4         0.35268428
   5         0.00000000
   6         0.00000000
   7        -0.86515871
   8         0.00000000
   9         0.00000000
  10         0.45280313
  11         0.00000000
  12         0.00000000
  13        -0.33891727
  14        -0.00000000
  15         0.35983325
  16         1.43794861
  17        -1.11741491
  18        -0.35268428
  19         0.00000000
  20        -0.00000000
  21         0.86515872
  22        -0.00000000
  23        -0.00000000
  24         0.45280313
  25         0.00000000
  26         0.00000000
  27        -0.33891727
  28         0.00000000
  29        -0.02852231
  30         0.01459749
  31         0.28342509
  32         0.17158053
  33        -0.00000000
  34        -0.02852231
  35         0.01459749
  36         0.28342509
  37        -0.17158053
  38         0.00000000
  39        -0.02852231
  40         0.01459749
  41        -0.28342509
  42         0.17158053
  43        -0.00000000
  44        -0.02852231
  45         0.01459749
  46        -0.28342509
  47        -0.17158053
  48         0.00000000
Sym=    35a  
Ene=     1.8617
Spin= Alpha
Occup=    0.00000
   1        -0.21123626
   2        -1.00283212
   3        -0.13048610
   4        -0.52350219
   5        -0.00000000
   6        -0.00000000
   7        -0.97650727
   8         0.00000000
   9        -0.00000000
  10        -0.23950663
  11        -0.00000000
  12         0.00000000
  13        -0.24273215
  14        -0.00000000
  15         0.21123626
  16         1.00283212
  17         0.13048610
  18        -0.52350219
  19         0.00000000
  20         0.00000000
  21        -0.97650727
  22        -0.00000000
  23         0.00000000
  24         0.23950663
  25        -0.00000000
  26         0.00000000
  27         0.24273215
  28        -0.00000000
  29        -0.47813825
  30         0.02770911
  31         0.43829578
  32         0.06937565
  33         0.00000000
  34        -0.47813825
  35         0.02770911
  36         0.43829578
  37        -0.06937565
  38         0.00000000
  39         0.47813825
  40        -0.02770911
  41         0.43829578
  42        -0.06937565
  43        -0.00000000
  44         0.47813825
  45        -0.02770911
  46         0.43829578
  47         0.06937565
  48        -0.00000000
Sym=    36a  
Ene=     1.9072
Spin= Alpha
Occup=    0.00000
   1        -0.00000000
   2        -0.00000000
   3         0.00000000
   4        -0.00000000
   5         0.13070964
   6        -0.00000000
   7         0.00000000
   8        -0.27408429
   9         0.00000000
  10        -0.00000000
  11         0.00000000
  12         0.00000000
  13         0.00000000
  14        -0.45089912
  15        -0.00000000
  16        -0.00000000
  17         0.00000000
  18         0.00000000
  19         0.13070964
  20        -0.00000000
  21        -0.00000000
  22        -0.27408429
  23        -0.00000000
  24        -0.00000000
  25        -0.00000000
  26         0.00000000
  27         0.00000000
  28         0.45089912
  29        -0.36662254
  30         0.46947511
  31         0.45715807
  32         0.08230202
  33         0.00000000
  34         0.36662254
  35        -0.46947511
  36        -0.45715807
  37         0.08230202
  38         0.00000000
  39        -0.36662254
  40         0.46947511
  41        -0.45715807
  42         0.08230202
  43         0.00000000
  44         0.36662254
  45        -0.46947511
  46         0.45715807
  47         0.08230202
  48         0.00000000
Sym=    37a  
Ene=     1.9587
Spin= Alpha
Occup=    0.00000
   1        -0.00000000
   2        -0.00000000
   3         0.00000000
   4        -0.00000000
   5        -0.00000000
   6         0.00000000
   7         0.00000000
   8         0.00000000
   9        -0.00000000
  10        -0.00000000
  11        -0.00000000
  12         0.58753109
  13         0.00000000
  14         0.00000000
  15        -0.00000000
  16        -0.00000000
  17         0.00000000
  18         0.00000000
  19        -0.00000000
  20         0.00000000
  21        -0.00000000
  22         0.00000000
  23        -0.00000000
  24        -0.00000000
  25         0.00000000
  26         0.58753109
  27         0.00000000
  28        -0.00000000
  29        -0.00000000
  30        -0.00000000
  31        -0.00000000
  32         0.00000000
  33        -0.55851173
  34        -0.00000000
  35         0.00000000
  36        -0.00000000
  37         0.00000000
  38         0.55851173
  39        -0.00000000
  40         0.00000000
  41         0.00000000
  42        -0.00000000
  43        -0.55851173
  44        -0.00000000
  45         0.00000000
  46        -0.00000000
  47        -0.00000000
  48         0.55851173
Sym=    38a  
Ene=     1.9812
Spin= Alpha
Occup=    0.00000
   1         0.00000000
   2         0.00000000
   3        -0.00000000
   4         0.00000000
   5        -0.00000000
   6        -0.40477708
   7        -0.00000000
   8         0.00000000
   9         0.01310979
  10         0.00000000
  11         0.42194347
  12         0.00000000
  13         0.00000000
  14         0.00000000
  15        -0.00000000
  16        -0.00000000
  17         0.00000000
  18         0.00000000
  19         0.00000000
  20        -0.40477708
  21        -0.00000000
  22         0.00000000
  23         0.01310979
  24        -0.00000000
  25        -0.42194347
  26         0.00000000
  27        -0.00000000
  28        -0.00000000
  29         0.00000000
  30        -0.00000000
  31        -0.00000000
  32        -0.00000000
  33         0.55780763
  34        -0.00000000
  35         0.00000000
  36         0.00000000
  37        -0.00000000
  38         0.55780763
  39        -0.00000000
  40        -0.00000000
  41         0.00000000
  42        -0.00000000
  43         0.55780763
  44         0.00000000
  45         0.00000000
  46        -0.00000000
  47        -0.00000000
  48         0.55780763
Sym=    39a  
Ene=     2.2245
Spin= Alpha
Occup=    0.00000
   1         0.00000000
   2         0.00000000
   3        -0.00000000
   4        -0.00000000
   5        -0.00000000
   6         0.25297741
   7        -0.00000000
   8         0.00000000
   9        -0.02682435
  10         0.00000000
  11         1.10263066
  12         0.00000000
  13        -0.00000000
  14        -0.00000000
  15        -0.00000000
  16        -0.00000000
  17         0.00000000
  18        -0.00000000
  19        -0.00000000
  20        -0.25297741
  21        -0.00000000
  22         0.00000000
  23         0.02682435
  24        -0.00000000
  25         1.10263066
  26        -0.00000000
  27         0.00000000
  28        -0.00000000
  29         0.00000000
  30        -0.00000000
  31         0.00000000
  32         0.00000000
  33         0.37506486
  34         0.00000000
  35        -0.00000000
  36         0.00000000
  37        -0.00000000
  38         0.37506486
  39        -0.00000000
  40         0.00000000
  41         0.00000000
  42        -0.00000000
  43        -0.37506486
  44        -0.00000000
  45         0.00000000
  46         0.00000000
  47         0.00000000
  48        -0.37506486
Sym=    40a  
Ene=     2.2543
Spin= Alpha
Occup=    0.00000
   1        -0.13646162
   2        -0.32986755
   3         4.56906345
   4         1.35437557
   5        -0.00000000
   6         0.00000000
   7         1.67157665
   8        -0.00000000
   9        -0.00000000
  10        -0.82436201
  11         0.00000000
  12         0.00000000
  13         0.42481410
  14         0.00000000
  15         0.13646162
  16         0.32986755
  17        -4.56906345
  18         1.35437557
  19         0.00000000
  20        -0.00000000
  21         1.67157665
  22         0.00000000
  23         0.00000000
  24         0.82436201
  25         0.00000000
  26        -0.00000000
  27        -0.42481410
  28         0.00000000
  29        -0.46818999
  30         0.54087546
  31        -0.07036558
  32        -0.26662379
  33         0.00000000
  34        -0.46818999
  35         0.54087546
  36        -0.07036558
  37         0.26662379
  38         0.00000000
  39         0.46818999
  40        -0.54087546
  41        -0.07036558
  42         0.26662379
  43        -0.00000000
  44         0.46818999
  45        -0.54087546
  46        -0.07036558
  47        -0.26662379
  48        -0.00000000
Sym=    41a  
Ene=     2.3629
Spin= Alpha
Occup=    0.00000
   1         0.00000000
   2         0.00000000
   3         0.00000000
   4         0.00000000
   5        -0.00000000
   6         0.00000000
   7         0.00000000
   8        -0.00000000
   9        -0.00000000
  10        -0.00000000
  11         0.00000000
  12        -0.88739808
  13         0.00000000
  14         0.00000000
  15        -0.00000000
  16        -0.00000000
  17        -0.00000000
  18         0.00000000
  19         0.00000000
  20        -0.00000000
  21        -0.00000000
  22         0.00000000
  23        -0.00000000
  24         0.00000000
  25         0.00000000
  26         0.88739808
  27        -0.00000000
  28         0.00000000
  29         0.00000000
  30         0.00000000
  31        -0.00000000
  32        -0.00000000
  33         0.54691332
  34        -0.00000000
  35         0.00000000
  36        -0.00000000
  37        -0.00000000
  38        -0.54691332
  39        -0.00000000
  40        -0.00000000
  41         0.00000000
  42         0.00000000
  43        -0.54691332
  44         0.00000000
  45         0.00000000
  46         0.00000000
  47         0.00000000
  48         0.54691332
Sym=    42a  
Ene=     2.4476
Spin= Alpha
Occup=    0.00000
   1        -0.00000000
   2         0.00000000
   3        -0.00000000
   4        -0.00000000
   5        -1.21835542
   6        -0.00000000
   7         0.00000000
   8         0.01707007
   9         0.00000000
  10         0.00000000
  11        -0.00000000
  12         0.00000000
  13        -0.00000000
  14        -0.29888567
  15         0.00000000
  16         0.00000000
  17         0.00000000
  18         0.00000000
  19         1.21835542
  20         0.00000000
  21         0.00000000
  22        -0.01707007
  23        -0.00000000
  24        -0.00000000
  25        -0.00000000
  26        -0.00000000
  27         0.00000000
  28        -0.29888567
  29         0.36642561
  30         0.28643212
  31         0.49322604
  32        -0.39607022
  33        -0.00000000
  34        -0.36642561
  35        -0.28643212
  36        -0.49322604
  37        -0.39607022
  38        -0.00000000
  39        -0.36642561
  40        -0.28643212
  41         0.49322604
  42         0.39607022
  43        -0.00000000
  44         0.36642561
  45         0.28643212
  46        -0.49322604
  47         0.39607022
  48        -0.00000000
Sym=    43a  
Ene=     2.5143
Spin= Alpha
Occup=    0.00000
   1         0.22357187
   2         0.77946992
   3        -1.13033026
   4         0.52468306
   5         0.00000000
   6        -0.00000000
   7        -0.05550505
   8        -0.00000000
   9         0.00000000
  10         0.18942182
  11        -0.00000000
  12         0.00000000
  13        -0.79719324
  14         0.00000000
  15         0.22357187
  16         0.77946992
  17        -1.13033026
  18        -0.52468306
  19        -0.00000000
  20         0.00000000
  21         0.05550505
  22        -0.00000000
  23        -0.00000000
  24         0.18942182
  25        -0.00000000
  26        -0.00000000
  27        -0.79719324
  28        -0.00000000
  29         0.02208059
  30         0.22023686
  31        -0.44157688
  32        -0.40246494
  33        -0.00000000
  34         0.02208059
  35         0.22023686
  36        -0.44157688
  37         0.40246494
  38         0.00000000
  39         0.02208059
  40         0.22023686
  41         0.44157688
  42        -0.40246494
  43         0.00000000
  44         0.02208059
  45         0.22023686
  46         0.44157688
  47         0.40246494
  48        -0.00000000
Sym=    44a  
Ene=     2.6573
Spin= Alpha
Occup=    0.00000
   1        -0.48279742
   2        -2.22934423
   3         0.89042909
   4        -0.46616345
   5         0.00000000
   6        -0.00000000
   7         0.62681844
   8        -0.00000000
   9        -0.00000000
  10         0.49973154
  11        -0.00000000
  12        -0.00000000
  13        -0.81648546
  14         0.00000000
  15         0.48279742
  16         2.22934423
  17        -0.89042909
  18        -0.46616345
  19        -0.00000000
  20        -0.00000000
  21         0.62681844
  22         0.00000000
  23         0.00000000
  24        -0.49973154
  25        -0.00000000
  26         0.00000000
  27         0.81648546
  28         0.00000000
  29         0.50461707
  30         0.05318565
  31        -0.13917512
  32        -0.64094770
  33         0.00000000
  34         0.50461707
  35         0.05318565
  36        -0.13917512
  37         0.64094770
  38         0.00000000
  39        -0.50461707
  40        -0.05318565
  41        -0.13917512
  42         0.64094770
  43        -0.00000000
  44        -0.50461707
  45        -0.05318565
  46        -0.13917512
  47        -0.64094770
  48         0.00000000
Sym=    45a  
Ene=     2.7122
Spin= Alpha
Occup=    0.00000
   1        -0.38945171
   2        -1.82096215
   3         0.27575729
   4         0.88285117
   5        -0.00000000
   6        -0.00000000
   7        -0.16150551
   8         0.00000000
   9        -0.00000000
  10         0.40039798
  11        -0.00000000
  12         0.00000000
  13         0.46011758
  14         0.00000000
  15        -0.38945171
  16        -1.82096215
  17         0.27575729
  18        -0.88285118
  19        -0.00000000
  20        -0.00000000
  21         0.16150551
  22         0.00000000
  23         0.00000000
  24         0.40039798
  25        -0.00000000
  26         0.00000000
  27         0.46011758
  28        -0.00000000
  29         1.25587889
  30        -0.37083953
  31         0.52824534
  32        -0.64648717
  33         0.00000000
  34         1.25587889
  35        -0.37083953
  36         0.52824534
  37         0.64648717
  38         0.00000000
  39         1.25587889
  40        -0.37083953
  41        -0.52824534
  42        -0.64648717
  43        -0.00000000
  44         1.25587889
  45        -0.37083953
  46        -0.52824534
  47         0.64648717
  48         0.00000000
Sym=    46a  
Ene=     2.8246
Spin= Alpha
Occup=    0.00000
   1        -0.00000000
   2        -0.00000000
   3         0.00000000
   4         0.00000000
   5         1.64827596
   6         0.00000000
   7        -0.00000000
   8        -0.12789907
   9        -0.00000000
  10         0.00000000
  11         0.00000000
  12         0.00000000
  13         0.00000000
  14        -0.80257598
  15        -0.00000000
  16        -0.00000000
  17         0.00000000
  18        -0.00000000
  19         1.64827596
  20         0.00000000
  21         0.00000000
  22        -0.12789907
  23        -0.00000000
  24         0.00000000
  25         0.00000000
  26         0.00000000
  27         0.00000000
  28         0.80257598
  29        -1.50613037
  30         0.31385603
  31        -0.43360799
  32         0.69461904
  33        -0.00000000
  34         1.50613037
  35        -0.31385603
  36         0.43360799
  37         0.69461904
  38         0.00000000
  39        -1.50613037
  40         0.31385603
  41         0.43360799
  42         0.69461904
  43        -0.00000000
  44         1.50613037
  45        -0.31385603
  46        -0.43360799
  47         0.69461904
  48        -0.00000000
Sym=    47a  
Ene=     3.1288
Spin= Alpha
Occup=    0.00000
   1         0.05422318
   2        -0.11553692
   3        -3.02473160
   4         1.19929090
   5         0.00000000
   6         0.00000000
   7        -1.19300450
   8         0.00000000
   9        -0.00000000
  10         0.71610027
  11        -0.00000000
  12         0.00000000
  13         1.04925440
  14        -0.00000000
  15        -0.05422318
  16         0.11553692
  17         3.02473160
  18         1.19929090
  19        -0.00000000
  20         0.00000000
  21        -1.19300450
  22        -0.00000000
  23         0.00000000
  24        -0.71610027
  25        -0.00000000
  26         0.00000000
  27        -1.04925440
  28        -0.00000000
  29         1.74203313
  30        -0.61505590
  31         0.70648540
  32        -0.41525768
  33        -0.00000000
  34         1.74203313
  35        -0.61505590
  36         0.70648540
  37         0.41525768
  38        -0.00000000
  39        -1.74203313
  40         0.61505590
  41         0.70648540
  42         0.41525768
  43        -0.00000000
  44        -1.74203313
  45         0.61505590
  46         0.70648540
  47        -0.41525768
  48         0.00000000
Sym=    48a  
Ene=     3.4200
Spin= Alpha
Occup=    0.00000
   1         0.00000000
   2         0.00000000
   3        -0.00000000
   4        -0.00000000
   5        -0.85126646
   6        -0.00000000
   7        -0.00000000
   8        -0.27317806
   9         0.00000000
  10         0.00000000
  11         0.00000000
  12         0.00000000
  13         0.00000000
  14         2.02622326
  15        -0.00000000
  16        -0.00000000
  17         0.00000000
  18         0.00000000
  19         0.85126646
  20        -0.00000000
  21        -0.00000000
  22         0.27317806
  23        -0.00000000
  24        -0.00000000
  25         0.00000000
  26        -0.00000000
  27        -0.00000000
  28         2.02622326
  29         2.08326720
  30        -0.84285480
  31         0.10612981
  32        -0.78513767
  33        -0.00000000
  34        -2.08326720
  35         0.84285480
  36        -0.10612981
  37        -0.78513767
  38         0.00000000
  39        -2.08326720
  40         0.84285480
  41         0.10612981
  42         0.78513767
  43         0.00000000
  44         2.08326720
  45        -0.84285480
  46        -0.10612981
  47         0.78513767
  48        -0.00000000
