           6
  t=         0.00000    2    2
C      -0.662345868      0.003286000      0.010935410
C       0.652482301     -0.009201651     -0.000245501
H      -1.179485202      0.940192733     -0.056704503
H      -1.189188550     -0.925435478     -0.049420389
H       1.221845711      0.949930419      0.006801388
H       1.264359083     -0.894198650     -0.028054060
           6
  t=         0.50000    2    2
C      -0.663173701      0.002577293      0.010653739
C       0.654868300     -0.009027592      0.000012451
H      -1.184876474      0.958020467     -0.055374159
H      -1.195589040     -0.936286088     -0.049069210
H       1.217581015      0.933472804      0.005032770
H       1.261848732     -0.878348168     -0.027684474
           6
  t=         1.00000    2    2
C      -0.665642919      0.001897372      0.010380011
C       0.659013344     -0.008548379      0.000298180
H      -1.190812307      0.974439369     -0.054874375
H      -1.203089433     -0.946549187     -0.048000319
H       1.212839563      0.915753825      0.003978760
H       1.260057607     -0.864394137     -0.028342263
           6
  t=         1.50000    1    1
C      -0.669733421      0.001276278      0.010110621
C       0.664675162     -0.007782028      0.000614367
H      -1.196702707      0.988215960     -0.055128595
H      -1.211234460     -0.955346069     -0.046239111
H       1.208420245      0.898369998      0.003635490
H       1.259788839     -0.853721552     -0.030063725
           6
  t=         2.00000    1    1
C      -0.679730640     -0.004308192      0.004742605
C       0.665853076     -0.011818693     -0.004086469
H      -1.262011253      0.938518152     -0.115270174
H      -1.279580387     -1.022110020     -0.104028969
H       1.145215248      0.823367506     -0.056435633
H       1.201649057     -0.907702692     -0.092171148
           6
  t=         2.50000    1    1
C      -0.690138165     -0.010263289     -0.000894347
C       0.666230171     -0.016668539     -0.008794158
H      -1.326028100      0.886463590     -0.173811716
H      -1.344550223     -1.082544365     -0.160508428
H       1.089997814      0.761502060     -0.116892995
H       1.145285291     -0.964687873     -0.153516532
           6
  t=         3.00000    1    1
C      -0.701066035     -0.016835855     -0.006942613
C       0.665071737     -0.023676504     -0.013386463
H      -1.388075921      0.832841922     -0.230176934
H      -1.403870565     -1.134324174     -0.214499102
H       1.050413315      0.725803687     -0.179827490
H       1.090167202     -1.021854543     -0.213523702
           6
  t=         3.50000    1    1
C      -0.712638965     -0.024189868     -0.013535849
C       0.661912811     -0.033779943     -0.017682524
H      -1.447279132      0.778193198     -0.283736419
H      -1.455802673     -1.176033762     -0.264828057
H       1.031143694      0.724279235     -0.248447281
H       1.036024917     -1.076042191     -0.271349301
           6
  t=         4.00000    1    1
C      -0.724973272     -0.032439990     -0.020776153
C       0.656832873     -0.046904012     -0.021674443
H      -1.502663588      0.723120884     -0.333957223
H      -1.499171547     -1.206989041     -0.310509198
H       1.030435837      0.753424768     -0.324009387
H       0.982901356     -1.124559939     -0.326132876
           6
  t=         4.50000    1    1
C      -0.738133443     -0.041611815     -0.028736524
C       0.650301666     -0.062139209     -0.025649997
H      -1.553322540      0.668174996     -0.380345581
H      -1.533541332     -1.227432398     -0.350954901
H       1.041882066      0.801035017     -0.403990717
H       0.931032692     -1.166042532     -0.377180023
           6
  t=         5.00000    1    1
C      -0.752167052     -0.051671267     -0.037496594
C       0.642785533     -0.078558344     -0.029995067
H      -1.598455721      0.613684790     -0.422320544
H      -1.558722070     -1.237857695     -0.385792189
H       1.059223537      0.855116774     -0.484344394
H       0.880697626     -1.199786276     -0.423944646
           6
  t=         5.50000    1    1
C      -0.767089890     -0.062563331     -0.047151862
C       0.634580973     -0.095535997     -0.035001626
H      -1.637381776      0.559777033     -0.459281467
H      -1.574706197     -1.238753384     -0.414700139
H       1.078158594      0.907662593     -0.561671719
H       0.832164075     -1.225529892     -0.466130026
           6
  t=         6.00000    1    1
C      -0.782856580     -0.074238643     -0.057759344
C       0.625828166     -0.112689397     -0.040867539
H      -1.669709767      0.506722043     -0.490919239
H      -1.581730448     -1.230870519     -0.437462376
H       1.096123422      0.953749154     -0.633558672
H       0.785630600     -1.243018491     -0.503638574
           6
  t=         6.50000    1    1
C      -0.799386168     -0.086672810     -0.069333730
C       0.616572422     -0.129762754     -0.047777639
H      -1.695370095      0.455416292     -0.517249135
H      -1.580004590     -1.215229570     -0.453826238
H       1.111329338      0.989995069     -0.697985457
H       0.741521559     -1.252085254     -0.536350048
           6
  t=         7.00000    1    1
C      -0.816564291     -0.099883864     -0.081840220
C       0.606763169     -0.146603140     -0.055870273
H      -1.714862569      0.407449921     -0.538589503
H      -1.569575256     -1.192897349     -0.463591493
H       1.122741786      1.014594642     -0.753703014
H       0.700657821     -1.253055216     -0.564161554
           6
  t=         7.50000    1    1
C      -0.834221141     -0.113898238     -0.095226471
C       0.596272098     -0.163182536     -0.065155196
H      -1.729137930      0.364601502     -0.555402568
H      -1.550625023     -1.165127347     -0.466698686
H       1.130203495      1.027646861     -0.800724285
H       0.663835474     -1.246571334     -0.587164829
           6
  t=         8.00000    1    1
C      -0.852142607     -0.128716542     -0.109428744
C       0.584979275     -0.179497854     -0.075580274
H      -1.739398148      0.328655992     -0.568245252
H      -1.523754055     -1.133691313     -0.463278391
H       1.133820169      1.029864664     -0.839519292
H       0.631628777     -1.233389269     -0.605583064
           6
  t=         8.50000    1    1
C      -0.870083835     -0.144303118     -0.124363756
C       0.572812144     -0.195487998     -0.087083224
H      -1.747025190      0.301266355     -0.577754617
H      -1.490017595     -1.100856463     -0.453700795
H       1.133610881      1.021723404     -0.870443565
H       0.604402830     -1.214523030     -0.619788012
           6
  t=         9.00000    1    1
C      -0.887768723     -0.160545421     -0.139927076
C       0.559733417     -0.211009172     -0.099600861
H      -1.753438422      0.283816869     -0.584549804
H      -1.450973480     -1.069584484     -0.438625430
H       1.129454855      1.003327508     -0.893574112
H       0.582409970     -1.191554086     -0.630421232
           6
  t=         9.50000    1    1
C      -0.904889049     -0.177189676     -0.155984416
C       0.545712342     -0.225838233     -0.113069251
H      -1.759840402      0.277254413     -0.589105317
H      -1.408711327     -1.043927639     -0.419129378
H       1.121115938      0.974533779     -0.908721930
H       0.565872286     -1.166916676     -0.638482094
           6
  t=        10.00000    1    1
C      -0.921080143     -0.193766551     -0.172352455
C       0.530704008     -0.239676108     -0.127427306
H      -1.766961883      0.281893182     -0.591675108
H      -1.366361878     -1.029786240     -0.396925458
H       1.108334800      0.935075180     -0.915491415
H       0.555100467     -1.143913704     -0.645311736
           6
  t=        10.50000    1    1
C      -0.935959339     -0.209643034     -0.188844865
C       0.514645823     -0.252174905     -0.142607090
H      -1.774866015      0.297178106     -0.592188149
H      -1.327965648     -1.034280926     -0.373997947
H       1.090925705      0.884724256     -0.913438221
H       0.550570004     -1.126330132     -0.652470986
           6
  t=        11.00000    1    1
C      -0.949260055     -0.224227250     -0.205350697
C       0.497485653     -0.262998015     -0.158533345
H      -1.782984886      0.321599554     -0.590262587
H      -1.297161757     -1.063317262     -0.351756550
H       1.068837673      0.823455249     -0.902236071
H       0.552847789     -1.117788527     -0.661477035
           6
  t=        11.50000    1    1
C      -0.960966183     -0.237278540     -0.221875849
C       0.479210875     -0.271889691     -0.175161837
H      -1.790405290      0.353015962     -0.585418277
H      -1.275460183     -1.118169474     -0.330326936
H       1.042145350      0.751503418     -0.881667684
H       0.562414435     -1.121023364     -0.673358456
           6
  t=        12.00000    1    1
C      -0.971299942     -0.249082806     -0.238507758
C       0.459829563     -0.278777668     -0.192523825
H      -1.796206667      0.389320264     -0.577299336
H      -1.261692955     -1.193914533     -0.308708914
H       1.011157935      0.669757420     -0.851687048
H       0.579423895     -1.137193642     -0.688102982
           6
  t=        12.50000    1    1
C      -0.980645037     -0.260314117     -0.255308813
C       0.439429918     -0.283966219     -0.210664091
H      -1.799525784      0.428268490     -0.565878742
H      -1.253359738     -1.280809613     -0.286025282
H       0.976817292      0.580705831     -0.813331130
H       0.603091848     -1.164629183     -0.704300848
           6
  t=        13.00000    1    1
C      -0.989332964     -0.271633186     -0.272273919
C       0.418092776     -0.288015517     -0.229627970
H      -1.799489327      0.467603243     -0.551150666
H      -1.248762645     -1.369338738     -0.262216942
H       0.940917696      0.488343094     -0.768537882
H       0.632039620     -1.200035332     -0.719599553
           6
  t=        13.50000    1    1
C      -0.997601034     -0.283469899     -0.289367086
C       0.395804861     -0.291706385     -0.249350837
H      -1.795472376      0.505529736     -0.533051280
H      -1.247186319     -1.453049676     -0.237721659
H       0.906716799      0.398831489     -0.720593968
H       0.664655177     -1.239805396     -0.731537405
           6
  t=        14.00000    1    1
C      -1.005659224     -0.296021786     -0.306539099
C       0.372324879     -0.296087119     -0.269537429
H      -1.787078941      0.540267734     -0.511480746
H      -1.248571017     -1.527873039     -0.213118950
H       0.880435512      0.321481850     -0.674932938
H       0.699639090     -1.280694499     -0.738305831
           6
  t=        14.50000    1    1
C      -1.013723150     -0.309347223     -0.323760543
C       0.347178552     -0.302376596     -0.289687774
H      -1.774267767      0.570156884     -0.486179190
H      -1.253159426     -1.591049297     -0.189117467
H       0.871369155      0.267755316     -0.638581259
H       0.736118032     -1.320043639     -0.738737615
           6
  t=        15.00000    1    1
C      -1.022083939     -0.323543773     -0.340967106
C       0.320171110     -0.311465007     -0.309440074
H      -1.757163977      0.593909861     -0.457334580
H      -1.261400540     -1.640001741     -0.166657523
H       0.887208953      0.245544884     -0.616072707
H       0.772764656     -1.355265445     -0.732248077
           6
  t=        15.50000    1    1
C      -1.030913003     -0.338665973     -0.358013302
C       0.291636502     -0.323432301     -0.328899134
H      -1.736076076      0.610861722     -0.426175926
H      -1.273350565     -1.673515998     -0.146310011
H       0.928397395      0.254127814     -0.605502433
H       0.807564472     -1.384584085     -0.719426895
           6
  t=        16.00000    1    1
C      -1.040283807     -0.354622218     -0.374791752
C       0.262431181     -0.337663200     -0.348502814
H      -1.711362607      0.620409770     -0.393659985
H      -1.288489686     -1.691746214     -0.128343854
H       0.987289896      0.285227762     -0.600959059
H       0.838670939     -1.407389402     -0.701021887
           6
  t=        16.50000    1    1
C      -1.050346219     -0.371290546     -0.391225793
C       0.233796339     -0.353287328     -0.368638048
H      -1.683557971      0.622171398     -0.360399009
H      -1.306257224     -1.695232160     -0.113114094
H       1.052130347      0.327616192     -0.597168437
H       0.864810052     -1.423354817     -0.677642788
           6
  t=        17.00000    1    1
C      -1.061330463     -0.388570928     -0.407230311
C       0.206761773     -0.369723206     -0.389466806
H      -1.653336631      0.616073976     -0.327014680
H      -1.326190261     -1.684533144     -0.100951073
H       1.114432911      0.373392753     -0.591617809
H       0.885151723     -1.432068697     -0.649934577
           6
  t=        17.50000    1    1
C      -1.073471477     -0.406377979     -0.422723054
C       0.182078132     -0.386643991     -0.410998599
H      -1.621529029      0.602453262     -0.294120035
H      -1.347855794     -1.660315715     -0.092144221
H       1.168975607      0.417918320     -0.583529016
H       0.899170329     -1.433473098     -0.618639679
           6
  t=        18.00000    1    1
C      -1.086976936     -0.424644150     -0.437624995
C       0.160316475     -0.403858030     -0.433166011
H      -1.589081380      0.582046090     -0.262332453
H      -1.370979233     -1.623436831     -0.086933830
H       1.212459191      0.458569342     -0.572919701
H       0.906506785     -1.427912919     -0.584627761
           6
  t=        18.50000    1    1
C      -1.102007871     -0.443301093     -0.451862386
C       0.141887083     -0.421265659     -0.455876852
H      -1.557091927      0.556000061     -0.232224094
H      -1.395503835     -1.575182649     -0.085432381
H       1.243118547      0.494044265     -0.560144349
H       0.906997713     -1.415949989     -0.548836946
           6
  t=        19.00000    1    1
C      -1.118563981     -0.462246573     -0.465420766
C       0.126934033     -0.438826297     -0.479027796
H      -1.526728392      0.525950487     -0.203821021
H      -1.421710563     -1.517962207     -0.087635694
H       1.260754443      0.524136722     -0.546026125
H       0.900570685     -1.398306000     -0.511825715
           6
  t=        19.50000    1    1
C      -1.136478124     -0.481322484     -0.478358369
C       0.115389292     -0.456508910     -0.502487029
H      -1.499250722      0.493731725     -0.177033798
H      -1.450246256     -1.455064419     -0.092891980
H       1.265825620      0.548806062     -0.531309464
H       0.887492771     -1.375739462     -0.474467591
           6
  t=        20.00000    1    1
C      -1.155430487     -0.500270669     -0.490765493
C       0.107001795     -0.474247857     -0.526121273
H      -1.475595777      0.460792544     -0.151878084
H      -1.482043261     -1.390482566     -0.100121686
H       1.258628195      0.567653658     -0.516629712
H       0.868517903     -1.349165506     -0.437703264
           6
  t=        20.50000    1    1
C      -1.174915673     -0.518657555     -0.502829354
C       0.101352599     -0.491919699     -0.549794069
H      -1.456328207      0.428613478     -0.128366124
H      -1.518747020     -1.330362511     -0.107284832
H       1.239224170      0.579993949     -0.502624692
H       0.844764010     -1.319870425     -0.402317863
           6
  t=        21.00000    1    1
C      -1.194322455     -0.535923571     -0.514842215
C       0.097934020     -0.509367123     -0.573354778
H      -1.441965105      0.399071375     -0.106664538
H      -1.562974723     -1.282669320     -0.111133836
H       1.207877561      0.585308560     -0.489866352
H       0.817867566     -1.289789775     -0.369132847
           6
  t=        21.50000    1    1
C      -1.213081659     -0.551589701     -0.527086514
C       0.096239349     -0.526388323     -0.596697972
H      -1.432931668      0.373849017     -0.086950425
H      -1.617686576     -1.254165216     -0.108474285
H       1.164945654      0.583292046     -0.478910765
H       0.790112364     -1.261651128     -0.338500243
           6
  t=        22.00000    1    1
C      -1.230806203     -0.565489574     -0.539675536
C       0.095787150     -0.542735549     -0.619757685
H      -1.429481833      0.353876708     -0.069557616
H      -1.684461940     -1.247153254     -0.097973447
H       1.110667126      0.573639189     -0.470352334
H       0.764217356     -1.238711042     -0.310260726
           6
  t=        22.50000    1    1
C      -1.247418925     -0.577849921     -0.552453246
C       0.096149482     -0.558156861     -0.642524558
H      -1.431555316      0.339427113     -0.054961368
H      -1.761909349     -1.258713381     -0.081304795
H       1.045166592      0.556019450     -0.464756941
H       0.742785909     -1.224132085     -0.283670480
           6
  t=        23.00000    1    1
C      -1.263086967     -0.589078102     -0.565085772
C       0.096991244     -0.572466238     -0.665009958
H      -1.438795147      0.330164289     -0.043769852
H      -1.846147990     -1.283242054     -0.062108966
H       0.968447742      0.530059507     -0.462672062
H       0.727561132     -1.220171116     -0.257776051
           6
  t=        23.50000    1    1
C      -1.278072055     -0.599548584     -0.577225034
C       0.098082141     -0.585626053     -0.687189919
H      -1.450709019      0.325279950     -0.036628703
H      -1.932451856     -1.315125950     -0.044199150
H       0.880799708      0.495709690     -0.464589037
H       0.718898339     -1.227569832     -0.232060479
           6
  t=        24.00000    1    1
C      -1.292613756     -0.609531215     -0.588590338
C       0.099248314     -0.597769010     -0.708970951
H      -1.466813351      0.323636241     -0.034186459
H      -2.016533732     -1.349861321     -0.030645263
H       0.783267635      0.453703782     -0.470899448
H       0.715907830     -1.245631242     -0.206872396
           6
  t=        24.50000    1    1
C      -1.306874618     -0.619181807     -0.598993945
C       0.100338776     -0.609172202     -0.730196125
H      -1.486666449      0.323874102     -0.037071107
H      -2.095250915     -1.384352338     -0.023452659
H       0.677686065      0.405468656     -0.481804302
H       0.716906653     -1.272360630     -0.183484359
           6
  t=        25.00000    1    1
C      -1.320933796     -0.628604214     -0.608333145
C       0.101162490     -0.620196347     -0.750700875
H      -1.509880492      0.324706694     -0.045729414
H      -2.166556517     -1.416594068     -0.023763401
H       0.566721992      0.353172858     -0.497204373
H       0.720012619     -1.305108931     -0.163591576
           6
  t=        25.50000    1    1
C      -1.334811932     -0.637890952     -0.616580662
C       0.101425426     -0.631323163     -0.770385057
H      -1.536047669      0.325084318     -0.060374131
H      -2.229143389     -1.445276147     -0.032075669
H       0.454004346      0.300924622     -0.516346054
H       0.723631380     -1.341402683     -0.148755003
           6
  t=        26.00000    1    1
C      -1.348502022     -0.647135607     -0.623767043
C       0.100766352     -0.643233059     -0.789268305
H      -1.564653026      0.324266234     -0.081026290
H      -2.282212095     -1.469544636     -0.048414725
H       0.343606934      0.255757590     -0.537388957
H       0.726595583     -1.379166034     -0.140170822
           6
  t=        26.50000    1    1
C      -1.361966023     -0.656444474     -0.629937601
C       0.098880785     -0.656756002     -0.807469360
H      -1.595529834      0.321786626     -0.107454444
H      -2.325387350     -1.488812387     -0.072668018
H       0.239202066      0.226587016     -0.557738636
H       0.727865759     -1.416279391     -0.138822615
           6
  t=        27.00000    1    1
C      -1.375188919     -0.665957166     -0.635129286
C       0.095667588     -0.672562302     -0.825122221
H      -1.628886709      0.317383924     -0.139207210
H      -2.358712794     -1.502683887     -0.104715006
H       0.143120767      0.220671091     -0.575163336
H       0.726389276     -1.450484092     -0.145477116
           6
  t=        27.50000    1    1
C      -1.388198647     -0.675823272     -0.639387528
C       0.091223241     -0.690681727     -0.842247952
H      -1.664464470      0.311013937     -0.175944100
H      -2.382267838     -1.510890276     -0.144289943
H       0.055149733      0.238230625     -0.589157887
H       0.721382969     -1.480088465     -0.160453411
           6
  t=        28.00000    1    1
C      -1.401071197     -0.686198358     -0.642782323
C       0.085609434     -0.710489094     -0.858717602
H      -1.701871899      0.302916014     -0.217381758
H      -2.395870420     -1.513348547     -0.191000967
H      -0.024710233      0.272425562     -0.601197445
H       0.712443142     -1.504170616     -0.183654042
           6
  t=        28.50000    1    1
C      -1.413881648     -0.697230234     -0.645409640
C       0.078742295     -0.731150163     -0.874361794
H      -1.740951131      0.293552110     -0.263143624
H      -2.399332072     -1.510283944     -0.244322471
H      -0.094844875      0.314611542     -0.613466460
H       0.699503196     -1.522502182     -0.214671433
           6
  t=        29.00000    1    1
C      -1.426655336     -0.709029372     -0.647391738
C       0.070447981     -0.751937352     -0.889069505
H      -1.781490914      0.283410657     -0.312810151
H      -2.392674801     -1.502163107     -0.303538386
H      -0.153396163      0.357840449     -0.627701100
H       0.682889230     -1.535510094     -0.252771156
           6
  t=        29.50000    1    1
C      -1.439363207     -0.721645580     -0.648889959
C       0.060540588     -0.772287666     -0.902805274
H      -1.823185621      0.272783251     -0.365927756
H      -2.376258353     -1.489603926     -0.367614810
H      -0.199143407      0.397294250     -0.644920851
H       0.663303639     -1.544165022     -0.296921249
           6
  t=        30.00000    1    1
C      -1.451929704     -0.735051142     -0.650103230
C       0.048864371     -0.791769938     -0.915588549
H      -1.865698376      0.261665976     -0.422019919
H      -2.351055779     -1.473541958     -0.435163983
H      -0.231507446      0.429815073     -0.665600185
H       0.641758926     -1.549837502     -0.345909416
           6
  t=        30.50000    1    1
C      -1.464215313     -0.749118913     -0.651249532
C       0.035302127     -0.810082689     -0.927487311
H      -1.908603214      0.249862438     -0.480644644
H      -2.319145142     -1.455730245     -0.504537892
H      -0.250403239      0.453847717     -0.689735595
H       0.619556287     -1.554130258     -0.398421767
           6
  t=        31.00000    1    1
C      -1.475995215     -0.763605727     -0.652536204
C       0.019742875     -0.827004845     -0.938603847
H      -1.951222445      0.237140682     -0.541423919
H      -2.283962441     -1.439156898     -0.574117810
H      -0.256094786      0.468899996     -0.717039707
H       0.598361613     -1.558862763     -0.453053015
           6
  t=        31.50000    1    1
C      -1.486970923     -0.778161961     -0.654127165
C       0.002051835     -0.842322610     -0.949047202
H      -1.992579539      0.223098136     -0.604012646
H      -2.249970105     -1.427854627     -0.642708019
H      -0.248983800      0.474706228     -0.747193027
H       0.580111790     -1.566047565     -0.508410884
           6
  t=        32.00000    1    1
C      -1.496803307     -0.792361795     -0.656131988
C      -0.017897191     -0.855824049     -0.958911674
H      -2.031567457      0.207074134     -0.667931573
H      -2.222169702     -1.426423337     -0.709803272
H      -0.229555411      0.470818357     -0.779923295
H       0.566649288     -1.577575332     -0.563322913
           6
  t=        32.50000    1    1
C      -1.505219331     -0.805811732     -0.658611489
C      -0.040161547     -0.867336206     -0.968250308
H      -2.067188129      0.188386471     -0.732432538
H      -2.204898073     -1.439018632     -0.775667165
H      -0.198305557      0.456596209     -0.815027588
H       0.559238687     -1.594717724     -0.617119844
           6
  t=        33.00000    1    1
C      -1.512178544     -0.818323526     -0.661613745
C      -0.064677460     -0.876772299     -0.977055210
H      -2.098603256      0.166611404     -0.796586712
H      -2.199899987     -1.467616954     -0.840857397
H      -0.155834761      0.431354813     -0.852331004
H       0.558145055     -1.617666762     -0.669868903
           6
  t=        33.50000    1    1
C      -1.517953200     -0.830010417     -0.665228173
C      -0.091225249     -0.884174639     -0.985275825
H      -2.125228477      0.141655728     -0.859437895
H      -2.205395848     -1.510868310     -0.905361112
H      -0.102973734      0.394648806     -0.891644191
H       0.562461623     -1.645380360     -0.722265439
           6
  t=        34.00000    1    1
C      -1.523018786     -0.841201286     -0.669631369
C      -0.119468420     -0.889695191     -0.992856148
H      -2.146715080      0.113594625     -0.920129292
H      -2.217316828     -1.564986190     -0.967977815
H      -0.040652327      0.346431805     -0.932649825
H       0.570356891     -1.675944219     -0.775247129
           6
  t=        34.50000    1    1
C      -1.527892689     -0.852262198     -0.675008163
C      -0.148915448     -0.893661949     -0.999807646
H      -2.162934537      0.082686835     -0.977966954
H      -2.231199458     -1.625272850     -1.026900815
H       0.029333494      0.287709785     -0.974809825
H       0.579342977     -1.707050621     -0.829513673
           6
  t=        35.00000    1    1
C      -1.533004238     -0.863468225     -0.681515791
C      -0.179024796     -0.896465054     -1.006185489
H      -2.173735887      0.049199598     -1.032340139
H      -2.243724486     -1.687868551     -1.080411617
H       0.104818767      0.220207472     -1.017570906
H       0.586777606     -1.736624826     -0.885416666
           6
  t=        35.50000    1    1
C      -1.538702519     -0.874992923     -0.689251937
C      -0.209238666     -0.898527075     -1.012082332
H      -2.179095409      0.013406039     -1.082791741
H      -2.252744028     -1.749923626     -1.127194932
H       0.183599862      0.146346969     -1.060399331
H       0.590205856     -1.763108473     -0.942994194
           6
  t=        36.00000    1    1
C      -1.545312840     -0.886949495     -0.698266038
C      -0.238996900     -0.900258781     -1.017613722
H      -2.179226956     -0.024345390     -1.128928726
H      -2.256809287     -1.809297362     -1.166310943
H       0.263793095      0.068837579     -1.102901246
H       0.587478072     -1.785456551     -1.002007076
           6
  t=        36.50000    1    1
C      -1.553110007     -0.899409132     -0.708573436
C      -0.267767055     -0.902029500     -1.022905669
H      -2.174779162     -0.063471472     -1.170403890
H      -2.254968754     -1.864384052     -1.197190372
H       0.343718079     -0.009793801     -1.144822314
H       0.576901852     -1.803135814     -1.061941837
           6
  t=        37.00000    1    1
C      -1.562305373     -0.912406563     -0.720171863
C      -0.295044850     -0.904147409     -1.028082415
H      -2.166955270     -0.103025532     -1.206746200
H      -2.246654084     -1.914036409     -1.219732918
H       0.421571941     -0.087557450     -1.186152151
H       0.557424526     -1.816143970     -1.121926770
           6
  t=        37.50000    1    1
C      -1.573049603     -0.925963639     -0.733032621
C      -0.320349793     -0.906852796     -1.033275957
H      -2.157438316     -0.141597789     -1.237471345
H      -2.231712558     -1.957608148     -1.234275456
H       0.495418541     -0.163165109     -1.227028522
H       0.528582435     -1.824701803     -1.180740692
           6
  t=        38.00000    1    1
C      -1.585295603     -0.940115692     -0.747025253
C      -0.343420068     -0.910228350     -1.038650880
H      -2.147753886     -0.177836182     -1.263097870
H      -2.210631008     -1.994983912     -1.241351873
H       0.563484316     -0.236091071     -1.266956385
H       0.490480694     -1.829396120     -1.237419533
           6
  t=        38.50000    1    1
C      -1.598934963     -0.954927298     -0.761997472
C      -0.364094759     -0.914256029     -1.044373395
H      -2.139035093     -0.210539393     -1.284647814
H      -2.184050044     -2.026203141     -1.241278842
H       0.624082600     -0.305833757     -1.304982125
H       0.443370503     -1.831335922     -1.291412291
           6
  t=        39.00000    1    1
C      -1.613832166     -0.970482138     -0.777814856
C      -0.382247618     -0.918909442     -1.050588765
H      -2.132559552     -0.238366169     -1.303103091
H      -2.152744371     -2.051336359     -1.234357284
H       0.675721216     -0.371849837     -1.340197284
H       0.387677227     -1.831652581     -1.342215410
           6
  t=        39.50000    1    1
C      -1.629834676     -0.986859761     -0.794357660
C      -0.397778100     -0.924172193     -1.057426437
H      -2.129694398     -0.260008557     -1.319282358
H      -2.117706152     -2.070510862     -1.220984507
H       0.717160516     -0.433601896     -1.371819332
H       0.323984214     -1.831311683     -1.389279875
           6
  t=        40.00000    1    1
C      -1.646766100     -1.004111515     -0.811514050
C      -0.410662247     -0.930016736     -1.064991961
H      -2.131665523     -0.274570746     -1.333850492
H      -2.080032662     -2.083840534     -1.201678801
H       0.747520981     -0.490692696     -1.399153958
H       0.253106807     -1.831208764     -1.432191662
           6
  t=        40.50000    1    1
C      -1.664439800     -1.022226080     -0.829195433
C      -0.420958244     -0.936408505     -1.073364811
H      -2.139377105     -0.281721982     -1.347108998
H      -2.040724585     -2.091528496     -1.177099731
H       0.766213546     -0.542802266     -1.421598462
H       0.176008338     -1.832338214     -1.470701091
           6
  t=        41.00000    1    1
C      -1.682661572     -1.041086173     -0.847332004
C      -0.428813599     -0.943300639     -1.082586734
H      -2.153278317     -0.281821518     -1.358942063
H      -2.000902800     -2.094234875     -1.148136699
H       0.772953755     -0.589689340     -1.438686735
H       0.093986894     -1.835877771     -1.504835007
           6
  t=        41.50000    1    1
C      -1.701237236     -1.060441309     -0.865870844
C      -0.434431758     -0.950640245     -1.092663217
H      -2.173398994     -0.275903065     -1.368799057
H      -1.962116640     -2.093450784     -1.115923464
H       0.767730061     -0.631121058     -1.450140779
H       0.008743598     -1.843150445     -1.534853461
           6
  t=        42.00000    1    1
C      -1.719979045     -1.079893588     -0.884761636
C      -0.438050490     -0.958382146     -1.103568738
H      -2.199378974     -0.265666267     -1.375834758
H      -1.926118822     -2.091705840     -1.081886333
H       0.750862430     -0.666848571     -1.455949073
H      -0.078052903     -1.855455377     -1.561090562
           6
  t=        42.50000    1    1
C      -1.738707815     -1.098933141     -0.903949849
C      -0.439929382     -0.966499066     -1.115254540
H      -2.230564930     -0.253307769     -1.379198832
H      -1.895107853     -2.092439292     -1.047411653
H       0.723000590     -0.696618007     -1.456314932
H      -0.164549097     -1.873810995     -1.584037729
           6
  t=        43.00000    1    1
C      -1.757261766     -1.117024316     -0.923395812
C      -0.440364434     -0.975003289     -1.127659360
H      -2.266217518     -0.241092214     -1.378195387
H      -1.871681956     -2.099340945     -1.013253724
H       0.685228366     -0.720161558     -1.451597220
H      -0.248370634     -1.898766948     -1.604480384
           6
  t=        43.50000    1    1
C      -1.775511385     -1.133721564     -0.943096778
C      -0.439718443     -0.983989559     -1.140727695
H      -2.305641143     -0.230922359     -1.372310232
H      -1.857072175     -2.115102881     -0.979591258
H       0.639286860     -0.737202004     -1.442337058
H      -0.327943412     -1.930185688     -1.622906971
           6
  t=        44.00000    1    1
C      -1.793349503     -1.148759808     -0.963087325
C      -0.438446702     -0.993622227     -1.154407356
H      -2.348118258     -0.224280726     -1.361194274
H      -1.851515761     -2.140637606     -0.946062894
H       0.587744951     -0.747421106     -1.429294237
H      -0.402168472     -1.967190627     -1.639478006
           6
  t=        44.50000    1    1
C      -1.810674417     -1.162095992     -0.983415771
C      -0.437120160     -1.004111934     -1.168624831
H      -2.392855176     -0.222324242     -1.344678603
H      -1.854974395     -2.174821052     -0.912022125
H       0.534469943     -0.750221508     -1.413599558
H      -0.470153738     -2.008349417     -1.654178309
           6
  t=        45.00000    1    1
C      -1.827397753     -1.173875775     -1.004099770
C      -0.436451673     -1.015728966     -1.183275643
H      -2.438978782     -0.225917597     -1.322821026
H      -1.867353878     -2.214845014     -0.876958561
H       0.485030913     -0.744489383     -1.396857326
H      -0.530994491     -2.051763089     -1.666890702
           6
  t=        45.50000    1    1
C      -1.843455901     -1.184345081     -1.025094999
C      -0.437244608     -1.028803084     -1.198241730
H      -2.485594253     -0.235604665     -1.295942642
H      -1.888335238     -2.257060465     -0.840813988
H       0.445910030     -0.728678663     -1.380877286
H      -0.583571985     -2.095223209     -1.677477492
           6
  t=        46.00000    1    1
C      -1.858819490     -1.193771469     -1.046300434
C      -0.440207105     -1.043668438     -1.213430866
H      -2.531828859     -0.251608902     -1.264570059
H      -1.917206650     -2.297776801     -0.804052610
H       0.422328967     -0.701297915     -1.367083519
H      -0.626604452     -2.136518593     -1.685826488
           6
  t=        46.50000    1    1
C      -1.873496886     -1.202402228     -1.067578223
C      -0.445691416     -1.060543092     -1.228818151
H      -2.576866356     -0.273892938     -1.229353868
H      -1.952895907     -2.333785099     -0.767576488
H       0.415558102     -0.661897466     -1.355942801
H      -0.658953714     -2.173800222     -1.691857556
           6
  t=        47.00000    1    1
C      -1.887536691     -1.210440507     -1.088772953
C      -0.453575677     -1.079420849     -1.244448732
H      -2.620009025     -0.302222046     -1.190993360
H      -1.994211196     -2.362712467     -0.732506657
H       0.422113186     -0.611864432     -1.346956370
H      -0.679898021     -2.205941759     -1.695563038
           6
  t=        47.50000    1    1
C      -1.901026063     -1.218029984     -1.109731660
C      -0.463430325     -1.100086748     -1.260394428
H      -2.660710232     -0.336219423     -1.150152469
H      -2.040041699     -2.383118456     -0.699912058
H       0.435775641     -0.554346180     -1.339281540
H      -0.688956259     -2.232462489     -1.697019630
           6
  t=        48.00000    1    1
C      -1.914079542     -1.225268268     -1.130315566
C      -0.474767038     -1.122222613     -1.276704480
H      -2.698561128     -0.375347643     -1.107452253
H      -2.089324549     -2.394291321     -0.670723813
H       0.450181021     -0.493428495     -1.332337670
H      -0.685689514     -2.253153990     -1.696322699
           6
  t=        48.50000    1    1
C      -1.926830554     -1.232241863     -1.150399448
C      -0.487176196     -1.145502798     -1.293378019
H      -2.733226643     -0.418851867     -1.063529697
H      -2.140879357     -2.395979721     -0.645883033
H       0.460311619     -0.433138569     -1.326047033
H      -0.669886613     -2.267844801     -1.693474336
           6
  t=        49.00000    1    1
C      -1.939406394     -1.239067415     -1.169864411
C      -0.500354174     -1.169606543     -1.310359924
H      -2.764381131     -0.465710251     -1.019104874
H      -2.193413246     -2.388265769     -0.626462060
H       0.462912444     -0.376739534     -1.320736186
H      -0.642012165     -2.276643670     -1.688429096
           6
  t=        49.50000    1    1
C      -1.951927740     -1.245880115     -1.188593179
C      -0.514084617     -1.194206247     -1.327562536
H      -2.791672584     -0.514701543     -0.974969698
H      -2.245656080     -2.371608863     -0.613539504
H       0.456207258     -0.326628773     -1.316893224
H      -0.603052144     -2.280207772     -1.681270285
           6
  t=        50.00000    1    1
C      -1.964467883     -1.252830204     -1.206468547
C      -0.528231264     -1.218918200     -1.344874550
H      -2.814714223     -0.564528335     -0.932029918
H      -2.296469634     -2.346802799     -0.608070037
H       0.439366942     -0.284615040     -1.314991299
H      -0.554452741     -2.280013894     -1.672387196
           6
  t=        50.50000    1    1
C      -1.977043018     -1.260066609     -1.223379934
C      -0.542745675     -1.243332371     -1.362186714
H      -2.833219939     -0.613883083     -0.891218647
H      -2.344864968     -2.314801055     -0.610767811
H       0.412181525     -0.252062331     -1.315340402
H      -0.497663284     -2.278163339     -1.662442022
           6
  t=        51.00000    1    1
C      -1.989653550     -1.267714710     -1.239252507
C      -0.557637150     -1.267064900     -1.379408954
H      -2.847061467     -0.661213165     -0.853301256
H      -2.390066986     -2.276997899     -0.621955539
H       0.374863332     -0.229851397     -1.318082251
H      -0.433683803     -2.277013674     -1.652169944
           6
  t=        51.50000    1    1
C      -2.002290578     -1.275874573     -1.254056926
C      -0.572931103     -1.289790051     -1.396469498
H      -2.856032605     -0.705058084     -0.818850178
H      -2.431589370     -2.235093372     -0.641661616
H       0.327831274     -0.218454809     -1.323285230
H      -0.363428969     -2.278541809     -1.642106576
           6
  t=        52.00000    1    1
C      -2.014915115     -1.284605603     -1.267798720
C      -0.588643067     -1.311292785     -1.413320667
H      -2.859959518     -0.744094164     -0.788313016
H      -2.469223357     -2.191132951     -0.669678255
H       0.271540935     -0.218061828     -1.331011610
H      -0.288016413     -2.283691138     -1.632452062
           6
  t=        52.50000    1    1
C      -2.027466048     -1.293906117     -1.280515462
C      -0.604749866     -1.331500111     -1.429946898
H      -2.858959863     -0.776878338     -0.761940823
H      -2.503084302     -2.147732217     -0.705517115
H       0.206444430     -0.228702513     -1.341329125
H      -0.208669636     -2.292148896     -1.623113692
           6
  t=        53.00000    1    1
C      -2.039871087     -1.303719167     -1.292278890
C      -0.621157108     -1.350468190     -1.446361339
H      -2.853426922     -0.801882522     -0.739709437
H      -2.533685239     -2.108040314     -0.748444659
H       0.133108218     -0.250220722     -1.354299439
H      -0.127034886     -2.302459543     -1.613776034
           6
  t=        53.50000    1    1
C      -2.052036026     -1.313938568     -1.303195737
C      -0.637709381     -1.368335092     -1.462587560
H      -2.843839567     -0.817600148     -0.721382054
H      -2.562083178     -2.075759967     -0.797450283
H       0.052401751     -0.282108857     -1.369958101
H      -0.045420104     -2.312554586     -1.604098293
           6
  t=        54.00000    1    1
C      -2.063825526     -1.324413719     -1.313401450
C      -0.654246746     -1.385267256     -1.478635862
H      -2.830532955     -0.822843952     -0.706609499
H      -2.590093551     -2.054863110     -0.851271130
H      -0.034383699     -0.323323667     -1.388311147
H       0.033515602     -2.320503887     -1.593949790
           6
  t=        54.50000    1    1
C      -2.075070822     -1.334989306     -1.323025337
C      -0.670662616     -1.401430129     -1.494485805
H      -2.813580702     -0.816812763     -0.695047342
H      -2.620008325     -2.049025318     -0.908784327
H      -0.125586770     -0.372224490     -1.409350920
H       0.107195427     -2.324952965     -1.583508249
           6
  t=        55.00000    1    1
C      -2.085608198     -1.345528276     -1.332175783
C      -0.686937537     -1.417062156     -1.510075936
H      -2.792911520     -0.799379512     -0.686783663
H      -2.653609139     -2.060670021     -0.968962990
H      -0.219231599     -0.426362721     -1.432764152
H       0.173171285     -2.324845907     -1.573466501
           6
  t=        55.50000    1    1
C      -2.095416426     -1.355923136     -1.340934666
C      -0.703098245     -1.432603108     -1.525356378
H      -2.768324418     -0.771740315     -0.682682121
H      -2.691305602     -2.089777932     -1.030579401
H      -0.312811737     -0.481725898     -1.457434407
H       0.229210939     -2.319059029     -1.564923731
           6
  t=        56.00000    1    1
C      -2.104662940     -1.366255392     -1.349288260
C      -0.719235080     -1.448602891     -1.540356560
H      -2.739374112     -0.736127471     -0.683245277
H      -2.732548160     -2.133334820     -1.093603858
H      -0.402937402     -0.532151135     -1.482254593
H       0.274001373     -2.307013435     -1.558327072
           6
  t=        56.50000    1    1
C      -2.113612379     -1.376793977     -1.357159812
C      -0.735497188     -1.465647026     -1.555134666
H      -2.705648054     -0.694897560     -0.688708297
H      -2.775812204     -2.186725574     -1.158759187
H      -0.485726433     -0.569833250     -1.506528637
H       0.306653755     -2.288591475     -1.553635864
           6
  t=        57.00000    1    1
C      -2.122567972     -1.387867377     -1.364513648
C      -0.751963550     -1.484269493     -1.569726352
H      -2.667149089     -0.650264505     -0.699315261
H      -2.818881547     -2.244993717     -1.226263937
H      -0.557975509     -0.587153898     -1.529791981
H       0.326305734     -2.263877172     -1.550852243
           6
  t=        57.50000    1    1
C      -2.131773460     -1.399766865     -1.371374267
C      -0.768567993     -1.504661443     -1.584130417
H      -2.624328762     -0.604239471     -0.715244581
H      -2.859652976     -2.303625132     -1.295677274
H      -0.618608324     -0.580485107     -1.551940413
H       0.332345172     -2.233253005     -1.550065237
           6
  t=        58.00000    1    1
C      -2.141389942     -1.412683252     -1.377797116
C      -0.785129725     -1.526463632     -1.598315143
H      -2.577983632     -0.558538850     -0.736604898
H      -2.896665649     -2.359175178     -1.366176073
H      -0.668517504     -0.552794479     -1.573241980
H       0.324765763     -2.197486680     -1.551438526
           6
  t=        58.50000    1    1
C      -2.151512105     -1.426700525     -1.383845795
C      -0.801471064     -1.548950110     -1.612247958
H      -2.529100833     -0.514799422     -0.763503449
H      -2.928976187     -2.409130920     -1.436767933
H      -0.709170772     -0.511596823     -1.594059032
H       0.304090025     -2.157588899     -1.555125222
           6
  t=        59.00000    1    1
C      -2.162183231     -1.441836655     -1.389591067
C      -0.817500509     -1.571355844     -1.625912972
H      -2.478875223     -0.474640486     -0.795957108
H      -2.955897909     -2.451519628     -1.506399812
H      -0.741631416     -0.464934372     -1.614698204
H       0.271314876     -2.114772651     -1.561201003
           6
  t=        59.50000    1    1
C      -2.173394353     -1.458043435     -1.395116657
C      -0.833232428     -1.593065435     -1.639309280
H      -2.428627837     -0.439485077     -0.833787404
H      -2.977035194     -2.485051383     -1.574061449
H      -0.766597052     -0.419119890     -1.635363950
H       0.228127704     -2.070499370     -1.569663270
           6
  t=        60.00000    1    1
C      -2.185089238     -1.475204976     -1.400516497
C      -0.848785212     -1.613645366     -1.652455337
H      -2.379939600     -0.410549425     -0.876574961
H      -2.992265429     -2.509033546     -1.638806919
H      -0.784588279     -0.378395553     -1.656184041
H       0.177248066     -2.026549801     -1.580410418
           6
  t=        60.50000    1    1
C      -2.197149279     -1.493149250     -1.405893129
C      -0.864403740     -1.632779346     -1.665387182
H      -2.334611554     -0.388916665     -0.923722369
H      -3.001658213     -2.523176705     -1.699765404
H      -0.796208560     -0.345662532     -1.677223722
H       0.122654697     -1.985047725     -1.593194132
           6
  t=        61.00000    1    1
C      -2.209428714     -1.511702311     -1.411350818
C      -0.880478121     -1.650198991     -1.678150426
H      -2.294387882     -0.375601770     -0.974561616
H      -3.005394324     -2.527378793     -1.756170380
H      -0.801992645     -0.322867795     -1.698578083
H       0.069718850     -1.948403918     -1.607567965
           6
  t=        61.50000    1    1
C      -2.221792232     -1.530710828     -1.416988107
C      -0.897490712     -1.665716144     -1.690798450
H      -2.260627802     -0.371233244     -1.028367577
H      -3.003883685     -2.521927926     -1.807472622
H      -0.802450928     -0.310842017     -1.720324236
H       0.024855349     -1.918940136     -1.622918907
           6
  t=        62.00000    1    1
C      -2.234153324     -1.550052150     -1.422901009
C      -0.915881775     -1.679215663     -1.703383572
H      -2.234441086     -0.376206716     -1.084463601
H      -2.997562497     -2.507232992     -1.853163987
H      -0.797982108     -0.309773842     -1.742461362
H      -0.005775926     -1.898496706     -1.638665092
           6
  t=        62.50000    1    1
C      -2.246482723     -1.569624780     -1.429179290
C      -0.935866735     -1.690684423     -1.715942287
H      -2.216775404     -0.390693934     -1.142218796
H      -2.986865057     -2.483801813     -1.892771546
H      -0.788912691     -0.319378802     -1.764927144
H      -0.018248301     -1.888044308     -1.654468177
           6
  t=        63.00000    1    1
C      -2.258790739     -1.589334748     -1.435902636
C      -0.957281201     -1.700208434     -1.728480084
H      -2.208419400     -0.414613479     -1.201051343
H      -2.972399663     -2.452408901     -1.925929556
H      -0.775518130     -0.339150416     -1.787586863
H      -0.012725346     -1.887491173     -1.670395526
           6
  t=        63.50000    1    1
C      -2.271094617     -1.609076110     -1.443126908
C      -0.979591981     -1.707935267     -1.740977457
H      -2.209897366     -0.447522580     -1.260407645
H      -2.955255283     -2.414410854     -1.952592325
H      -0.758190584     -0.368497705     -1.810237720
H       0.006650473     -1.896018460     -1.686816047
           6
  t=        64.00000    1    1
C      -2.283391107     -1.628725357     -1.450868924
C      -1.002063335     -1.714026107     -1.753415407
H      -2.221484117     -0.488431362     -1.319710887
H      -2.937209176     -2.371934512     -1.973223036
H      -0.737574231     -0.406784896     -1.832626158
H       0.033769860     -1.912676035     -1.704122871
           6
  t=        64.50000    1    1
C      -2.295648174     -1.648159467     -1.459087345
C      -1.023906975     -1.718661516     -1.765799476
H      -2.243256643     -0.535448066     -1.378298245
H      -2.920708908     -2.327829568     -1.988963288
H      -0.714624236     -0.453244681     -1.854503867
H       0.062337828     -1.936587638     -1.722512123
           6
  t=        65.00000    1    1
C      -2.307785570     -1.667252071     -1.467660506
C      -1.044414052     -1.722035070     -1.778156321
H      -2.275189682     -0.585727218     -1.435500987
H      -2.908774698     -2.285670903     -2.001827501
H      -0.690521279     -0.507095479     -1.875622538
H       0.087127395     -1.967004624     -1.742018489
           6
  t=        65.50000    1    1
C      -2.319659880     -1.685874678     -1.476395173
C      -1.063035738     -1.724310138     -1.790514897
H      -2.317264706     -0.635866696     -1.490756024
H      -2.904771463     -2.249551623     -2.014618132
H      -0.666527311     -0.567713155     -1.895717514
H       0.104498358     -2.003444552     -1.762624761
           6
  t=        66.00000    1    1
C      -2.331105225     -1.703942649     -1.485083164
C      -1.079407266     -1.725649159     -1.802894252
H      -2.369172435     -0.682380924     -1.543748614
H      -2.911688263     -2.223253077     -2.030252465
H      -0.643995990     -0.634189763     -1.914475704
H       0.112161151     -2.045592559     -1.784295146
           6
  t=        66.50000    1    1
C      -2.342011677     -1.721445830     -1.493575889
C      -1.093327347     -1.726263550     -1.815302104
H      -2.430110266     -0.722175229     -1.594455436
H      -2.931430146     -2.209503800     -2.050833912
H      -0.624181230     -0.704809236     -1.931523365
H       0.108763769     -2.093132674     -1.807001882
           6
  t=        67.00000    1    1
C      -2.352392801     -1.738458076     -1.501858936
C      -1.104747836     -1.726438053     -1.827729495
H      -2.499063238     -0.753378217     -1.643059156
H      -2.964134729     -2.209103612     -2.076741758
H      -0.607719791     -0.776771255     -1.946632128
H       0.093653594     -2.145663842     -1.830689838
           6
  t=        67.50000    1    1
C      -2.362418736     -1.755088178     -1.510075907
C      -1.113780285     -1.726538257     -1.840139633
H      -2.574426990     -0.775661622     -1.689682012
H      -3.008080727     -2.221220174     -2.106578242
H      -0.594457742     -0.846041196     -1.959894708
H       0.066707581     -2.202728738     -1.855269137
           6
  t=        68.00000    1    1
C      -2.372390465     -1.771408102     -1.518481164
C      -1.120679399     -1.727011953     -1.852477074
H      -2.654334371     -0.790240615     -1.734127738
H      -3.060209580     -2.244086008     -2.137812633
H      -0.582854321     -0.907494625     -1.971810712
H       0.028080648     -2.263810867     -1.880596915
           6
  t=        68.50000    1    1
C      -2.382676999     -1.787416409     -1.527371445
C      -1.125832965     -1.728356501     -1.864689352
H      -2.736887412     -0.799392148     -1.775772514
H      -3.116721172     -2.275596931     -2.167603778
H      -0.569980869     -0.955703689     -1.983171777
H      -0.021836185     -2.328256080     -1.906435837
           6
  t=        69.00000    1    1
C      -2.393637224     -1.803035424     -1.537037687
C      -1.129681486     -1.731010893     -1.876736974
H      -2.820033104     -0.805780794     -1.813637850
H      -3.173694575     -2.313800152     -2.193454917
H      -0.552856109     -0.986402275     -1.994744224
H      -0.082472867     -2.395313357     -1.932498702
           6
  t=        69.50000    1    1
C      -2.405559460     -1.818153126     -1.547728723
C      -1.132573424     -1.735213976     -1.888601104
H      -2.901882218     -0.811862711     -1.846711794
H      -3.227696630     -2.357014595     -2.213493973
H      -0.529941604     -0.998122188     -2.006894300
H      -0.153102550     -2.464164587     -1.958562749
           6
  t=        70.00000    1    1
C      -2.418658044     -1.832664834     -1.559639434
C      -1.134687612     -1.740954376     -1.900292362
H      -2.980680937     -0.819640297     -1.874139814
H      -3.276024262     -2.403847427     -2.226434799
H      -0.501837495     -0.992575165     -2.019466604
H      -0.232897084     -2.533871372     -1.984475337
           6
  t=        70.50000    1    1
C      -2.433083288     -1.846488119     -1.572903323
C      -1.136066391     -1.748045136     -1.911843877
H      -3.054873238     -0.830532857     -1.895302941
H      -3.316770003     -2.453289809     -2.231519070
H      -0.470649447     -0.973710141     -2.031924050
H      -0.320918724     -2.603284199     -2.010165352
           6
  t=        71.00000    1    1
C      -2.448944831     -1.859561033     -1.587591632
C      -1.136700905     -1.756226172     -1.923293360
H      -3.123137890     -0.845484757     -1.909846331
H      -3.348614046     -2.504590182     -2.228406467
H      -0.439065377     -0.946512054     -2.043622628
H      -0.415919681     -2.671062555     -2.035673693
           6
  t=        71.50000    1    1
C      -2.466333087     -1.871839898     -1.603733507
C      -1.136601012     -1.765247597     -1.934669091
H      -3.184301436     -0.865193576     -1.917732710
H      -3.370438874     -2.556974420     -2.216867350
H      -0.409751989     -0.915855492     -2.053933698
H      -0.516329398     -2.735906438     -2.061211661
           6
  t=        72.00000    1    1
C      -2.485270912     -1.883302175     -1.621319487
C      -1.135870449     -1.774925489     -1.946002753
H      -3.237434280     -0.890176944     -1.919100619
H      -3.381263294     -2.609428911     -2.196870290
H      -0.384973196     -0.885878948     -2.062384942
H      -0.620286341     -2.796633449     -2.086879648
           6
  t=        72.50000    1    1
C      -2.505604199     -1.893953501     -1.640306576
C      -1.134777951     -1.785150494     -1.957328123
H      -3.282120194     -0.920692082     -1.914145027
H      -3.380571532     -2.660700600     -2.168845176
H      -0.366395565     -0.859817834     -2.068734878
H      -0.725690059     -2.852239858     -2.112404143
           6
  t=        73.00000    1    1
C      -2.527040637     -1.903811982     -1.660624333
C      -1.133689665     -1.795881268     -1.968668776
H      -3.318599593     -0.956652333     -1.903039194
H      -3.368551164     -2.709654251     -2.133713735
H      -0.354951037     -0.840038426     -2.072982410
H      -0.830300823     -2.901858211     -2.137249700
           6
  t=        73.50000    1    1
C      -2.549239736     -1.912895944     -1.682176683
C      -1.132972389     -1.807120004     -1.980023311
H      -3.347487712     -0.997620368     -1.886072180
H      -3.346028835     -2.755662985     -2.092634263
H      -0.350990224     -0.828184442     -2.075276659
H      -0.932012660     -2.944664466     -2.160981332
           6
  t=        74.00000    1    1
C      -2.571880827     -1.921218659     -1.704845864
C      -1.132951414     -1.818891665     -1.991367178
H      -3.369474516     -1.042876889     -1.863723032
H      -3.314105797     -2.798619357     -2.046738091
H      -0.354573810     -0.825319128     -2.075846509
H      -1.028918588     -2.979966529     -2.183455528
           6
  t=        74.50000    1    1
C      -2.594645164     -1.928804002     -1.728488857
C      -1.133925725     -1.831228548     -2.002667424
H      -3.385558400     -1.091398498     -1.836617180
H      -3.274234392     -2.838712885     -1.997140890
H      -0.365493200     -0.832090560     -2.075015465
H      -1.119011940     -3.007280898     -2.204704490
           6
  t=        75.00000    1    1
C      -2.617224151     -1.935697701     -1.752946981
C      -1.136156254     -1.844169574     -2.013891042
H      -3.397167240     -1.141783071     -1.805416387
H      -3.228156681     -2.876370439     -1.944899639
H      -0.383279373     -0.848758651     -2.073211273
H      -1.200159729     -3.026314245     -2.224865824
           6
  t=        75.50000    1    1
C      -2.639309960     -1.941993197     -1.778049260
C      -1.139855836     -1.857756491     -2.025014352
H      -3.406237995     -1.192091573     -1.770804703
H      -3.177589137     -2.912256985     -1.890982931
H      -0.407267369     -0.875196119     -2.070917877
H      -1.270505427     -3.036857066     -2.244122402
           6
  t=        76.00000    1    1
C      -2.660574616     -1.947866636     -1.803615899
C      -1.145200610     -1.872012570     -2.036024928
H      -3.415264931     -1.239770957     -1.733510146
H      -3.124143172     -2.947022522     -1.836187983
H      -0.436657016     -0.910855047     -2.068598853
H      -1.328552722     -3.038984136     -2.262775876
           6
  t=        76.50000    1    1
C      -2.680687751     -1.953556733     -1.829479372
C      -1.152354434     -1.886929051     -2.046914681
H      -3.427000457     -1.282102007     -1.694103239
H      -3.069259362     -2.980977723     -1.781128057
H      -0.470419369     -0.954656665     -2.066670655
H      -1.373121659     -3.033442686     -2.281318550
           6
  t=        77.00000    1    1
C      -2.699367691     -1.959315547     -1.855506539
C      -1.161490921     -1.902488454     -2.057676155
H      -3.443773447     -1.316976990     -1.652797918
H      -3.013987885     -3.013844854     -1.726349758
H      -0.507133148     -1.004885355     -2.065501954
H      -1.403542099     -3.021538655     -2.300296523
           6
  t=        77.50000    1    1
C      -2.716442548     -1.965369960     -1.881568462
C      -1.172804075     -1.918692733     -2.068303651
H      -3.466673122     -1.343531226     -1.609704162
H      -2.959392110     -3.044675995     -1.672399640
H      -0.544798539     -1.059046699     -2.065417656
H      -1.419397730     -3.004852305     -2.320332657
           6
  t=        78.00000    1    1
C      -2.731872093     -1.971886397     -1.907493177
C      -1.186515783     -1.935579255     -2.078788871
H      -3.495088600     -1.362346650     -1.565307980
H      -2.906552036     -3.072166769     -1.619992320
H      -0.580711491     -1.113775039     -2.066726709
H      -1.420758895     -2.985043422     -2.342065290
           6
  t=        78.50000    1    1
C      -2.745729341     -1.978961059     -1.933046973
C      -1.202852828     -1.953203981     -2.089118617
H      -3.526916492     -1.375149007     -1.520763688
H      -2.856473180     -3.095044074     -1.570086235
H      -0.611558358     -1.164929930     -2.069692902
H      -1.408464837     -2.963986699     -2.366059991
           6
  t=        79.00000    1    1
C      -2.758148048     -1.986646983     -1.957952194
C      -1.221992602     -1.971579644     -2.099281363
H      -3.559325692     -1.384119219     -1.477784108
H      -2.810170646     -3.112323351     -1.523787197
H      -0.633880365     -1.208104041     -2.074427820
H      -1.384082795     -2.944109424     -2.392832340
           6
  t=        79.50000    1    1
C      -2.769270258     -1.994993251     -1.981930604
C      -1.243986425     -1.990544697     -2.109260465
H      -3.589527126     -1.391223828     -1.438228397
H      -2.768678848     -3.123403245     -1.482226551
H      -0.645084450     -1.239951274     -2.080856307
H      -1.349656404     -2.928732567     -2.422980667
           6
  t=        80.00000    1    1
C      -2.779231931     -2.004054860     -2.004734034
C      -1.268695935     -2.009671020     -2.119016026
H      -3.615160295     -1.397953494     -1.403792192
H      -2.732940441     -3.127998727     -1.446462595
H      -0.644673496     -1.259796558     -2.088833719
H      -1.307129291     -2.921771619     -2.457328208
           6
  t=        80.50000    1    1
C      -2.788189857     -2.013864041     -2.026167402
C      -1.295817390     -2.028404114     -2.128504721
H      -3.634447866     -1.405313304     -1.375787891
H      -2.703634575     -3.126067067     -1.417334411
H      -0.634505365     -1.269779297     -2.098211681
H      -1.257492762     -2.926347966     -2.496712615
           6
  t=        81.00000    1    1
C      -2.796308510     -2.024424507     -2.046096144
C      -1.324931369     -2.046346884     -2.137760478
H      -3.646353633     -1.413801520     -1.355060021
H      -2.681176045     -3.117913823     -1.395392501
H      -0.618002573     -1.273552374     -2.108820607
H      -1.200983610     -2.942692339     -2.541107604
           6
  t=        81.50000    1    1
C      -2.803748902     -2.035715212     -2.064440063
C      -1.355542172     -2.063400791     -2.146931927
H      -3.650351570     -1.423650458     -1.342121876
H      -2.665528373     -3.104042373     -1.381052314
H      -0.598950957     -1.274683192     -2.120399526
H      -1.138366517     -2.967926560     -2.589029980
           6
  t=        82.00000    1    1
C      -2.810655901     -2.047694743     -2.081165630
C      -1.387091629     -2.079684620     -2.156234722
H      -3.646297578     -1.434920704     -1.337256539
H      -2.656410711     -3.085197257     -1.374571722
H      -0.580810128     -1.275928892     -2.132705515
H      -1.071531601     -2.997566429     -2.638011559
           6
  t=        82.50000    1    1
C      -2.817160748     -2.060310864     -2.096280301
C      -1.419005551     -2.095385732     -2.165888312
H      -3.634324228     -1.447556648     -1.340560334
H      -2.653549359     -3.062352048     -1.375927886
H      -0.566282887     -1.279028935     -2.145508436
H      -1.003195208     -3.027344420     -2.685505265
           6
  t=        83.00000    1    1
C      -2.823398703     -2.073498815     -2.109823387
C      -1.450738069     -2.110654798     -2.176079338
H      -3.614746845     -1.461409688     -1.351984023
H      -2.656659713     -3.036774862     -1.384855679
H      -0.557246382     -1.284877216     -2.158575229
H      -0.936342170     -3.054223432     -2.729366159
           6
  t=        83.50000    1    1
C      -2.829519602     -2.087178071     -2.121859027
C      -1.481780341     -2.125568024     -2.186958894
H      -3.588140844     -1.476145791     -1.371340908
H      -2.665474463     -3.010181671     -1.400766546
H      -0.554959885     -1.293897144     -2.171674999
H      -0.873682877     -3.076449587     -2.768035754
           6
  t=        84.00000    1    1
C      -2.835685057     -2.101248483     -2.132485810
C      -1.511660615     -2.140125543     -2.198646451
H      -3.555471393     -1.491075712     -1.398232868
H      -2.679766516     -2.984918766     -1.422589268
H      -0.560316865     -1.306343520     -2.184597528
H      -0.817281331     -3.093302777     -2.800595250
           6
  t=        84.50000    1    1
C      -2.842057568     -2.115597522     -2.141842195
C      -1.539929716     -2.154281696     -2.211237610
H      -3.518113584     -1.505071698     -1.431975200
H      -2.699425239     -2.963926671     -1.448803731
H      -0.574031132     -1.322407324     -2.197209889
H      -0.768575190     -3.104664195     -2.826593426
           6
  t=        85.00000    1    1
C      -2.848785278     -2.130107448     -2.150128909
C      -1.566180803     -2.167991816     -2.224796840
H      -3.477782985     -1.516750673     -1.471411638
H      -2.724501062     -2.950286265     -1.477534314
H      -0.596536735     -1.342113310     -2.209493221
H      -0.728446970     -3.110746448     -2.845921051
           6
  t=        85.50000    1    1
C      -2.855989336     -2.144681075     -2.157597223
C      -1.590033210     -2.181237609     -2.239379502
H      -3.436493794     -1.524512538     -1.514864140
H      -2.755314089     -2.946890420     -1.506751819
H      -0.627968184     -1.365255107     -2.221493345
H      -0.697520167     -3.111839192     -2.858585785
           6
  t=        86.00000    1    1
C      -2.863748661     -2.159288328     -2.164537727
C      -1.611133793     -2.194030147     -2.255040117
H      -3.396635615     -1.526239867     -1.560023457
H      -2.792400638     -2.956248685     -1.534569153
H      -0.668132741     -1.391353435     -2.233266823
H      -0.676329199     -3.108255973     -2.864615210
           6
  t=        86.50000    1    1
C      -2.872086211     -2.174017244     -2.171222615
C      -1.629201130     -2.206398462     -2.271820703
H      -3.360613185     -1.519302954     -1.604246882
H      -2.836495741     -2.979971531     -1.559751214
H      -0.716519248     -1.419648808     -2.244862040
H      -0.665325187     -3.100380587     -2.864094680
           6
  t=        87.00000    1    1
C      -2.880984200     -2.189072471     -2.177817131
C      -1.644079449     -2.218392175     -2.289736859
H      -3.330095220     -1.501250085     -1.645323883
H      -2.888417856     -3.018114360     -1.582154962
H      -0.772316099     -1.449090139     -2.256323053
H      -0.664900644     -3.088630626     -2.857178855
           6
  t=        87.50000    1    1
C      -2.890425284     -2.204695088     -2.184334852
C      -1.655789615     -2.230114318     -2.308757568
H      -3.305629131     -1.470850954     -1.682132849
H      -2.948478678     -3.068756866     -1.602809392
H      -0.834317431     -1.478304705     -2.267701094
H      -0.675360376     -3.073429119     -2.844116923
           6
  t=        88.00000    1    1
C      -2.900442184     -2.221064753     -2.190623612
C      -1.664547250     -2.241758976     -2.328798005
H      -3.286794644     -1.428781802     -1.714991286
H      -3.015915553     -3.128201537     -1.623750885
H      -0.900621880     -1.505376869     -2.279055681
H      -0.696829492     -3.055259594     -2.825319388
           6
  t=        88.50000    1    1
C      -2.911130747     -2.238236456     -2.196425742
C      -1.670732774     -2.253615714     -2.349753882
H      -3.272454403     -1.377902263     -1.745346695
H      -3.089245898     -3.191779015     -1.647289371
H      -0.968324441     -1.527240653     -2.290334542
H      -0.729157917     -3.034892110     -2.801394054
           6
  t=        89.00000    1    1
C      -2.922620680     -2.256136531     -2.201494769
C      -1.674775738     -2.266051628     -2.371555007
H      -3.261308444     -1.322733086     -1.774961864
H      -3.167212175     -3.254937832     -1.674962653
H      -1.033728622     -1.539491357     -2.301220029
H      -0.771935684     -3.013265702     -2.773131248
           6
  t=        89.50000    1    1
C      -2.934972973     -2.274606537     -2.205665671
C      -1.677199613     -2.279441968     -2.394117711
H      -3.252295758     -1.267712567     -1.805264546
H      -3.248488094     -3.314320299     -1.707706421
H      -1.093302374     -1.537318573     -2.311446489
H      -0.824117906     -2.991526718     -2.741396522
           6
  t=        90.00000    1    1
C      -2.948168422     -2.293480398     -2.208872906
C      -1.678574102     -2.293978901     -2.417304732
H      -3.244781789     -1.216782225     -1.837057453
H      -3.331557438     -3.367199396     -1.746046939
H      -1.144982420     -1.517305236     -2.320938026
H      -0.883359057     -2.971566836     -2.707353317
           6
  t=        90.50000    1    1
C      -2.962114334     -2.312605702     -2.211122781
C      -1.679427603     -2.309464846     -2.440906332
H      -3.238647869     -1.173208557     -1.870734357
H      -3.414926274     -3.411391208     -1.790115848
H      -1.189256894     -1.479428230     -2.329927817
H      -0.945591893     -2.956497025     -2.672667076
           6
  t=        91.00000    1    1
C      -2.976651688     -2.331837865     -2.212485041
C      -1.680364696     -2.325219400     -2.464619437
H      -3.234179347     -1.139648241     -1.906417390
H      -3.497111284     -3.445167446     -1.839717199
H      -1.228478187     -1.427659991     -2.339117853
H      -1.004352844     -2.951246705     -2.639489889
           6
  t=        91.50000    1    1
C      -2.991617199     -2.351038006     -2.213078669
C      -1.682121970     -2.340212565     -2.488126905
H      -3.232027328     -1.118252016     -1.944008989
H      -3.576720034     -3.467202413     -1.894324295
H      -1.265075113     -1.368222574     -2.349420812
H      -1.051123139     -2.962696774     -2.609894538
           6
  t=        92.00000    1    1
C      -3.006898099     -2.370063397     -2.213044338
C      -1.685335956     -2.353412187     -2.511238602
H      -3.233144232     -1.110809726     -1.983236355
H      -3.652558694     -3.476617143     -1.953174605
H      -1.300529089     -1.307638930     -2.361711805
H      -1.078421764     -2.997412903     -2.584630612
           6
  t=        92.50000    1    1
C      -3.022409769     -2.388763433     -2.212538873
C      -1.690176604     -2.364298923     -2.533943390
H      -3.238575630     -1.118674854     -2.023734350
H      -3.723663613     -3.473181843     -2.015353042
H      -1.335221793     -1.251412592     -2.376631376
H      -1.084768352     -3.056750753     -2.562601824
           6
  t=        93.00000    1    1
C      -3.038099743     -2.406996119     -2.211760278
C      -1.696265558     -2.373084759     -2.556264477
H      -3.249179696     -1.142445526     -2.065091932
H      -3.789151870     -3.457362101     -2.079727122
H      -1.368866838     -1.203882626     -2.394504590
H      -1.075607584     -3.134473566     -2.542390744
           6
  t=        93.50000    1    1
C      -3.053957767     -2.424685761     -2.210937033
C      -1.703052059     -2.380379464     -2.578128413
H      -3.265327602     -1.181602590     -2.106781424
H      -3.848094185     -3.429980668     -2.145143997
H      -1.401156801     -1.167708077     -2.415481101
H      -1.058489817     -3.221254835     -2.523680977
           6
  t=        94.00000    1    1
C      -3.069961144     -2.441827702     -2.210296694
C      -1.710170924     -2.386772283     -2.599394776
H      -3.287067777     -1.234560383     -2.148209122
H      -3.899836363     -3.392254604     -2.210555755
H      -1.431612279     -1.144664179     -2.439665111
H      -1.039122099     -3.308722145     -2.506971628
           6
  t=        94.50000    1    1
C      -3.086042098     -2.458451011     -2.210044185
C      -1.717477006     -2.392687119     -2.619916431
H      -3.314221652     -1.299221656     -2.188864856
H      -3.944072005     -3.345727193     -2.275064988
H      -1.459761733     -1.135679184     -2.467051407
H      -1.020998028     -3.391103776     -2.492986950
           6
  t=        95.00000    1    1
C      -3.102099911     -2.474630019     -2.210353899
C      -1.724970409     -2.398413028     -2.639569798
H      -3.346389588     -1.372919064     -2.228374833
H      -3.980839630     -3.292265587     -2.337926704
H      -1.485122114     -1.140863729     -2.497517205
H      -1.006160675     -3.464759259     -2.482363015
           6
  t=        95.50000    1    1
C      -3.118026202     -2.490505037     -2.211364496
C      -1.732721332     -2.404153814     -2.658270387
H      -3.383108166     -1.452150949     -2.266433460
H      -4.010444002     -3.233975959     -2.398569826
H      -1.507182064     -1.159703494     -2.530885068
H      -0.995735021     -3.527498047     -2.475508442
           6
  t=        96.00000    1    1
C      -3.133675821     -2.506307546     -2.213187855
C      -1.740832677     -2.410100464     -2.675983384
H      -3.424240749     -1.532218436     -2.302811886
H      -4.033364700     -3.173003466     -2.456513495
H      -1.525476455     -1.191116554     -2.566808600
H      -0.990346660     -3.577921797     -2.472561085
           6
  t=        96.50000    1    1
C      -3.148824925     -2.522357894     -2.215901334
C      -1.749432311     -2.416474295     -2.692730017
H      -3.470153859     -1.606552884     -2.337399213
H      -4.050503017     -3.112068536     -2.511444618
H      -1.539602491     -1.233362155     -2.604702240
H      -0.990274170     -3.615165155     -2.473355753
           6
  t=        97.00000    1    1
C      -3.163177785     -2.538970148     -2.219539943
C      -1.758659853     -2.423494423     -2.708526269
H      -3.521635015     -1.668330252     -2.370395953
H      -4.063242420     -3.054228690     -2.563280790
H      -1.549117576     -1.284310586     -2.644000695
H      -0.995649352     -3.638771121     -2.477732029
           6
  t=        97.50000    1    1
C      -3.176463683     -2.556320576     -2.224090083
C      -1.768625023     -2.431359714     -2.723380821
H      -3.579446148     -1.712783949     -2.402258347
H      -4.073102113     -3.002191253     -2.612157590
H      -1.553653384     -1.341484362     -2.684238641
H      -1.006477777     -3.648806474     -2.485622022
           6
  t=        98.00000    1    1
C      -3.188527854     -2.574321768     -2.229536242
C      -1.779396718     -2.440280658     -2.737300281
H      -3.643402156     -1.738571011     -2.433207577
H      -4.081593507     -2.958375275     -2.658342755
H      -1.552868251     -1.402079828     -2.724983918
H      -1.022797975     -3.645532209     -2.497075059
           6
  t=        98.50000    1    1
C      -3.199416315     -2.592640097     -2.235929880
C      -1.791020106     -2.450524999     -2.750287064
H      -3.711614275     -1.747583945     -2.462752464
H      -4.089898976     -2.924934555     -2.701957606
H      -1.546292588     -1.462458961     -2.765850702
H      -1.044699393     -3.629325078     -2.512204861
           6
  t=        99.00000    1    1
C      -3.209391028     -2.610837345     -2.243378186
C      -1.803532243     -2.462412186     -2.762347283
H      -3.780587039     -1.743609507     -2.489746033
H      -4.098582763     -2.903484083     -2.742922556
H      -1.533345279     -1.517923897     -2.806682377
H      -1.072131386     -3.600896399     -2.531044563
           6
  t=        99.50000    1    1
C      -3.218791638     -2.628520799     -2.251979995
C      -1.816975333     -2.476253322     -2.773481928
H      -3.846527715     -1.730582441     -2.512854178
H      -4.107639406     -2.894898876     -2.781227938
H      -1.513501260     -1.563673442     -2.847730525
H      -1.104867206     -3.561210076     -2.553496855
           6
  t=       100.00000    1    1
C      -3.227886615     -2.645406636     -2.261797571
C      -1.831413340     -2.492221466     -2.783670687
H      -3.906506574     -1.711867612     -2.531041966
H      -4.116626401     -2.899191850     -2.817000793
H      -1.486533921     -1.596429164     -2.889594564
H      -1.142544517     -3.511486549     -2.579370310
           6
  t=       100.50000    1    1
C      -3.236893280     -2.661303085     -2.272886492
C      -1.846870944     -2.510155951     -2.792915334
H      -3.958552345     -1.690272127     -2.543722959
H      -4.124775612     -2.915825618     -2.850060988
H      -1.453042334     -1.616148466     -2.932690459
H      -1.184420069     -3.453698255     -2.608332183
           6
  t=       101.00000    1    1
C      -3.245976146     -2.676108710     -2.285270751
C      -1.863327641     -2.529549416     -2.801283291
H      -4.001676329     -1.667908581     -2.550785489
H      -4.131248090     -2.943885373     -2.880065562
H      -1.414710828     -1.625711284     -2.976924313
H      -1.228921220     -3.391021695     -2.639841690
           6
  t=       101.50000    1    1
C      -3.255274635     -2.689777910     -2.298968034
C      -1.880791458     -2.549587848     -2.808927379
H      -4.035494128     -1.646231455     -2.552419052
H      -4.135240035     -2.982464027     -2.906418310
H      -1.374159975     -1.629315727     -3.021573709
H      -1.272858610     -3.328954233     -2.672996278
           6
  t=       102.00000    1    1
C      -3.264888473     -2.702286253     -2.313982611
C      -1.899459158     -2.569218570     -2.816075618
H      -4.060005573     -1.626465796     -2.548955744
H      -4.136062274     -3.030622616     -2.928498182
H      -1.334228426     -1.630913502     -3.065522712
H      -1.310550087     -3.276092570     -2.706432942
           6
  t=       102.50000    1    1
C      -3.274886096     -2.713606717     -2.330298901
C      -1.919732684     -2.587332742     -2.822970120
H      -4.075314473     -1.609974702     -2.540781285
H      -4.133207957     -3.087328271     -2.945802319
H      -1.297371642     -1.633624182     -3.107542077
H      -1.334338344     -3.242521484     -2.738798778
           6
  t=       103.00000    1    1
C      -3.285331908     -2.723715395     -2.347873215
C      -1.941944588     -2.603130725     -2.829783304
H      -4.081470076     -1.598261643     -2.528338004
H      -4.126375853     -3.151449037     -2.957983934
H      -1.265516259     -1.639525375     -3.146534310
H      -1.337818721     -3.235604925     -2.769561839
           6
  t=       103.50000    1    1
C      -3.296267092     -2.732602918     -2.366630128
C      -1.966019069     -2.616437241     -2.836588130
H      -4.078603525     -1.592738802     -2.512135861
H      -4.115469530     -3.221742277     -2.964933822
H      -1.240226915     -1.649710348     -3.181649399
H      -1.319804390     -3.256280292     -2.799200772
           6
  t=       104.00000    1    1
C      -3.307720708     -2.740276627     -2.386485634
C      -1.991358166     -2.627680007     -2.843401011
H      -4.067011755     -1.594436402     -2.492703259
H      -4.100510180     -3.297115106     -2.966632525
H      -1.222721698     -1.664554118     -3.212252281
H      -1.285537946     -3.299051228     -2.828647086
           6
  t=       104.50000    1    1
C      -3.319739559     -2.746770272     -2.407344695
C      -2.017030764     -2.637586539     -2.850248023
H      -4.047235835     -1.604234869     -2.470672254
H      -4.081577348     -3.376339473     -2.963017870
H      -1.213854232     -1.684062208     -3.237901329
H      -1.244082336     -3.355188826     -2.858594271
           6
  t=       105.00000    1    1
C      -3.332367285     -2.752166858     -2.429095589
C      -2.042196978     -2.646781837     -2.857191378
H      -4.020087660     -1.622704178     -2.446810881
H      -4.058814020     -3.457983995     -2.954031215
H      -1.214197887     -1.708155434     -3.258286917
H      -1.203397117     -3.417197299     -2.889232503
           6
  t=       105.50000    1    1
C      -3.345647062     -2.756591445     -2.451631091
C      -2.066243986     -2.655678797     -2.864320341
H      -3.986551799     -1.650057780     -2.421847172
H      -4.032331406     -3.540510489     -2.939580646
H      -1.224176514     -1.736752693     -3.273173469
H      -1.168750359     -3.480072419     -2.920375226
           6
  t=       106.00000    1    1
C      -3.359586791     -2.760222876     -2.474840822
C      -2.088770576     -2.664530126     -2.871738809
H      -3.947858730     -1.686151515     -2.396478138
H      -4.002257581     -3.622163328     -2.919603916
H      -1.244000357     -1.769663391     -3.282405965
H      -1.143259824     -3.540762333     -2.951619968
           6
  t=       106.50000    1    1
C      -3.374149231     -2.763296508     -2.498618543
C      -2.109534967     -2.673486792     -2.879548795
H      -3.905529094     -1.730294899     -2.371310401
H      -3.968744594     -3.701079685     -2.894077872
H      -1.273683566     -1.806560385     -3.285878353
H      -1.128563445     -3.597544159     -2.982539643
           6
  t=       107.00000    1    1
C      -3.389233191     -2.766144540     -2.522864906
C      -2.128418840     -2.682650031     -2.887834098
H      -3.861565815     -1.780733329     -2.346754987
H      -3.932060975     -3.775346117     -2.863097697
H      -1.312908132     -1.846922713     -3.283620702
H      -1.125323345     -3.649442270     -3.012783269
           6
  t=       107.50000    1    1
C      -3.404657577     -2.769229473     -2.547501002
C      -2.145407094     -2.692112724     -2.896647678
H      -3.818687194     -1.834145080     -2.322757998
H      -3.892697650     -3.843085931     -2.826958234
H      -1.360794630     -1.889895906     -3.275950756
H      -1.133547546     -3.695891771     -3.042101334
           6
  t=       108.00000    1    1
C      -3.420170364     -2.773142133     -2.572499003
C      -2.160564182     -2.702003597     -2.906007435
H      -3.780306333     -1.885490209     -2.298410504
H      -3.851354703     -3.902570859     -2.786152200
H      -1.415735761     -1.934116652     -3.263575872
H      -1.152965195     -3.736450246     -3.070321008
           6
  t=       108.50000    1    1
C      -3.435505992     -2.778512942     -2.597899440
C      -2.174030468     -2.712521493     -2.915896807
H      -3.749841355     -1.928860896     -2.271793697
H      -3.808850326     -3.952410461     -2.741324181
H      -1.475291135     -1.977466561     -3.247613349
H      -1.183272157     -3.770653090     -3.097313598
           6
  t=       109.00000    1    1
C      -3.450462554     -2.785850138     -2.623779070
C      -2.186049848     -2.723976617     -2.926257475
H      -3.729717920     -1.959373967     -2.240459139
H      -3.766029165     -3.991606668     -2.693215748
H      -1.535933083     -2.016639629     -3.229664356
H      -1.224225482     -3.797935261     -3.122965091
           6
  t=       109.50000    1    1
C      -3.464957655     -2.795361896     -2.650143647
C      -2.196988881     -2.736816507     -2.936987009
H      -3.720633782     -1.975480747     -2.202778295
H      -3.723781193     -4.019459225     -2.642617500
H      -1.592872319     -2.046744037     -3.211814500
H      -1.275640714     -3.817624243     -3.147179804
           6
  t=       110.00000    1    1
C      -3.479041556     -2.806897966     -2.676824787
C      -2.207250478     -2.751555188     -2.947977513
H      -3.721581541     -1.979795561     -2.159203387
H      -3.683112319     -4.035559092     -2.590331345
H      -1.640923748     -2.061906712     -3.196191922
H      -1.337304585     -3.829053186     -3.169867516
           6
  t=       110.50000    1    1
C      -3.492851836     -2.820104186     -2.703497365
C      -2.217109114     -2.768597376     -2.959188062
H      -3.730650042     -1.977179097     -2.112114432
H      -3.645092496     -4.039832492     -2.537132334
H      -1.676426911     -2.057237072     -3.184052028
H      -1.408808858     -3.831723379     -3.190979488
           6
  t=       111.00000    1    1
C      -3.506580832     -2.834595862     -2.729750478
C      -2.226556729     -2.787995831     -2.970710666
H      -3.745781968     -1.972486901     -2.064882005
H      -3.610721243     -4.032528324     -2.483800860
H      -1.699184961     -2.031685393     -3.174934053
H      -1.489212405     -3.825535341     -3.210625336
           6
  t=       111.50000    1    1
C      -3.520414613     -2.850008522     -2.755181364
C      -2.235404503     -2.809330989     -2.982707411
H      -3.765053240     -1.969523890     -2.021057570
H      -3.580665845     -4.014457822     -2.431058932
H      -1.712310701     -1.989296058     -3.166943502
H      -1.576691978     -3.811170826     -3.229293902
           6
  t=       112.00000    1    1
C      -3.534572692     -2.866052813     -2.779439592
C      -2.243410511     -2.831921828     -2.995298584
H      -3.786823507     -1.970900025     -1.983864335
H      -3.555242358     -3.986597585     -2.379503565
H      -1.719766383     -1.936892266     -3.158088338
H      -1.668876693     -3.789782766     -3.247899321
           6
  t=       112.50000    1    1
C      -3.549166652     -2.882568273     -2.802213368
C      -2.250452817     -2.854816682     -3.008506300
H      -3.809695669     -1.978037841     -1.955118972
H      -3.535889654     -3.950993631     -2.330578163
H      -1.724732372     -1.881619829     -3.148315681
H      -1.762667768     -3.764008542     -3.266686112
           6
  t=       113.00000    1    1
C      -3.564052041     -2.899429501     -2.823271188
C      -2.256796738     -2.876892653     -3.022278803
H      -3.832703659     -1.991481013     -1.935669758
H      -3.524147450     -3.910310079     -2.285871215
H      -1.729329725     -1.829545447     -3.138212540
H      -1.853930292     -3.739447999     -3.286005742
           6
  t=       113.50000    1    1
C      -3.578948218     -2.916356157     -2.842614661
C      -2.263048128     -2.897240294     -3.036427690
H      -3.855780488     -2.011148810     -1.925937113
H      -3.519294430     -3.866997032     -2.245311581
H      -1.734881719     -1.784575923     -3.127465668
H      -1.938254192     -3.724002047     -3.308047951
           6
  t=       114.00000    1    1
C      -3.593734730     -2.933085520     -2.860220249
C      -2.269729914     -2.914935757     -3.050608262
H      -3.878846275     -2.036623421     -1.926423936
H      -3.520625845     -3.823293077     -2.208877237
H      -1.742164628     -1.749606202     -3.116324894
H      -2.010852044     -3.727093776     -3.336469832
           6
  t=       114.50000    1    1
C      -3.608351847     -2.949388260     -2.876095121
C      -2.277134459     -2.929349913     -3.064515473
H      -3.901704974     -2.067213608     -1.937345585
H      -3.527668597     -3.781604406     -2.176354449
H      -1.751612959     -1.726562532     -3.105320490
H      -2.069186532     -3.755311072     -3.374288897
           6
  t=       115.00000    1    1
C      -3.622748344     -2.965103228     -2.890261365
C      -2.285278011     -2.940565416     -3.078097946
H      -3.924234262     -2.101895241     -1.958736502
H      -3.540004202     -3.744176274     -2.147425715
H      -1.763330197     -1.716329635     -3.094887030
H      -2.114111731     -3.807483420     -3.421702609
           6
  t=       115.50000    1    1
C      -3.636891906     -2.980141640     -2.902721781
C      -2.294034822     -2.949270455     -3.091564347
H      -3.946443657     -2.139365673     -1.990579498
H      -3.557158451     -3.712856297     -2.122002258
H      -1.777195771     -1.718991791     -3.085308287
H      -2.148096346     -3.875839244     -3.476013423
           6
  t=       116.00000    1    1
C      -3.650765619     -2.994458438     -2.913487735
C      -2.303267470     -2.956279861     -3.105194608
H      -3.968530503     -2.178228049     -2.032729602
H      -3.578598695     -3.689111998     -2.100051382
H      -1.793104620     -1.734309712     -3.076835024
H      -2.173419746     -3.951374820     -3.533677209
           6
  t=       116.50000    1    1
C      -3.664319285     -3.008067054     -2.922596263
C      -2.312882659     -2.962269801     -3.119219987
H      -3.990897773     -2.216958325     -2.084751589
H      -3.603946402     -3.674095728     -2.081597709
H      -1.810940578     -1.761892640     -3.069837196
H      -2.191883492     -4.026635558     -3.591537748
           6
  t=       117.00000    1    1
C      -3.677484018     -3.021041311     -2.930132817
C      -2.322825305     -2.967737549     -3.133790573
H      -4.014152773     -2.253874095     -2.145763086
H      -3.632935536     -3.668621835     -2.066624916
H      -1.830455163     -1.801161926     -3.064801990
H      -2.204871990     -4.096263144     -3.647199879
           6
  t=       117.50000    1    1
C      -3.690195563     -3.033519841     -2.936224303
C      -2.333073415     -2.973051718     -3.148995316
H      -4.038997804     -2.287048896     -2.214334374
H      -3.665438891     -3.673036128     -2.055185809
H      -1.851228257     -1.851275064     -3.062250255
H      -2.213257948     -4.156636569     -3.698947622
           6
  t=       118.00000    1    1
C      -3.702366345     -3.045715543     -2.941038301
C      -2.343657600     -2.978512940     -3.164870839
H      -4.066257497     -2.314068383     -2.288352868
H      -3.701540480     -3.687209602     -2.047512870
H      -1.872665555     -1.910932267     -3.062736705
H      -2.217405816     -4.205479929     -3.745673141
           6
  t=       118.50000    1    1
C      -3.713865815     -3.057930258     -2.944820321
C      -2.354662475     -2.984426653     -3.181405286
H      -4.097029519     -2.332021275     -2.364876555
H      -3.741349025     -3.710396111     -2.043974064
H      -1.893860600     -1.977878888     -3.066766971
H      -2.217562970     -4.241469131     -3.786660701
           6
  t=       119.00000    1    1
C      -3.724536418     -3.070522338     -2.947798150
C      -2.366219059     -2.991134111     -3.198572425
H      -4.132701204     -2.337858217     -2.440949427
H      -3.784950493     -3.741358111     -2.045273679
H      -1.913380180     -2.048697898     -3.074674837
H      -2.214005539     -4.263971843     -3.821426588
           6
  t=       119.50000    1    1
C      -3.734270487     -3.083798250     -2.950123654
C      -2.378512934     -2.999075272     -3.216362552
H      -4.174473781     -2.329501028     -2.514541967
H      -3.832193053     -3.778476803     -2.052226853
H      -1.928892610     -2.118267909     -3.086344451
H      -2.207087377     -4.272912280     -3.849607067
           6
  t=       120.00000    1    1
C      -3.743091073     -3.097877962     -2.951806892
C      -2.391782960     -3.008792032     -3.234800874
H      -4.222487686     -2.307109188     -2.585321919
H      -3.882713747     -3.820078280     -2.065676076
H      -1.937093174     -2.179917826     -3.101171748
H      -2.197214891     -4.268589393     -3.870875753
           6
  t=       120.50000    1    1
C      -3.751178206     -3.112633625     -2.952763700
C      -2.406278255     -3.020811793     -3.253928939
H      -4.275410494     -2.273570209     -2.654247840
H      -3.935877222     -3.864524034     -2.086345426
H      -1.934386731     -2.226969659     -3.118203118
H      -2.184837401     -4.251671230     -3.885011422
           6
  t=       121.00000    1    1
C      -3.758826197     -3.127759656     -2.952902777
C      -2.422120001     -3.035412483     -3.273763118
H      -4.330780657     -2.233637643     -2.722526568
H      -3.990896525     -3.910232514     -2.114753821
H      -1.918587712     -2.255678602     -3.136659556
H      -2.170438123     -4.223060110     -3.891960154
           6
  t=       121.50000    1    1
C      -3.766360214     -3.142901386     -2.952196865
C      -2.439181996     -3.052464389     -3.294264330
H      -4.385748078     -2.192471001     -2.790767655
H      -4.046986651     -3.955699693     -2.151148862
H      -1.890493293     -2.267186626     -3.156403504
H      -2.154484145     -4.183730335     -3.891792849
           6
  t=       122.00000    1    1
C      -3.774050204     -3.157765731     -2.950706751
C      -2.457112677     -3.071485821     -3.315326250
H      -4.437790403     -2.154312219     -2.858786359
H      -4.103446302     -3.999715915     -2.195521073
H      -1.853811733     -2.266441508     -3.177965320
H      -2.137463353     -4.134933803     -3.884715969
           6
  t=       122.50000    1    1
C      -3.782081848     -3.172168749     -2.948547590
C      -2.475488538     -3.091878688     -3.336813188
H      -4.485167564     -2.122043188     -2.925942115
H      -4.159665845     -4.041304933     -2.247624726
H      -1.813272013     -2.259144794     -3.201962636
H      -2.119830359     -4.078381769     -3.871242853
           6
  t=       123.00000    1    1
C      -3.790577177     -3.186008468     -2.945865486
C      -2.493945347     -3.113014190     -3.358555232
H      -4.526729736     -2.097491299     -2.991370275
H      -4.215095055     -4.079712653     -2.307076555
H      -1.773356991     -2.250034231     -3.228822255
H      -2.101688302     -4.016970819     -3.852478323
           6
  t=       123.50000    1    1
C      -3.799623239     -3.199238312     -2.942828033
C      -2.512261968     -3.134223196     -3.380328758
H      -4.561699481     -2.081815210     -3.054165420
H      -4.269208770     -4.114345472     -2.373295048
H      -1.737692702     -2.242443156     -3.258658233
H      -2.082311523     -3.955330719     -3.830462874
           6
  t=       124.00000    1    1
C      -3.809270034     -3.211849015     -2.939614653
C      -2.530423024     -3.154791980     -3.401842926
H      -4.589549578     -2.075744906     -3.113527444
H      -4.321523448     -4.144759881     -2.445516772
H      -1.708870430     -2.238330998     -3.291311678
H      -2.059706946     -3.899830478     -3.808246564
           6
  t=       124.50000    1    1
C      -3.819534097     -3.223850331     -2.936406459
C      -2.548615849     -3.174023640     -3.422780648
H      -4.609933892     -2.079780719     -3.168753988
H      -4.371602327     -4.170588238     -2.522916083
H      -1.688641238     -2.238606417     -3.326458988
H      -2.030477140     -3.857616584     -3.789301236
           6
  t=       125.00000    1    1
C      -3.830397183     -3.235270942     -2.933390135
C      -2.567119284     -3.191416665     -3.442911640
H      -4.622769664     -2.094046827     -3.219238601
H      -4.419069123     -4.191629321     -2.604543730
H      -1.678085030     -2.243450618     -3.363672309
H      -1.990896083     -3.834218970     -3.776129962
           6
  t=       125.50000    1    1
C      -3.841847972     -3.246153024     -2.930745986
C      -2.586034303     -3.206870433     -3.462217237
H      -4.628128414     -2.118395513     -3.264463192
H      -4.463514754     -4.207786391     -2.689372086
H      -1.677830156     -2.252643072     -3.402483511
H      -1.939604700     -3.830799014     -3.768820530
           6
  t=       126.00000    1    1
C      -3.853900275     -3.256542345     -2.928645707
C      -2.605127793     -3.220665581     -3.480862230
H      -4.626111397     -2.152576170     -3.303920001
H      -4.504446336     -4.218982944     -2.776389151
H      -1.688258868     -2.265811064     -3.442501505
H      -1.879225521     -3.844167243     -3.765274347
           6
  t=       126.50000    1    1
C      -3.866591513     -3.266483973     -2.927248679
C      -2.623928396     -3.233243405     -3.499057511
H      -4.616846898     -2.196237191     -3.337130992
H      -4.541343748     -4.225199781     -2.864589554
H      -1.709607976     -2.282600702     -3.483441844
H      -1.815084173     -3.869252960     -3.762847214
           6
  t=       127.00000    1    1
C      -3.879958407     -3.276030185     -2.926708023
C      -2.641933024     -3.245007748     -3.516950212
H      -4.600609802     -2.248733798     -3.363715947
H      -4.573707750     -4.226578114     -2.952918592
H      -1.742001401     -2.302711903     -3.525089857
H      -1.752838223     -3.901424873     -3.759611012
           6
  t=       127.50000    1    1
C      -3.894011725     -3.285254081     -2.927183749
C      -2.658730067     -3.256257290     -3.534594019
H      -4.577999633     -2.308906325     -3.383450008
H      -4.601073467     -4.223475018     -3.040195516
H      -1.785451301     -2.325866662     -3.567240218
H      -1.697117117     -3.937333537     -3.754630329
           6
  t=       128.00000    1    1
C      -3.908746830     -3.294250255     -2.928830973
C      -2.674016027     -3.267206549     -3.551982862
H      -4.549957295     -2.375103091     -3.396295568
H      -4.623065871     -4.216440497     -3.125109174
H      -1.839757964     -2.351763573     -3.609649024
H      -1.651226359     -3.974698771     -3.747721831
           6
  t=       128.50000    1    1
C      -3.924127281     -3.303146259     -2.931757287
C      -2.687633773     -3.278022521     -3.569092021
H      -4.517783334     -2.445116880     -3.402482480
H      -4.639522372     -4.206192322     -3.206448357
H      -1.904215763     -2.379951498     -3.652145677
H      -1.617040152     -4.011951420     -3.739050034
           6
  t=       129.00000    1    1
C      -3.940039713     -3.312150521     -2.935997252
C      -2.699560032     -3.288860106     -3.585888311
H      -4.483481418     -2.515599179     -3.402696995
H      -4.650552557     -4.193627380     -3.283254011
H      -1.977584099     -2.409633915     -3.694799875
H      -1.595313984     -4.048010337     -3.728801609
           6
  t=       129.50000    1    1
C      -3.956224483     -3.321611643     -2.941525254
C      -2.709907650     -3.299887993     -3.602313606
H      -4.449894443     -2.581495051     -3.398543804
H      -4.656517765     -4.179775326     -3.354586117
H      -2.058243759     -2.439378241     -3.737778238
H      -1.586212001     -4.082169505     -3.717143119
           6
  t=       130.00000    1    1
C      -3.972244841     -3.332060823     -2.948207715
C      -2.718965336     -3.311342847     -3.618283308
H      -4.420891100     -2.635943978     -3.393282148
H      -4.657895932     -4.165487155     -3.419415741
H      -2.143678767     -2.466670030     -3.781228058
H      -1.589667581     -4.113803305     -3.704296637
           6
  t=       130.50000    1    1
C      -3.987568633     -3.344162712     -2.955755976
C      -2.727105371     -3.323587966     -3.633676109
H      -4.401692466     -2.670788730     -3.391694659
H      -4.655323896     -4.151382438     -3.476925339
H      -2.229965247     -2.487739384     -3.825756490
H      -1.605651675     -4.141970562     -3.690574990
           6
  t=       131.00000    1    1
C      -4.001782158     -3.358429119     -2.963906231
C      -2.734670077     -3.337035089     -3.648333685
H      -4.396355150     -2.679478435     -3.397720090
H      -4.649645201     -4.138188126     -3.526656643
H      -2.313313079     -2.498337546     -3.872541892
H      -1.633904746     -4.165739277     -3.676349269
           6
  t=       131.50000    1    1
C      -4.014773979     -3.374927684     -2.972629789
C      -2.741902721     -3.351989792     -3.662107449
H      -4.405137210     -2.660757459     -3.412078684
H      -4.641861775     -4.126760848     -3.568375767
H      -2.391310509     -2.495193311     -3.922819930
H      -1.674007763     -4.184332541     -3.662009867
           6
  t=       132.00000    1    1
C      -4.026721274     -3.393239214     -2.982174391
C      -2.748910002     -3.368495688     -3.674905097
H      -4.424647368     -2.619353174     -3.432003511
H      -4.633039570     -4.118031482     -3.601942330
H      -2.463314330     -2.477810517     -3.977205846
H      -1.725546652     -4.197063534     -3.647996705
           6
  t=       132.50000    1    1
C      -4.037924486     -3.412642665     -2.992906185
C      -2.755710602     -3.386244753     -3.686737415
H      -4.449913838     -2.563611384     -3.453002747
H      -4.624288039     -4.113026556     -3.627453098
H      -2.530012595     -2.449545542     -4.035094894
H      -1.787893098     -4.203465611     -3.634818152
           6
  t=       133.00000    1    1
C      -4.048603859     -3.432401269     -3.005103694
C      -2.762358003     -3.404700535     -3.697700538
H      -4.476968238     -2.501674342     -3.471120967
H      -4.616655963     -4.112837523     -3.645503130
H      -2.592334940     -2.416200648     -4.094850170
H      -1.859775445     -4.203674067     -3.623007183
           6
  t=       133.50000    1    1
C      -4.058839501     -3.451921817     -3.018866502
C      -2.769029110     -3.423294786     -3.707928610
H      -4.503693702     -2.439586218     -3.483964361
H      -4.611036784     -4.118420943     -3.657197365
H      -2.650695887     -2.383553639     -4.154498847
H      -1.938940102     -4.198749908     -3.613040468
           6
  t=       134.00000    1    1
C      -4.068630445     -3.470754050     -3.034174971
C      -2.776034818     -3.441509023     -3.717550343
H      -4.529057426     -2.381706869     -3.490262340
H      -4.608323579     -4.130488616     -3.663861619
H      -2.704904178     -2.355950788     -4.212411336
H      -2.022025079     -4.190818431     -3.605192684
           6
  t=       134.50000    1    1
C      -4.077950871     -3.488557343     -3.050937174
C      -2.783816541     -3.458806887     -3.726704650
H      -4.552537069     -2.331354055     -3.489486572
H      -4.609499405     -4.149445441     -3.666801692
H      -2.754451090     -2.336364306     -4.267348817
H      -2.104126275     -4.183634613     -3.599365321
           6
  t=       135.00000    1    1
C      -4.086770040     -3.505100083     -3.069039738
C      -2.792940439     -3.474545213     -3.735559593
H      -4.573917044     -2.290708895     -3.481650175
H      -4.615462796     -4.175570937     -3.666999984
H      -2.798757753     -2.326795540     -4.318321838
H      -2.178759720     -4.183160043     -3.594900630
           6
  t=       135.50000    1    1
C      -4.095067297     -3.520267401     -3.088385570
C      -2.803967004     -3.488054316     -3.744306195
H      -4.593151986     -2.260964986     -3.467148912
H      -4.626636469     -4.208856573     -3.664862468
H      -2.837309625     -2.328326318     -4.364612056
H      -2.239630071     -4.196476314     -3.590595996
           6
  t=       136.00000    1    1
C      -4.102848420     -3.534036685     -3.108919630
C      -2.817219883     -3.498873139     -3.753110544
H      -4.610327258     -2.242857940     -3.446554583
H      -4.642871913     -4.248704476     -3.660131491
H      -2.869700950     -2.341353928     -4.405716012
H      -2.283280925     -4.228811645     -3.585317525
           6
  t=       136.50000    1    1
C      -4.110178052     -3.546442126     -3.130598206
C      -2.832621119     -3.507003515     -3.762057819
H      -4.625563252     -2.236907791     -3.420552566
H      -4.663561408     -4.293956480     -3.652151955
H      -2.895681830     -2.365848974     -4.441238123
H      -2.310608147     -4.280404294     -3.578936411
           6
  t=       137.00000    1    1
C      -4.117193770     -3.557559280     -3.153370398
C      -2.849758125     -3.512927471     -3.771133690
H      -4.638909055     -2.243501765     -3.389927246
H      -4.687759486     -4.343005461     -3.640054711
H      -2.915169158     -2.401398273     -4.470884811
H      -2.325868151     -4.346243384     -3.572608227
           6
  t=       137.50000    1    1
C      -4.124092196     -3.567486074     -3.177180016
C      -2.868124592     -3.517321713     -3.780281159
H      -4.650298289     -2.263055304     -3.355479908
H      -4.714321175     -4.393957971     -3.622880483
H      -2.928151135     -2.447363493     -4.494437294
H      -2.333974225     -4.419214991     -3.568058507
           6
  t=       138.00000    1    1
C      -4.131116765     -3.576349124     -3.201934893
C      -2.887254200     -3.520843315     -3.789455338
H      -4.659610978     -2.295770733     -3.318107632
H      -4.741916754     -4.444802667     -3.599825410
H      -2.934743185     -2.502725779     -4.511866390
H      -2.338916458     -4.492808775     -3.566856274
           6
  t=       138.50000    1    1
C      -4.138523738     -3.584298579     -3.227497914
C      -2.906773131     -3.524049922     -3.798638542
H      -4.666757592     -2.341357388     -3.278852715
H      -4.769084507     -4.493700101     -3.570393557
H      -2.935191152     -2.565974721     -4.523360346
H      -2.343401040     -4.562231417     -3.570111489
           6
  t=       139.00000    1    1
C      -4.146562362     -3.591495951     -3.253697030
C      -2.926387282     -3.527405088     -3.807825523
H      -4.671752732     -2.399062219     -3.238771529
H      -4.794413530     -4.539088225     -3.534449734
H      -2.929784586     -2.635138612     -4.529463980
H      -2.349069180     -4.624321645     -3.578470746
           6
  t=       139.50000    1    1
C      -4.155443226     -3.598126609     -3.280332525
C      -2.945866131     -3.531317161     -3.816987498
H      -4.674794749     -2.467637390     -3.198895020
H      -4.816708829     -4.579675711     -3.492224478
H      -2.918789438     -2.707613154     -4.531371996
H      -2.356889119     -4.677148360     -3.592200596
           6
  t=       140.00000    1    1
C      -4.165335156     -3.604419337     -3.307184386
C      -2.965022672     -3.536191136     -3.826036262
H      -4.676327699     -2.545236010     -3.160146474
H      -4.835006144     -4.614399730     -3.444259673
H      -2.902317061     -2.779930492     -4.531304531
H      -2.367486311     -4.719537255     -3.611288359
           6
  t=       140.50000    1    1
C      -4.176366207     -3.610657268     -3.334032887
C      -2.983709584     -3.542461983     -3.834797459
H      -4.677191686     -2.629215551     -3.123177788
H      -4.848505321     -4.642421772     -3.391317213
H      -2.880115481     -2.847742235     -4.532724147
H      -2.381302381     -4.750761074     -3.635553423
           6
  t=       141.00000    1    1
C      -4.188612073     -3.617191786     -3.360680470
C      -3.001819856     -3.550548011     -3.843043979
H      -4.678821755     -2.715895038     -3.088162850
H      -4.856568614     -4.663153348     -3.334339983
H      -2.851448061     -2.906496597     -4.539880310
H      -2.398649788     -4.770469656     -3.664689774
           6
  t=       141.50000    1    1
C      -4.202075894     -3.624437794     -3.386979445
C      -3.019270320     -3.560740612     -3.850614176
H      -4.683339320     -2.800489579     -3.054571008
H      -4.858728888     -4.676327711     -3.274450100
H      -2.815372340     -2.952833216     -4.556307120
H      -2.419770321     -4.778659003     -3.698257756
           6
  t=       142.00000    1    1
C      -4.216683402     -3.632819802     -3.412852048
C      -3.035956230     -3.573091849     -3.857567211
H      -4.693398041     -2.877603466     -3.021034599
H      -4.854699948     -4.682062614     -3.212949967
H      -2.771503394     -2.986022287     -4.582857258
H      -2.444814514     -4.775658214     -3.735691646
           6
  t=       142.50000    1    1
C      -4.232340048     -3.642662863     -3.438267960
C      -3.051701284     -3.587414082     -3.864227774
H      -4.711530526     -2.942575975     -2.985676213
H      -4.844344670     -4.680817002     -3.151243575
H      -2.720656480     -3.008018020     -4.617119773
H      -2.473798990     -4.762077479     -3.776368190
           6
  t=       143.00000    1    1
C      -4.249033957     -3.654065684     -3.463160554
C      -3.066258520     -3.603389806     -3.871073294
H      -4.738969604     -2.993167715     -2.947193847
H      -4.827654273     -4.673346622     -3.090721052
H      -2.664792061     -3.022071369     -4.654773087
H      -2.506623464     -4.738756607     -3.819625829
           6
  t=       143.50000    1    1
C      -4.266864307     -3.666869495     -3.487349233
C      -3.079374530     -3.620671870     -3.878577785
H      -4.774991041     -3.030150013     -2.905981423
H      -4.804787004     -4.660570321     -3.032690839
H      -2.606525905     -3.031401606     -4.691342405
H      -2.543075908     -4.706814547     -3.864740764
           6
  t=       144.00000    1    1
C      -4.285975108     -3.680741486     -3.510541354
C      -3.090883140     -3.638913370     -3.887105744
H      -4.817281139     -3.056169431     -2.864266825
H      -4.776126633     -4.643664880     -2.978378794
H      -2.548598684     -3.038546383     -4.723303030
H      -2.582609667     -4.667989559     -3.910927730
           6
  t=       144.50000    1    1
C      -4.306480211     -3.695311231     -3.532400524
C      -3.100762567     -3.657741411     -3.896886536
H      -4.862935937     -3.074108485     -2.825188838
H      -4.742294234     -4.624051050     -2.928953835
H      -2.493460393     -3.045203862     -4.748425496
H      -2.623960606     -4.625137369     -3.957383828
           6
  t=       145.00000    1    1
C      -4.328398427     -3.710270796     -3.552628970
C      -3.109163392     -3.676698447     -3.908030666
H      -4.909424383     -3.086146527     -2.791730579
H      -4.704068017     -4.603201735     -2.885445341
H      -2.443026097     -3.052255513     -4.765593765
H      -2.664948069     -4.582845495     -4.003444017
           6
  t=       145.50000    1    1
C      -4.351632826     -3.725398846     -3.571022607
C      -3.116410804     -3.695182802     -3.920538625
H      -4.954915669     -3.093718977     -2.766075455
H      -4.662355562     -4.582485944     -2.848686357
H      -2.398644328     -3.060030013     -4.774506922
H      -2.702426869     -4.547787512     -4.048818717
           6
  t=       146.00000    1    1
C      -4.376060303     -3.740549510     -3.587407201
C      -3.122895640     -3.712484710     -3.934343972
H      -4.997975219     -3.097726994     -2.749795523
H      -4.618167146     -4.563182826     -2.819605904
H      -2.361267899     -3.068685665     -4.775317879
H      -2.732678319     -4.527820352     -4.093721740
           6
  t=       146.50000    1    1
C      -4.401573898     -3.755639602     -3.601624476
C      -3.128926467     -3.727968741     -3.949355599
H      -5.037509972     -3.098863832     -2.744151418
H      -4.572507975     -4.546315781     -2.798967762
H      -2.331519399     -3.078336741     -4.768212679
H      -2.752765389     -4.529675854     -4.138914207
           6
  t=       147.00000    1    1
C      -4.427952853     -3.770599940     -3.613640931
C      -3.134713770     -3.741368858     -3.965460501
H      -5.072945463     -3.097853398     -2.750102869
H      -4.526203308     -4.532674209     -2.786641118
H      -2.309735394     -3.089016764     -4.753213853
H      -2.762223121     -4.555801557     -4.185290399
           6
  t=       147.50000    1    1
C      -4.454879796     -3.785346926     -3.623540537
C      -3.140323798     -3.752893210     -3.982597083
H      -5.104186196     -3.095400302     -2.768182117
H      -4.479940360     -4.522954077     -2.781816147
H      -2.296229959     -3.100709806     -4.730313896
H      -2.763138027     -4.603328689     -4.232868755
           6
  t=       148.00000    1    1
C      -4.482021248     -3.799809829     -3.631475537
C      -3.145708960     -3.763094943     -4.000771229
H      -5.131306130     -3.092110316     -2.798343518
H      -4.434466408     -4.517663977     -2.783607103
H      -2.291218175     -3.113258729     -4.699862800
H      -2.759014490     -4.665551751     -4.280346521
           6
  t=       148.50000    1    1
C      -4.509079285     -3.813918281     -3.637672758
C      -3.150804967     -3.772585407     -4.019984325
H      -5.154500736     -3.088665284     -2.839990666
H      -4.390533220     -4.517030283     -2.790843923
H      -2.294796178     -3.126437924     -4.662481467
H      -2.753125161     -4.735341936     -4.326149919
           6
  t=       149.00000    1    1
C      -4.535770780     -3.827641539     -3.642369969
C      -3.155603135     -3.781851420     -4.040199646
H      -5.173798531     -3.085569184     -2.892157611
H      -4.349156536     -4.521331384     -2.802676655
H      -2.306874321     -3.139990381     -4.619280224
H      -2.747992549     -4.806739489     -4.368588965
           6
  t=       149.50000    1    1
C      -4.561829831     -3.840986687     -3.645770916
C      -3.160176630     -3.791245076     -4.061327800
H      -5.189352375     -3.083182371     -2.953844620
H      -4.311422200     -4.530643565     -2.818437327
H      -2.326860391     -3.153459568     -4.571645857
H      -2.745266730     -4.875484422     -4.406581968
           6
  t=       150.00000    1    1
C      -4.586979626     -3.853997529     -3.648085202
C      -3.164703512     -3.801035495     -4.083206184
H      -5.201480984     -3.081685401     -3.023837796
H      -4.278505571     -4.544801837     -2.837548675
H      -2.353489023     -3.166069466     -4.521335718
H      -2.745895722     -4.938608486     -4.439602705
           6
  t=       150.50000    1    1
C      -4.610924442     -3.866755494     -3.649545093
C      -3.169465155     -3.811462364     -4.105619872
H      -5.210745600     -3.080957636     -3.100624724
H      -4.251638106     -4.563427069     -2.859422884
H      -2.384713916     -3.176599345     -4.470357449
H      -2.750304064     -4.994005857     -4.467537141
           6
  t=       151.00000    1    1
C      -4.633371665     -3.879382574     -3.650403672
C      -3.174818509     -3.822765926     -4.128330797
H      -5.218049434     -3.080405406     -3.182415926
H      -4.231959354     -4.586011956     -2.883435618
H      -2.417692272     -3.183317966     -4.420764415
H      -2.758525213     -5.040192499     -4.490566815
           6
  t=       151.50000    1    1
C      -4.654045785     -3.892036346     -3.650915227
C      -3.181152697     -3.835191273     -4.151118138
H      -5.224604958     -3.078909828     -3.267369696
H      -4.220376210     -4.612025873     -2.908972944
H      -2.449149560     -3.184116226     -4.374280800
H      -2.770360554     -5.076128953     -4.509024376
           6
  t=       152.00000    1    1
C      -4.672710870     -3.904889479     -3.651314997
C      -3.188811214     -3.848951408     -4.173816034
H      -5.231703606     -3.075068686     -3.353855058
H      -4.217502644     -4.640925354     -2.935465354
H      -2.476205346     -3.177042366     -4.331905238
H      -2.785503424     -5.101117101     -4.523285003
           6
  t=       152.50000    1    1
C      -4.689192197     -3.918092679     -3.651806777
C      -3.198007320     -3.864167415     -4.196329796
H      -5.240396856     -3.067682188     -3.440627347
H      -4.223666320     -4.672110808     -2.962397806
H      -2.497332203     -3.161128378     -4.293762142
H      -2.803642920     -5.114685781     -4.533683909
           6
  t=       153.00000    1    1
C      -4.703393084     -3.931724598     -3.652554603
C      -3.208773460     -3.880798885     -4.218612721
H      -5.251220842     -3.056345754     -3.526891810
H      -4.239016885     -4.704984721     -2.989297906
H      -2.512909561     -3.137125519     -4.259423655
H      -2.824479264     -5.116630133     -4.540518008
           6
  t=       153.50000    1    1
C      -4.715313965     -3.945753874     -3.653703748
C      -3.220992722     -3.898639508     -4.240625408
H      -5.264062452     -3.041842204     -3.612097629
H      -4.263504913     -4.739022051     -3.015646699
H      -2.524807694     -3.107458728     -4.228402117
H      -2.847692633     -5.107099463     -4.544083179
           6
  t=       154.00000    1    1
C      -4.725041344     -3.960041774     -3.655400751
C      -3.234482441     -3.917375262     -4.262310351
H      -5.278274454     -3.026051691     -3.695661891
H      -4.296926332     -4.773850842     -3.040854650
H      -2.535417666     -3.075408232     -4.200474400
H      -2.872889066     -5.086700233     -4.544714134
           6
  t=       154.50000    1    1
C      -4.732686415     -3.974386213     -3.657803319
C      -3.249077536     -3.936632325     -4.283570641
H      -5.292915640     -3.011467212     -3.776817162
H      -4.339170200     -4.809332378     -3.064344541
H      -2.546968182     -3.044268495     -4.175837475
H      -2.899534142     -5.056646035     -4.542834096
           6
  t=       155.00000    1    1
C      -4.738348717     -3.988573201     -3.661075249
C      -3.264666562     -3.956001701     -4.304277242
H      -5.307048796     -3.000614555     -3.854597906
H      -4.390266384     -4.845495342     -3.085644044
H      -2.561273940     -3.016904910     -4.154957262
H      -2.926862361     -5.018940264     -4.539000795
           6
  t=       155.50000    1    1
C      -4.742100743     -4.002414671     -3.665368704
C      -3.281208738     -3.975034785     -4.324280660
H      -5.319948239     -2.995638166     -3.927963170
H      -4.450349226     -4.882438998     -3.104478715
H      -2.579679122     -2.995592052     -4.138387115
H      -2.953743007     -4.976651024     -4.533944490
           6
  t=       156.00000    1    1
C      -4.744005308     -4.015768590     -3.670798624
C      -3.298745576     -3.993204043     -4.343416313
H      -5.331153262     -2.998123732     -3.995962873
H      -4.519557196     -4.920230125     -3.120868471
H      -2.603002885     -2.981861874     -4.126638619
H      -2.978436036     -4.934572267     -4.528675262
           6
  t=       156.50000    1    1
C      -4.744148913     -4.028548798     -3.677423198
C      -3.317397536     -4.009876003     -4.361511987
H      -5.340375948     -3.009072145     -4.057833305
H      -4.597863606     -4.958760302     -3.135232017
H      -2.631639287     -2.976549063     -4.120137833
H      -2.998395923     -4.899551698     -4.524470746
           6
  t=       157.00000    1    1
C      -4.742669240     -4.040741565     -3.685231656
C      -3.337330664     -4.024397261     -4.378422029
H      -5.347405791     -3.028911906     -4.113025403
H      -4.684855830     -4.997488148     -3.148488224
H      -2.665670350     -2.979942790     -4.119191027
H      -3.010544654     -4.879362395     -4.522518737
           6
  t=       157.50000    1    1
C      -4.739776463     -4.052412405     -3.694151926
C      -3.358676468     -4.036326844     -4.394075401
H      -5.352041790     -3.057567047     -4.161155881
H      -4.779503268     -5.035220368     -3.162005246
H      -2.704942011     -2.991920449     -4.123949704
H      -3.012196493     -4.879870084     -4.523388147
           6
  t=       158.00000    1    1
C      -4.735728771     -4.063675757     -3.704095771
C      -3.381444297     -4.045679649     -4.408477684
H      -5.354065887     -3.094692617     -4.201847650
H      -4.880172161     -5.070195298     -3.177366700
H      -2.749196360     -3.012158509     -4.134504311
H      -3.002273329     -4.901963773     -4.526766889
           6
  t=       158.50000    1    1
C      -4.730822617     -4.074680549     -3.714965912
C      -3.405432306     -4.052998107     -4.421710762
H      -5.353350723     -3.139586974     -4.234869367
H      -4.984774643     -5.100504239     -3.195988056
H      -2.798046143     -3.039996091     -4.150823700
H      -2.982250265     -4.940676675     -4.531685427
           6
  t=       159.00000    1    1
C      -4.725351178     -4.085585224     -3.726683086
C      -3.430311827     -4.059070373     -4.433871268
H      -5.349967854     -3.191273275     -4.260083539
H      -5.091106554     -5.124453479     -3.218898462
H      -2.850942217     -3.074376313     -4.172803076
H      -2.955231977     -4.988456887     -4.537149917
           6
  t=       159.50000    1    1
C      -4.719608259     -4.096550424     -3.739169282
C      -3.455729122     -4.064698941     -4.445069473
H      -5.344317896     -3.248289334     -4.277661062
H      -5.196860931     -5.140925686     -3.246628801
H      -2.906918921     -3.113491070     -4.200083654
H      -2.924804615     -5.038215593     -4.542432967
           6
  t=       160.00000    1    1
C      -4.713885828     -4.107741343     -3.752348876
C      -3.481388738     -4.070585382     -4.455413850
H      -5.337117751     -3.308771871     -4.287979657
H      -5.299774062     -5.149290699     -3.279329476
H      -2.964481694     -3.154649733     -4.232143866
H      -2.894051071     -5.084808784     -4.547136620
           6
  t=       160.50000    1    1
C      -4.708474841     -4.119341017     -3.766125418
C      -3.507082021     -4.077341829     -4.465022464
H      -5.329388390     -3.370417524     -4.291762234
H      -5.397696016     -5.149335125     -3.316826226
H      -3.021488415     -3.194126161     -4.268299043
H      -2.865261727     -5.125004377     -4.551139309
           6
  t=       161.00000    1    1
C      -4.703653695     -4.131552852     -3.780367767
C      -3.532681681     -4.085540923     -4.474021576
H      -5.322484189     -3.430493401     -4.290181205
H      -5.488547504     -5.141160108     -3.358724746
H      -3.075222852     -3.227230752     -4.307767086
H      -2.840077218     -5.156876609     -4.554503214
           6
  t=       161.50000    1    1
C      -4.699649539     -4.144594566     -3.794901709
C      -3.558114905     -4.095696918     -4.482535524
H      -5.318134939     -3.485730622     -4.284945814
H      -5.570481499     -5.125321828     -3.404429947
H      -3.122878931     -3.248984390     -4.349913571
H      -2.819581808     -5.179395349     -4.557342868
           6
  t=       162.00000    1    1
C      -4.696646287     -4.158688389     -3.809511595
C      -3.583259058     -4.108170973     -4.490674738
H      -5.318420092     -3.532529864     -4.278120388
H      -5.642038597     -5.102762509     -3.453173166
H      -3.162396180     -3.255628583     -4.394585186
H      -2.804485756     -5.192024708     -4.559769708
           6
  t=       162.50000    1    1
C      -4.694828485     -4.174017967     -3.823965614
C      -3.607836414     -4.123043379     -4.498537353
H      -5.325378294     -3.567649419     -4.271575039
H      -5.702218774     -5.074628920     -3.504138300
H      -3.193354256     -3.246349992     -4.442232469
H      -2.795281084     -5.194527983     -4.561872003
           6
  t=       163.00000    1    1
C      -4.694472333     -4.190660365     -3.838068757
C      -3.631375178     -4.140077697     -4.506232717
H      -5.340132353     -3.588964211     -4.266378323
H      -5.750355894     -5.042229981     -3.556462168
H      -3.217220431     -3.223866286     -4.493534883
H      -2.792374476     -5.186902704     -4.563785628
           6
  t=       163.50000    1    1
C      -4.695998129     -4.208566235     -3.851698866
C      -3.653294482     -4.158828417     -4.513907423
H      -5.362216775     -3.595929990     -4.262507078
H      -5.785921653     -5.006877373     -3.609283136
H      -3.236489732     -3.193116808     -4.548893490
H      -2.796178046     -5.169338677     -4.565703182
           6
  t=       164.00000    1    1
C      -4.699941242     -4.227559439     -3.864815337
C      -3.673027981     -4.178764280     -4.521748431
H      -5.389483717     -3.589739951     -4.259037536
H      -5.808539070     -4.969810728     -3.661713106
H      -3.253732277     -3.159559949     -4.608106060
H      -2.807015557     -5.142373779     -4.567894791
           6
  t=       164.50000    1    1
C      -4.706820090     -4.247391030     -3.877429541
C      -3.690143548     -4.199383160     -4.529957356
H      -5.419053963     -3.572642617     -4.254804715
H      -5.818083267     -4.932207345     -3.712842814
H      -3.270862412     -3.127751383     -4.670412146
H      -2.824948565     -5.106976084     -4.570657307
           6
  t=       165.00000    1    1
C      -4.717021372     -4.267793574     -3.889574306
C      -3.704396067     -4.220259140     -4.538719427
H      -5.448297432     -3.547143660     -4.248886848
H      -5.814716004     -4.895190027     -3.761809102
H      -3.289018363     -3.100982168     -4.734727603
H      -2.849620076     -5.064487771     -4.574261477
           6
  t=       165.50000    1    1
C      -4.730745737     -4.288502684     -3.901309268
C      -3.715748753     -4.241020081     -4.548167007
H      -5.475123968     -3.515609205     -4.240709344
H      -5.798949348     -4.859900914     -3.807823452
H      -3.308793962     -3.081546691     -4.799877636
H      -2.880061857     -5.016690840     -4.578957446
           6
  t=       166.00000    1    1
C      -4.747915112     -4.309243784     -3.912730439
C      -3.724429224     -4.261305874     -4.558362901
H      -5.497977467     -3.480172006     -4.229902993
H      -5.772290215     -4.827726625     -3.850320035
H      -3.330511661     -3.070932394     -4.864780160
H      -2.914218647     -4.966141184     -4.584869901
           6
  t=       166.50000    1    1
C      -4.768198892     -4.329710484     -3.923963540
C      -3.730896146     -4.280714890     -4.569319566
H      -5.515602782     -3.442574553     -4.216012718
H      -5.737800289     -4.800697263     -3.889030119
H      -3.354513948     -3.070102737     -4.928621260
H      -2.948415524     -4.916539267     -4.591890073
           6
  t=       167.00000    1    1
C      -4.791059815     -4.349538544     -3.935154424
C      -3.735814278     -4.298753776     -4.581012862
H      -5.526971701     -3.404326778     -4.198608221
H      -5.700385978     -4.781733026     -3.923783792
H      -3.381136236     -3.079694443     -4.990738043
H      -2.976919675     -4.873037023     -4.599830785
           6
  t=       167.50000    1    1
C      -4.815689674     -4.368284072     -3.946452327
C      -3.740022079     -4.314867055     -4.593381939
H      -5.531574416     -3.367187095     -4.177846353
H      -5.667290416     -4.774617449     -3.954196871
H      -3.410397958     -3.100059349     -5.050219199
H      -2.992617843     -4.841648822     -4.608777492
           6
  t=       168.00000    1    1
C      -4.840985319     -4.385424955     -3.957982624
C      -3.744374391     -4.328632284     -4.606342217
H      -5.529470543     -3.333176748     -4.154303004
H      -5.647958871     -4.783759316     -3.980105657
H      -3.442027912     -3.131242703     -5.105968881
H      -2.989235106     -4.827154435     -4.618927772
           6
  t=       168.50000    1    1
C      -4.865894478     -4.400474302     -3.969824424
C      -3.749354039     -4.339998125     -4.619825388
H      -5.520963956     -3.304152737     -4.128441207
H      -5.650968489     -4.813134503     -4.001889255
H      -3.475719294     -3.172774274     -5.157158979
H      -2.964982609     -4.830604549     -4.630138888
           6
  t=       169.00000    1    1
C      -4.889893953     -4.413168352     -3.982023889
C      -3.754932486     -4.349256825     -4.633792937
H      -5.506457590     -3.281525376     -4.100677018
H      -5.679160987     -4.864363088     -4.019988424
H      -3.511228001     -3.223827082     -5.203181812
H      -2.923434097     -4.849456336     -4.642070564
           6
  t=       169.50000    1    1
C      -4.913145171     -4.423595182     -3.994611357
C      -3.760739397     -4.356888344     -4.648218371
H      -5.486445387     -3.266244004     -4.071490187
H      -5.727869032     -4.935267201     -4.034565060
H      -3.548312067     -3.283313707     -5.243621887
H      -2.871494204     -4.879257208     -4.654450845
           6
  t=       170.00000    1    1
C      -4.936218553     -4.432179984     -4.007614919
C      -3.766361740     -4.363429790     -4.663045552
H      -5.461663381     -3.258962233     -4.041491596
H      -5.787350232     -5.019922185     -4.045576911
H      -3.586536305     -3.349830687     -5.278317059
H      -2.816729061     -4.915215218     -4.667207444
           6
  t=       170.50000    1    1
C      -4.959619563     -4.439425220     -4.021050455
C      -3.771525811     -4.369353144     -4.678190673
H      -5.433145470     -3.260402752     -4.011307404
H      -5.848461133     -5.111435204     -4.053004543
H      -3.625266225     -3.421643087     -5.307442474
H      -2.765121154     -4.953624291     -4.680367897
           6
  t=       171.00000    1    1
C      -4.983604484     -4.445763011     -4.034906777
C      -3.776138275     -4.375082893     -4.693527789
H      -5.402073905     -3.270870423     -3.981580265
H      -5.904974823     -5.204191213     -4.057002163
H      -3.663732314     -3.496243930     -5.331807279
H      -2.720543029     -4.992094540     -4.693960222
           6
  t=       171.50000    1    1
C      -5.008194276     -4.451536487     -4.049151641
C      -3.780237064     -4.381067756     -4.708851876
H      -5.369746672     -3.290071073     -3.952962785
H      -5.953459630     -5.294229846     -4.057872902
H      -3.701100391     -3.569979327     -5.353234169
H      -2.685260785     -5.029098963     -4.708033188
           6
  t=       172.00000    1    1
C      -5.033273014     -4.457035752     -4.063758217
C      -3.783915067     -4.387802416     -4.723864925
H      -5.337637954     -3.317305487     -3.925956486
H      -5.992179761     -5.378635648     -4.055897855
H      -3.736565552     -3.638144649     -5.374793688
H      -2.660615466     -5.063605608     -4.722604323
           6
  t=       172.50000    1    1
C      -5.058664080     -4.462525608     -4.078717012
C      -3.787270694     -4.395775540     -4.738205153
H      -5.307227011     -3.351341794     -3.900745411
H      -6.020304071     -5.455337171     -4.051337733
H      -3.769581483     -3.695784204     -5.400546540
H      -2.647437146     -5.094895371     -4.737592147
           6
  t=       173.00000    1    1
C      -5.084167927     -4.468263078     -4.094041593
C      -3.790386198     -4.405350147     -4.751535467
H      -5.279844735     -3.390485081     -3.877203557
H      -6.037551056     -5.522865347     -4.044432136
H      -3.800059440     -3.739157967     -5.434354108
H      -2.646162822     -5.122484076     -4.752876747
           6
  t=       173.50000    1    1
C      -5.109600692     -4.474512963     -4.109752794
C      -3.793304295     -4.416650822     -4.763687925
H      -5.256651537     -3.432664160     -3.854986950
H      -6.043955553     -5.580122554     -4.035406900
H      -3.828271025     -3.767103613     -5.478176094
H      -2.657007514     -5.146063016     -4.768369428
           6
  t=       174.00000    1    1
C      -5.134809036     -4.481558480     -4.125872540
C      -3.796053327     -4.429529597     -4.774755518
H      -5.238569333     -3.475389753     -3.833485002
H      -6.039818833     -5.626309884     -4.024527433
H      -3.854515340     -3.781473201     -5.531051505
H      -2.679938349     -5.165456776     -4.784007056
           6
  t=       174.50000    1    1
C      -5.159661384     -4.489690352     -4.142432701
C      -3.798690910     -4.443669525     -4.785033706
H      -5.226243619     -3.515925266     -3.811846926
H      -6.025629788     -5.660868428     -4.012067199
H      -3.878798233     -3.785929877     -5.589696581
H      -2.714696371     -5.180610170     -4.799750384
           6
  t=       175.00000    1    1
C      -5.184041412     -4.499163729     -4.159470898
C      -3.801322401     -4.458709139     -4.794899274
H      -5.219985742     -3.551762123     -3.789107107
H      -6.002042992     -5.683478365     -3.998304266
H      -3.900829931     -3.784481420     -5.649899196
H      -2.760736099     -5.191610663     -4.815561117
           6
  t=       175.50000    1    1
C      -5.207845880     -4.510145518     -4.177013883
C      -3.804098614     -4.474324025     -4.804700763
H      -5.219786211     -3.581232783     -3.764438168
H      -5.969794067     -5.694020202     -3.983533729
H      -3.920205524     -3.780498768     -5.707766237
H      -2.817169428     -5.198751144     -4.831392818
           6
  t=       176.00000    1    1
C      -5.230975104     -4.522675859     -4.195052760
C      -3.807224808     -4.490233781     -4.814706997
H      -5.225407112     -3.603944642     -3.737454314
H      -5.929663165     -5.692567254     -3.968102502
H      -3.936561490     -3.776477185     -5.760276149
H      -2.882559665     -5.202718524     -4.847208687
           6
  t=       176.50000    1    1
C      -5.253328221     -4.536665230     -4.213521302
C      -3.810970586     -4.506167560     -4.825113759
H      -5.236561556     -3.620808018     -3.708401844
H      -5.882460321     -5.679375785     -3.952406290
H      -3.949589870     -3.774202869     -5.805240008
H      -2.954680967     -5.204854059     -4.863011901
           6
  t=       177.00000    1    1
C      -5.274796993     -4.551913727     -4.232292423
C      -3.815685026     -4.521821395     -4.836045023
H      -5.252988593     -3.633652984     -3.678172059
H      -5.829166260     -5.655078468     -3.936845723
H      -3.959028063     -3.774867985     -5.841291342
H      -3.030206374     -5.207506803     -4.878914080
           6
  t=       177.50000    1    1
C      -5.295252843     -4.568153575     -4.251200851
C      -3.821824332     -4.536806642     -4.847559215
H      -5.274413169     -3.644622542     -3.648147374
H      -5.771043678     -5.620860710     -3.921746884
H      -3.964642705     -3.779194758     -5.867726668
H      -3.104477738     -5.214447801     -4.895183345
           6
  t=       178.00000    1    1
C      -5.314533354     -4.585054956     -4.270082389
C      -3.829918612     -4.550639682     -4.859658037
H      -5.300466945     -3.655740384     -3.620017036
H      -5.709742863     -5.578845890     -3.907190685
H      -3.966285095     -3.787541158     -5.884297066
H      -3.171980515     -5.230864670     -4.912234716
           6
  t=       178.50000    1    1
C      -5.332438570     -4.602192452     -4.288812176
C      -3.840415850     -4.562845812     -4.872304324
H      -5.330761392     -3.668636425     -3.595571560
H      -5.647409562     -5.532691090     -3.892717657
H      -3.963966479     -3.799957292     -5.891114661
H      -3.227990795     -5.262145843     -4.930555647
           6
  t=       179.00000    1    1
C      -5.348736501     -4.619011123     -4.307355942
C      -3.853495135     -4.573189446     -4.885450434
H      -5.365024647     -3.684270177     -3.576413006
H      -5.586616778     -5.488087842     -3.876894949
H      -3.957817034     -3.816305134     -5.888539311
H      -3.270707645     -5.311197956     -4.950593123
           6
  t=       179.50000    1    1
C      -5.363207709     -4.634875530     -4.325814681
C      -3.869047955     -4.581853703     -4.899065663
H      -5.403098025     -3.702933784     -3.563690855
H      -5.529483724     -5.452011978     -3.857151849
H      -3.947918683     -3.836384622     -5.877008522
H      -3.301996343     -5.376342796     -4.972493308
           6
  t=       180.00000    1    1
C      -5.375729853     -4.649234951     -4.344360550
C      -3.886782028     -4.589367027     -4.913129081
H      -5.444868939     -3.724684595     -3.558202663
H      -5.476846614     -5.430510124     -3.830457490
H      -3.934341499     -3.859837055     -5.857234289
H      -3.326003709     -5.452100537     -4.995975564
           6
  t=       180.50000    1    1
C      -5.386300008     -4.661837279     -4.363082076
C      -3.906382305     -4.596375298     -4.927592182
H      -5.490248829     -3.749512938     -3.560548975
H      -5.428244641     -5.426210560     -3.794941075
H      -3.917206416     -3.885924005     -5.830508801
H      -3.346947035     -5.531898938     -5.020541057
           6
  t=       181.00000    1    1
C      -5.394988098     -4.672820705     -4.381858552
C      -3.927604378     -4.603474393     -4.942353451
H      -5.539121745     -3.777312662     -3.571130014
H      -5.382673356     -5.437376156     -3.751333624
H      -3.896611683     -3.913343131     -5.798871602
H      -3.367927586     -5.610136695     -5.045666918
           6
  t=       181.50000    1    1
C      -5.401886805     -4.682590183     -4.400361273
C      -3.950262971     -4.611175215     -4.957253644
H      -5.591322627     -3.807794791     -3.590197541
H      -5.339432630     -5.459439021     -3.702885355
H      -3.872550485     -3.940124885     -5.765084472
H      -3.390920677     -5.682727180     -5.070903656
           6
  t=       182.00000    1    1
C      -5.407087783     -4.691618371     -4.418185100
C      -3.974196717     -4.619931941     -4.972070755
H      -5.646690673     -3.840444282     -3.617833705
H      -5.298464979     -5.487372502     -3.653840210
H      -3.844831943     -3.963575484     -5.732605076
H      -3.417166141     -5.746862008     -5.095940351
           6
  t=       182.50000    1    1
C      -5.410676360     -4.700307980     -4.434968407
C      -3.999264563     -4.630134538     -4.986556012
H      -5.705331509     -3.874600365     -3.654083073
H      -5.260032569     -5.517075161     -3.607899077
H      -3.812960353     -3.980708736     -5.704899908
H      -3.447455915     -5.800844286     -5.120838374
           6
  t=       183.00000    1    1
C      -5.412727762     -4.709032513     -4.450392595
C      -4.025337931     -4.641981574     -5.000557759
H      -5.767397705     -3.909434841     -3.699037028
H      -5.224802617     -5.545352348     -3.568023850
H      -3.776252604     -3.989221911     -5.684265110
H      -3.482289016     -5.844182970     -5.145851688
           6
  t=       183.50000    1    1
C      -5.413264344     -4.718215196     -4.464158678
C      -4.052314852     -4.655406789     -5.014208271
H      -5.831901677     -3.943606494     -3.752266239
H      -5.194955632     -5.570349325     -3.537012220
H      -3.734402412     -3.988345899     -5.671312115
H      -3.521727505     -5.876589652     -5.169986995
           6
  t=       184.00000    1    1
C      -5.412379601     -4.728156705     -4.476100732
C      -4.079981144     -4.670219379     -5.027808669
H      -5.897795599     -3.975808693     -3.813231517
H      -5.172221703     -5.591378878     -3.516253238
H      -3.688189359     -3.979353182     -5.664485484
H      -3.565747552     -5.897476473     -5.192338901
           6
  t=       184.50000    1    1
C      -5.410261740     -4.738947755     -4.486350380
C      -4.108071213     -4.686086892     -5.041590199
H      -5.963810880     -4.005390098     -3.880882091
H      -5.156807002     -5.608698871     -3.505694905
H      -3.639906465     -3.965417389     -5.661195156
H      -3.614040701     -5.906943756     -5.212276403
           6
  t=       185.00000    1    1
C      -5.407052085     -4.750461420     -4.495138223
C      -4.136400787     -4.702923207     -5.055695540
H      -6.029824994     -4.032724220     -3.953955998
H      -5.147598897     -5.621843736     -3.504919572
H      -3.591864366     -3.949432096     -5.658639976
H      -3.666043223     -5.904728572     -5.229832380
           6
  t=       185.50000    1    1
C      -5.402932855     -4.762639097     -4.502567964
C      -4.164705870     -4.720515573     -5.070273451
H      -6.095548947     -4.058118815     -4.031596103
H      -5.144116875     -5.630416325     -3.513779580
H      -3.546471270     -3.934109016     -5.654742111
H      -3.721090859     -5.891441961     -5.245081239
           6
  t=       186.00000    1    1
C      -5.398188557     -4.775413112     -4.508684874
C      -4.192675253     -4.738608391     -5.085457002
H      -6.160223100     -4.082019243     -4.113124261
H      -5.146142491     -5.634434515     -3.532052594
H      -3.505934013     -3.921612333     -5.648333392
H      -3.778273008     -5.868308542     -5.257966532
           6
  t=       186.50000    1    1
C      -5.393177215     -4.788682970     -4.513493891
C      -4.219994629     -4.756947947     -5.101359701
H      -6.222798865     -4.105115880     -4.197963113
H      -5.153577171     -5.634103876     -3.559372799
H      -3.472063701     -3.913499490     -5.638903546
H      -3.836404809     -5.837095546     -5.268530367
           6
  t=       187.00000    1    1
C      -5.388320002     -4.802324014     -4.516989424
C      -4.246370458     -4.775245896     -5.118068075
H      -6.281934638     -4.128251978     -4.285436216
H      -5.166416149     -5.629783007     -3.595217493
H      -3.446273166     -3.910865817     -5.626456368
H      -3.893898991     -5.800426993     -5.277003683
           6
  t=       187.50000    1    1
C      -5.384068146     -4.816196149     -4.519193673
C      -4.271570069     -4.793135916     -5.135633164
H      -6.336089728     -4.152266484     -4.374667782
H      -5.184612487     -5.622078925     -3.638804490
H      -3.429561110     -3.914410120     -5.611348661
H      -3.948740200     -5.762192415     -5.283814924
           6
  t=       188.00000    1    1
C      -5.380873947     -4.830136695     -4.520183493
C      -4.295450328     -4.810123088     -5.154079636
H      -6.383704901     -4.177844869     -4.464559062
H      -5.207966742     -5.612027077     -3.688880530
H      -3.422587110     -3.924511518     -5.594066392
H      -3.998343639     -5.728127507     -5.289620469
           6
  t=       188.50000    1    1
C      -5.379144444     -4.843942997     -4.520116767
C      -4.317971482     -4.825572421     -5.173416966
H      -6.423477873     -4.205412450     -4.553801880
H      -5.236167998     -5.601346684     -3.743410624
H      -3.425754613     -3.941266881     -5.575089411
H      -4.039542570     -5.705971979     -5.295289390
           6
  t=       189.00000    1    1
C      -5.379192332     -4.857343745     -4.519266544
C      -4.339167388     -4.838832193     -5.193638488
H      -6.454591050     -4.235150187     -4.641000410
H      -5.268879628     -5.592802846     -3.799211511
H      -3.439190162     -3.964447856     -5.554927001
H      -4.069235304     -5.704006676     -5.301717398
           6
  t=       189.50000    1    1
C      -5.381258752     -4.869966522     -4.518011820
C      -4.359021731     -4.849562488     -5.214749040
H      -6.476571752     -4.267104753     -4.724820691
H      -5.305822838     -5.590475261     -3.851938503
H      -3.462811271     -3.993619459     -5.534187757
H      -4.085576832     -5.727028133     -5.309400894
           6
  t=       190.00000    1    1
C      -5.385490506     -4.881376534     -4.516780611
C      -4.377397320     -4.858012000     -5.236759779
H      -6.489173762     -4.301222475     -4.804149285
H      -5.346867590     -5.599391568     -3.896926140
H      -3.496306017     -4.028206079     -5.513672582
H      -4.089140804     -5.772855511     -5.318084827
           6
  t=       190.50000    1    1
C      -5.391909589     -4.891200465     -4.515930052
C      -4.394099254     -4.864901440     -5.259642903
H      -6.492458797     -4.337339315     -4.878125713
H      -5.392086740     -5.624043459     -3.930831666
H      -3.538977322     -4.067421153     -5.494346496
H      -4.082550027     -5.833808269     -5.327083198
           6
  t=       191.00000    1    1
C      -5.400430641     -4.899314858     -4.515622414
C      -4.409003779     -4.871064329     -5.283298849
H      -6.486860784     -4.375106456     -4.945989120
H      -5.441628424     -5.666107374     -3.953281199
H      -3.589558380     -4.110043746     -5.477231653
H      -4.068980971     -5.901318823     -5.335761380
           6
  t=       191.50000    1    1
C      -5.410911127     -4.905967673     -4.515808168
C      -4.422164338     -4.877273265     -5.307545126
H      -6.473131354     -4.413932184     -5.007041194
H      -5.495338795     -5.723059422     -3.966963527
H      -3.645744209     -4.153896191     -5.463402993
H      -4.051202426     -5.968519811     -5.343818612
           6
  t=       192.00000    1    1
C      -5.423189473     -4.911671576     -4.516360437
C      -4.433887605     -4.884223463     -5.332107957
H      -6.452177262     -4.453011310     -5.060750391
H      -5.552578123     -5.789458664     -3.975759312
H      -3.703680280     -4.195390266     -5.454088170
H      -4.031072934     -6.030852873     -5.351452198
           6
  t=       192.50000    1    1
C      -5.437124990     -4.916957857     -4.517197441
C      -4.444677831     -4.892570929     -5.356680850
H      -6.424951336     -4.491516863     -5.106785979
H      -5.612349961     -5.859676333     -3.982838437
H      -3.757979137     -4.229527089     -5.450545915
H      -4.009691479     -6.085625189     -5.359190802
           6
  t=       193.00000    1    1
C      -5.452572566     -4.922273559     -4.518311937
C      -4.455128588     -4.902957119     -5.380967382
H      -6.392609718     -4.528589068     -5.144981964
H      -5.673247921     -5.929004520     -3.990604551
H      -3.802680711     -4.250538541     -5.453747833
H      -3.987924681     -6.131202360     -5.367443513
           6
  t=       193.50000    1    1
C      -5.469353224     -4.927967584     -4.519748555
C      -4.465761984     -4.915920944     -5.404712018
H      -6.356640375     -4.563357833     -5.175435383
H      -5.733720584     -5.993788115     -4.000759786
H      -3.832977440     -4.253412100     -5.464087738
H      -3.966554915     -6.166543218     -5.376530437
           6
  t=       194.00000    1    1
C      -5.487231835     -4.934310969     -4.521571846
C      -4.476787794     -4.931668166     -5.427721560
H      -6.319054314     -4.594835490     -5.198677396
H      -5.792467259     -6.051422243     -4.014240233
H      -3.847871154     -4.236658046     -5.481301121
H      -3.946172132     -6.191048662     -5.386781746
           6
  t=       194.50000    1    1
C      -5.505911309     -4.941513195     -4.523832964
C      -4.488041963     -4.949970969     -5.449865749
H      -6.282430073     -4.622001241     -5.215780225
H      -5.848605920     -6.100230138     -4.031356275
H      -3.850683625     -4.203429774     -5.504634316
H      -3.927252921     -6.204481306     -5.398511103
           6
  t=       195.00000    1    1
C      -5.525067647     -4.949746462     -4.526546791
C      -4.499162556     -4.970336685     -5.471056967
H      -6.249659599     -4.643761360     -5.228350435
H      -5.901549752     -6.139252748     -4.052026638
H      -3.846800835     -4.159685080     -5.533199010
H      -3.910279519     -6.206754748     -5.411948209
           6
  t=       195.50000    1    1
C      -5.544371586     -4.959156205     -4.529688761
C      -4.509796675     -4.992229370     -5.491225269
H      -6.223684021     -4.658921955     -5.238494370
H      -5.950841893     -6.168051697     -4.075971454
H      -3.841333827     -4.111675423     -5.566144332
H      -3.895785030     -6.197902955     -5.427243632
           6
  t=       196.00000    1    1
C      -5.563522579     -4.969859535     -4.533221056
C      -4.519696339     -5.015204793     -5.510308742
H      -6.207177768     -4.666270319     -5.248445864
H      -5.996068068     -6.186492488     -4.102834526
H      -3.838041444     -4.064394996     -5.602670100
H      -3.884286538     -6.178176819     -5.444508280
           6
  t=       196.50000    1    1
C      -5.582295295     -4.981938600     -4.537138037
C      -4.528724651     -5.038915293     -5.528261138
H      -6.202020226     -4.664813873     -5.259907350
H      -6.036859590     -6.194577899     -4.132239394
H      -3.839362859     -4.021404942     -5.642004730
H      -3.876150358     -6.148168742     -5.463806028
           6
  t=       197.00000    1    1
C      -5.600576393     -4.995434007     -4.541507826
C      -4.536830197     -5.063057005     -5.545057336
H      -6.208852984     -4.654062702     -5.273460933
H      -6.072902696     -6.192345485     -4.163813006
H      -3.846816376     -3.985328186     -5.683421802
H      -3.871493543     -6.108845059     -5.485141864
           6
  t=       197.50000    1    1
C      -5.618373665     -5.010333083     -4.546496458
C      -4.544043518     -5.087350327     -5.560686739
H      -6.226927626     -4.634183510     -5.288311951
H      -6.103931529     -6.179904428     -4.197168278
H      -3.861176634     -3.957993026     -5.726303895
H      -3.870098951     -6.061584249     -5.508462803
           6
  t=       198.00000    1    1
C      -5.635786299     -5.026549842     -4.552354041
C      -4.550478072     -5.111513587     -5.575149728
H      -6.254330650     -4.606070877     -5.302528079
H      -6.129766272     -6.157592757     -4.231871716
H      -3.882698827     -3.940562253     -5.770133333
H      -3.871270877     -6.008371801     -5.533667591
           6
  t=       198.50000    1    1
C      -5.652947522     -5.043905118     -4.559375302
C      -4.556344365     -5.135229744     -5.588457652
H      -6.288448151     -4.571271767     -5.313622882
H      -6.150433049     -6.126258091     -4.267385383
H      -3.911330055     -3.933676393     -5.814434943
H      -3.873554222     -5.952085251     -5.560608678
           6
  t=       199.00000    1    1
C      -5.669965579     -5.062131324     -4.567868289
C      -4.561968322     -5.158115351     -5.600626724
H      -6.326531753     -4.531617470     -5.319139845
H      -6.166295140     -6.087529407     -4.302968092
H      -3.946915211     -3.937647917     -5.858747158
H      -3.874315722     -5.896709379     -5.589081528
           6
  t=       199.50000    1    1
C      -5.686878330     -5.080888213     -4.578103611
C      -4.567793620     -5.179732179     -5.611686986
H      -6.366134312     -4.488814124     -5.317184124
H      -6.178189750     -6.044041802     -4.337676575
H      -3.989302711     -3.952492995     -5.902648539
H      -3.869579081     -5.847162824     -5.618763254
           6
  t=       200.00000    1    1
C      -5.703665409     -5.099756185     -4.590329392
C      -4.574274180     -5.199795043     -5.621693222
H      -6.405377736     -4.443642258     -5.306209615
H      -6.187326218     -5.999752358     -4.370371590
H      -4.038525062     -3.977516815     -5.945852100
H      -3.854814462     -5.807800787     -5.649016825
