           6
  t=         0.00000    2    2
C      -0.654585182      0.007483878     -0.011836900
C       0.660675922      0.001190739      0.009378438
H      -1.256490451      0.886334161      0.038408058
H      -1.296987912     -0.974221400      0.021161992
H       1.251319252      0.902556189     -0.027517469
H       1.229583832     -0.918032940     -0.002758320
           6
  t=         0.50000    1    1
C      -0.656340044      0.006465040     -0.011872560
C       0.659028431      0.002028638      0.008466685
H      -1.245820899      0.885308588      0.039408747
H      -1.290354526     -0.965152319      0.022848740
H       1.259772574      0.904490118     -0.022558833
H       1.244369071     -0.925855194      0.000885065
           6
  t=         1.00000    2    2
C      -0.654507355      0.009759168     -0.007021927
C       0.663387815      0.007607088      0.012381913
H      -1.178266366      0.944240374      0.098478977
H      -1.222466590     -0.893854356      0.081627465
H       1.325571434      0.964363222      0.039929576
H       1.316039614     -0.874987203      0.062791389
           6
  t=         1.50000    1    1
C      -0.658424487      0.008261545     -0.006965145
C       0.664399219      0.008623834      0.011451852
H      -1.169420664      0.945530498      0.099629673
H      -1.213240466     -0.881369280      0.081835080
H       1.329290823      0.962215503      0.043909231
H       1.327992021     -0.881765791      0.066979274
           6
  t=         2.00000    1    1
C      -0.658119007      0.011877312     -0.001924389
C       0.671845402      0.014793798      0.015470415
H      -1.102929941      1.006056722      0.159523414
H      -1.147109243     -0.812638696      0.140267387
H       1.387497070      1.014759837      0.105994989
H       1.396196987     -0.828772069      0.130019253
           6
  t=         2.50000    1    1
C      -0.657262789      0.016723892      0.003204636
C       0.680380421      0.021404677      0.019741209
H      -1.037292314      1.064385410      0.217504071
H      -1.089049570     -0.755904771      0.199781077
H       1.438844711      1.061241592      0.166721504
H       1.460648584     -0.775441326      0.191192894
           6
  t=         3.00000    1    1
C      -0.655217627      0.023914762      0.008253132
C       0.690189718      0.028605977      0.024428217
H      -0.972725885      1.117622297      0.272789511
H      -1.045748570     -0.721595531      0.263281993
H       1.481667074      1.100384485      0.224771790
H       1.520104363     -0.722224303      0.249750828
           6
  t=         3.50000    1    1
C      -0.651571910      0.034160474      0.013018183
C       0.701412583      0.036512929      0.029668588
H      -0.909777235      1.163566629      0.324648604
H      -1.020975592     -0.716135772      0.334194116
H       1.514872434      1.131226565      0.278889442
H       1.573407650     -0.669373262      0.305040298
           6
  t=         4.00000    1    1
C      -0.646356786      0.047253466      0.017511959
C       0.714030807      0.045159139      0.035564651
H      -0.849047806      1.201295607      0.372572272
H      -1.012508218     -0.736193572      0.413098628
H       1.538271942      1.153570560      0.328192123
H       1.619714427     -0.617027240      0.356507172
           6
  t=         4.50000    1    1
C      -0.639912820      0.062393526      0.022055728
C       0.728027655      0.054527025      0.042212553
H      -0.791172434      1.230562819      0.416122948
H      -1.014856597     -0.771817698      0.496711487
H       1.551940549      1.167651963      0.372057638
H       1.658352186     -0.565381998      0.403521500
           6
  t=         5.00000    1    1
C      -0.632608166      0.078804529      0.027044621
C       0.743443414      0.064594913      0.049719704
H      -0.736793915      1.251603951      0.454941914
H      -1.023016948     -0.813686907      0.580628692
H       1.555963874      1.173802546      0.409955187
H       1.688781091     -0.514819882      0.445388656
           6
  t=         5.50000    1    1
C      -0.624706577      0.095934270      0.032816006
C       0.760318455      0.075349711      0.058207467
H      -0.686687095      1.264878509      0.488732791
H      -1.033455636     -0.855299406      0.660950067
H       1.550544964      1.172690003      0.441278394
H       1.710701065     -0.466234050      0.481445517
           6
  t=         6.00000    1    1
C      -0.616322226      0.113416407      0.039612936
C       0.778538710      0.086779457      0.067768778
H      -0.641526068      1.270725047      0.517335447
H      -1.043875892     -0.892453353      0.734687007
H       1.536418994      1.165628143      0.465474613
H       1.724473875     -0.420970905      0.511389900
           6
  t=         6.50000    1    1
C      -0.607433287      0.131010773      0.047633165
C       0.797882428      0.098905405      0.078391229
H      -0.602017390      1.269052757      0.540734729
H      -1.052642763     -0.922035963      0.799652258
H       1.514125336      1.154004826      0.482108498
H       1.731014016     -0.380831820      0.535651051
           6
  t=         7.00000    1    1
C      -0.597929769      0.148594255      0.056930390
C       0.818053123      0.111767473      0.089990498
H      -0.568551762      1.259823045      0.559156919
H      -1.058905559     -0.942539718      0.855222551
H       1.484086695      1.138761779      0.491158216
H       1.731661022     -0.347236125      0.555012714
           6
  t=         7.50000    1    1
C      -0.587688731      0.166086731      0.067456121
C       0.838691445      0.125394034      0.102490781
H      -0.541220886      1.243448331      0.572946317
H      -1.062326408     -0.953673297      0.901574499
H       1.447142916      1.121044508      0.492816759
H       1.728145806     -0.321416419      0.570242016
           6
  t=         8.00000    1    1
C      -0.576601802      0.183381642      0.079127601
C       0.859415416      0.139766383      0.115792441
H      -0.520136863      1.221058767      0.582673060
H      -1.062779719     -0.955526763      0.939040403
H       1.404520463      1.102525791      0.487518162
H       1.722488662     -0.304592994      0.582175839
           6
  t=         8.50000    1    1
C      -0.564574650      0.200304268      0.091859535
C       0.879846970      0.154789421      0.129759889
H      -0.505555820      1.194741055      0.589242959
H      -1.060201000     -0.948147500      0.967782557
H       1.357711106      1.085480811      0.475976473
H       1.716770332     -0.297865233      0.591664009
           6
  t=         9.00000    1    1
C      -0.551525780      0.216599722      0.105565985
C       0.899612036      0.170242052      0.144210104
H      -0.497712041      1.167518877      0.593911181
H      -1.054552894     -0.931475595      0.987773975
H       1.308627568      1.073162809      0.459432793
H       1.712761246     -0.301898360      0.599442070
           6
  t=         9.50000    1    1
C      -0.537391933      0.231920814      0.120152196
C       0.918332780      0.185737643      0.158930042
H      -0.496564514      1.143169989      0.598187135
H      -1.045850690     -0.905386029      0.998839916
H       1.259941107      1.070366238      0.439844502
H       1.711512804     -0.316645578      0.605885608
           6
  t=        10.00000    1    1
C      -0.522130756      0.245843973      0.135498458
C       0.935681937      0.200798397      0.173746032
H      -0.501818911      1.125970100      0.603762461
H      -1.034138258     -0.869779540      1.000769045
H       1.214689222      1.082493497      0.419387017
H       1.713131967     -0.341143869      0.610834736
           6
  t=        10.50000    1    1
C      -0.505715329      0.257935419      0.151477395
C       0.951462439      0.215015355      0.188577602
H      -0.513394959      1.120121747      0.612338890
H      -1.019459446     -0.824626963      0.993368544
H       1.175524402      1.113617029      0.399571542
H       1.716957259     -0.373655545      0.613745999
           6
  t=        11.00000    1    1
C      -0.488117381      0.267867642      0.168024698
C       0.965647608      0.228236727      0.203449082
H      -0.531620952      1.128548972      0.625073764
H      -1.001814127     -0.769870510      0.976371703
H       1.143804825      1.164386074      0.380602367
H       1.721939682     -0.412100507      0.614000826
           6
  t=        11.50000    1    1
C      -0.469327217      0.275554309      0.185199727
C       0.978357685      0.240663128      0.218453352
H      -0.556887216      1.151682134      0.641858347
H      -0.981211809     -0.705667868      0.949489659
H       1.119610186      1.230837162      0.361552503
H       1.726851087     -0.454149720      0.611109778
           6
  t=        12.00000    1    1
C      -0.449385271      0.281231921      0.203171525
C       0.989752197      0.252748057      0.233677959
H      -0.588959618      1.187030008      0.660935692
H      -0.957953227     -0.633126893      0.912830505
H       1.102886411      1.305573068      0.341333636
H       1.730393080     -0.497028669      0.604752559
           6
  t=        12.50000    1    1
C      -0.428431941      0.285421485      0.222095512
C       0.999985960      0.264970552      0.249156902
H      -0.626437078      1.229888251      0.679546516
H      -0.932602138     -0.554498252      0.867415630
H       1.093572622      1.381379856      0.319461152
H       1.731617432     -0.538484647      0.594894669
           6
  t=        13.00000    1    1
C      -0.406590065      0.288799106      0.242031179
C       1.009196185      0.277671220      0.264868266
H      -0.667511631      1.275311348      0.694980280
H      -0.906552262     -0.473381116      0.815352509
H       1.091720269      1.452758504      0.296081450
H       1.729887183     -0.576588723      0.581544974
           6
  t=        13.50000    1    1
C      -0.383880978      0.292151255      0.262868808
C       1.017562582      0.291023582      0.280754282
H      -0.710681107      1.319337505      0.705356080
H      -0.882720013     -0.395181060      0.760091750
H       1.097313552      1.515890749      0.271605737
H       1.724745216     -0.609594242      0.564718318
           6
  t=        14.00000    1    1
C      -0.360108044      0.296445971      0.284260291
C       1.025268557      0.305113354      0.296756933
H      -0.754613414      1.359079216      0.709619211
H      -0.866660800     -0.328320087      0.707050876
H       1.110322013      1.568086050      0.246478285
H       1.715916853     -0.636057349      0.544446861
           6
  t=        14.50000    1    1
C      -0.334892929      0.302774437      0.305699329
C       1.032502609      0.319993939      0.312834237
H      -0.798040381      1.392340018      0.707365082
H      -0.866589425     -0.283346450      0.662639300
H       1.130955311      1.607224879      0.221170900
H       1.703384887     -0.654752310      0.520787105
           6
  t=        15.00000    1    1
C      -0.308112858      0.311852790      0.326861435
C       1.039525664      0.335701912      0.328931719
H      -0.839337247      1.417505269      0.698826414
H      -0.888865142     -0.266930346      0.630110549
H       1.159146437      1.631828331      0.196337758
H       1.687378737     -0.664884450      0.494114227
           6
  t=        15.50000    1    1
C      -0.280115183      0.323676289      0.347868780
C       1.046560994      0.352197519      0.344966054
H      -0.876774368      1.433959766      0.684622764
H      -0.933394598     -0.278007214      0.607155463
H       1.194259513      1.641453945      0.172574677
H       1.668189796     -0.665930500      0.465059112
           6
  t=        16.00000    1    1
C      -0.251807270      0.337589263      0.369096461
C       1.053787488      0.369363168      0.360864607
H      -0.908986069      1.441811635      0.665340479
H      -0.992135419     -0.308046069      0.588537375
H       1.235083446      1.636603004      0.150460911
H       1.646301387     -0.657816876      0.434088809
           6
  t=        16.50000    1    1
C      -0.224374689      0.352828152      0.390832009
C       1.061472263      0.387100057      0.376542817
H      -0.934841431      1.441191791      0.641474542
H      -1.054732104     -0.347321527      0.570296150
H       1.280438707      1.618073935      0.130584683
H       1.622350635     -0.640922688      0.401661717
           6
  t=        17.00000    1    1
C      -0.198809724      0.368868004      0.413163346
C       1.069919430      0.405312634      0.391911479
H      -0.953390287      1.432429394      0.613618857
H      -1.113623035     -0.389197383      0.550847490
H       1.329198110      1.587156126      0.113417597
H       1.597152954     -0.616108975      0.368311903
           6
  t=        17.50000    1    1
C      -0.175831037      0.385394443      0.436040144
C       1.079388045      0.423893156      0.406893499
H      -0.963980234      1.416240623      0.582498375
H      -1.163985417     -0.429785891      0.530090451
H       1.380339082      1.545649735      0.099320767
H       1.571732268     -0.584749974      0.334572584
           6
  t=        18.00000    1    1
C      -0.155973105      0.402222335      0.459356190
C       1.090081881      0.442736345      0.421423929
H      -0.966237244      1.393451185      0.549041533
H      -1.202817782     -0.466824070      0.508464731
H       1.433216505      1.495764841      0.088405985
H       1.547298722     -0.548683999      0.301003310
           6
  t=        18.50000    1    1
C      -0.139515729      0.419261052      0.482985618
C       1.102093702      0.461732472      0.435465008
H      -0.960234660      1.364961989      0.514473031
H      -1.228904164     -0.499228643      0.486446458
H       1.487567822      1.440045029      0.080341116
H       1.525200959     -0.510051440      0.268185136
           6
  t=        19.00000    1    1
C      -0.126523153      0.436488044      0.506811387
C       1.115406052      0.480750476      0.449010659
H      -0.946332451      1.331762424      0.479963518
H      -1.242156151     -0.526782905      0.464495821
H       1.543442682      1.381398861      0.074545367
H       1.506634384     -0.471136571      0.236535030
           6
  t=        19.50000    1    1
C      -0.116806395      0.453877102      0.530718798
C       1.129822930      0.499621430      0.462119238
H      -0.925186383      1.295016669      0.446365952
H      -1.243097231     -0.549582044      0.443190550
H       1.601322809      1.323576682      0.070208779
H       1.492380156     -0.434433547      0.206103644
           6
  t=        20.00000    1    1
C      -0.109990571      0.471327047      0.554575653
C       1.144984881      0.518146241      0.474906720
H      -0.897938406      1.256253057      0.414342724
H      -1.232171265     -0.567387375      0.423229002
H       1.662234560      1.270867817      0.066284440
H       1.482813881     -0.402420761      0.176770447
           6
  t=        20.50000    1    1
C      -0.105611624      0.488657844      0.578251328
C       1.160504520      0.536128625      0.487486155
H      -0.866639227      1.217756277      0.384481366
H      -1.209642777     -0.579737204      0.405243010
H       1.727452097      1.226881037      0.061696386
H       1.478063038     -0.376969289      0.148601437
           6
  t=        21.00000    1    1
C      -0.103140851      0.505631835      0.601660242
C       1.176098587      0.553424775      0.499902877
H      -0.834414356      1.182665779      0.356968524
H      -1.175883131     -0.586286374      0.389729391
H       1.797692236      1.193438744      0.055896256
H       1.477983080     -0.358840728      0.121941094
           6
  t=        21.50000    1    1
C      -0.102004168      0.521966091      0.624769904
C       1.191621954      0.569960761      0.512098115
H      -0.805148749      1.154705015      0.331341797
H      -1.131285146     -0.586771308      0.377178221
H       1.872531329      1.170614335      0.049306595
H       1.482164096     -0.347843277      0.097426618
           6
  t=        22.00000    1    1
C      -0.101644741      0.537386995      0.647599809
C       1.207056705      0.585712277      0.523920967
H      -0.782580269      1.137412907      0.306523043
H      -1.076216167     -0.580994763      0.368077656
H       1.950305206      1.157208817      0.043218170
H       1.489953913     -0.342964151      0.075923062
           6
  t=        22.50000    1    1
C      -0.101633504      0.551703158      0.670188881
C       1.222476569      0.600674523      0.535179528
H      -0.769095217      1.133181162      0.281246863
H      -1.010962246     -0.568802715      0.362913460
H       2.028529143      1.151445583      0.039317652
H       1.500518471     -0.342634759      0.058346266
           6
  t=        23.00000    1    1
C      -0.101746309      0.564859634      0.692517513
C       1.237987609      0.614833145      0.545693454
H      -0.765008447      1.142692195      0.254926041
H      -0.935674525     -0.550034769      0.362201211
H       2.104513119      1.151593513      0.039183106
H       1.513079075     -0.345141032      0.045572328
           6
  t=        23.50000    1    1
C      -0.101952577      0.576946042      0.714469242
C       1.253694705      0.628163595      0.555324999
H      -0.768631808      1.164876439      0.228135831
H      -0.850603362     -0.524605291      0.366469455
H       2.175835585      1.156230044      0.044025089
H       1.527005422     -0.348851848      0.038315975
           6
  t=        24.00000    1    1
C      -0.102299921      0.588164864      0.735836938
C       1.269676428      0.640638778      0.563980744
H      -0.777160549      1.197401960      0.202563584
H      -0.756427996     -0.492649290      0.376175730
H       2.240490434      1.164275903      0.054700766
H       1.541809227     -0.352310823      0.037156397
           6
  t=        24.50000    1    1
C      -0.102792502      0.598774883      0.756378585
C       1.285967415      0.652240078      0.571606166
H      -0.787703357      1.237290582      0.180419439
H      -0.654404402     -0.454519349      0.391602078
H       2.296927029      1.174967672      0.071799325
H       1.557042617     -0.354285549      0.042545691
           6
  t=        25.00000    1    1
C      -0.103316348      0.609051582      0.775891161
C       1.302548316      0.662964390      0.578182767
H      -0.797959814      1.281570448      0.163710649
H      -0.546424430     -0.410948671      0.412733428
H       2.344016128      1.187807306      0.095692132
H       1.572298802     -0.353818500      0.054759854
           6
  t=        25.50000    1    1
C      -0.103625064      0.619329654      0.794279622
C       1.319348505      0.672846990      0.583743214
H      -0.806336401      1.327681647      0.153855686
H      -0.435175195     -0.363981330      0.438848374
H       2.381046771      1.202416349      0.126418386
H       1.587287916     -0.350335642      0.073805903
           6
  t=        26.00000    1    1
C      -0.103423038      0.630048716      0.811552550
C       1.336274704      0.681955719      0.588353258
H      -0.811686892      1.373496089      0.151879299
H      -0.323576644     -0.317438644      0.468393897
H       2.407632755      1.218459029      0.163767111
H       1.601758957     -0.343598506      0.099537348
           6
  t=        26.50000    1    1
C      -0.102431484      0.641773065      0.827820292
C       1.353221367      0.690395280      0.592085746
H      -0.813114925      1.417003124      0.158520062
H      -0.214573106     -0.276894357      0.499047297
H       2.423709051      1.235558604      0.207470401
H       1.615760636     -0.333617532      0.131623333
           6
  t=        27.00000    1    1
C      -0.100446557      0.655110472      0.843267414
C       1.370078120      0.698313787      0.595012792
H      -0.809868458      1.456252241      0.174147838
H      -0.110869487     -0.248725225      0.528229078
H       2.429487615      1.253368902      0.257311339
H       1.629920102     -0.320726189      0.169431917
           6
  t=        27.50000    1    1
C      -0.097384258      0.670423579      0.858040076
C       1.386735937      0.705896056      0.597253543
H      -0.801516994      1.489746557      0.198677418
H      -0.013797094     -0.237041062      0.554179018
H       2.425575895      1.271691905      0.312775548
H       1.644828910     -0.305643076      0.212161572
           6
  t=        28.00000    1    1
C      -0.093187929      0.687625040      0.872120476
C       1.403129909      0.713361338      0.599012871
H      -0.787991752      1.516566537      0.231744529
H       0.074818943     -0.241581390      0.577068853
H       2.412905392      1.290663126      0.372891922
H       1.661410263     -0.289416367      0.258746893
           6
  t=        28.50000    1    1
C      -0.087731707      0.706271949      0.885383603
C       1.419165696      0.720929753      0.600549863
H      -0.769638543      1.536562287      0.272707944
H       0.152963531     -0.258663789      0.598381213
H       2.392813099      1.310702301      0.436351567
H       1.680312408     -0.273343721      0.308057748
           6
  t=        29.00000    1    1
C      -0.080828932      0.725789878      0.897711142
C       1.434697863      0.728802949      0.602125853
H      -0.747171013      1.550207267      0.320663082
H       0.218486561     -0.283461215      0.619806625
H       2.367068558      1.332401072      0.501739573
H       1.702138361     -0.258875333      0.359018943
           6
  t=        29.50000    1    1
C      -0.072277156      0.745625053      0.909045827
C       1.449537567      0.737139986      0.603962881
H      -0.721562404      1.558438144      0.374511783
H       0.269233782     -0.311659181      0.642671305
H       2.337858281      1.356567812      0.567758203
H       1.727666983     -0.247367447      0.410736751
           6
  t=        30.00000    1    1
C      -0.061887337      0.765289479      0.919387814
C       1.463471982      0.746020208      0.606216238
H      -0.693995957      1.562596003      0.433058670
H       0.303763418     -0.339856405      0.667847870
H       2.307553612      1.384199317      0.633437028
H       1.757435358     -0.239689865      0.462652133
           6
  t=        30.50000    1    1
C      -0.049491310      0.784364268      0.928783624
C       1.476299491      0.755424133      0.608969621
H      -0.665902481      1.564385227      0.495069832
H       0.321694642     -0.365440591      0.695765335
H       2.278337415      1.416279438      0.698217603
H       1.791470853     -0.235919659      0.514576795
           6
  t=        31.00000    1    1
C      -0.034910971      0.802460921      0.937315049
C       1.487885085      0.765268287      0.612263888
H      -0.639174657      1.566046134      0.559210585
H       0.323350724     -0.386465720      0.726530979
H       2.251756343      1.453433939      0.761837499
H       1.829282718     -0.235245062      0.566539070
           6
  t=        31.50000    1    1
C      -0.017949227      0.819204578      0.945086518
C       1.498195069      0.775457080      0.616139369
H      -0.616196735      1.570349138      0.624091541
H       0.309502154     -0.401531730      0.760021623
H       2.228399283      1.495597886      0.824077049
H       1.869948826     -0.236165860      0.618546327
           6
  t=        32.00000    1    1
C       0.001583561      0.834256937      0.952190010
C       1.507295211      0.785925982      0.620674033
H      -0.599406943      1.580028974      0.688593283
H       0.281081214     -0.409540413      0.795990676
H       2.207878228      1.541848116      0.884485193
H       1.912319797     -0.236791835      0.670390589
           6
  t=        32.50000    1    1
C       0.023803965      0.847373464      0.958673382
C       1.515315064      0.796656772      0.625995301
H      -0.590530635      1.596867950      0.752214991
H       0.239072433     -0.409462983      0.834135340
H       2.189188501      1.590548222      0.942261038
H       1.955208387     -0.235166773      0.721587807
           6
  t=        33.00000    1    1
C       0.048682266      0.858455758      0.964530807
C       1.522405131      0.807671196      0.632256071
H      -0.589817287      1.620904324      0.815173899
H       0.184671216     -0.400240283      0.874161058
H       2.171253528      1.639779789      0.996401281
H       1.997306006     -0.229556264      0.771466147
           6
  t=        33.50000    1    1
C       0.075989941      0.867570259      0.969732399
C       1.528726908      0.819020657      0.639600581
H      -0.595711100      1.650319786      0.878129047
H       0.119115737     -0.381009890      0.915777871
H       2.153234159      1.687756293      1.045879268
H       2.037456511     -0.218622081      0.819320621
           6
  t=        34.00000    1    1
C       0.105303469      0.874917254      0.974277447
C       1.534468086      0.830781581      0.648133742
H      -0.605335484      1.682238632      0.941654342
H       0.043637291     -0.351499433      0.958687581
H       2.134567776      1.733007441      1.089806143
H       2.074924712     -0.201587835      0.864522735
           6
  t=        34.50000    1    1
C       0.136087894      0.880787623      0.978234657
C       1.539819931      0.843004411      0.657913078
H      -0.615338816      1.713774309      1.005884366
H      -0.040072033     -0.312164397      1.002398711
H       2.114831028      1.774507938      1.127494885
H       2.109185523     -0.178153260      0.906612294
           6
  t=        35.00000    1    1
C       0.167732528      0.885481962      0.981739530
C       1.544991284      0.855706093      0.668959781
H      -0.622534861      1.742631861      1.070463732
H      -0.129448467     -0.263767419      1.046262620
H       2.093797044      1.811521495      1.158441268
H       2.139504110     -0.148308235      0.945230470
           6
  t=        35.50000    1    1
C       0.199601136      0.889288017      0.984970611
C       1.550203609      0.868879258      0.681265217
H      -0.624187230      1.767224845      1.134709977
H      -0.221614340     -0.207351218      1.089544321
H       2.071378876      1.843562098      1.182322659
H       2.165295640     -0.112278430      0.980092744
           6
  t=        36.00000    1    1
C       0.231059246      0.892451564      0.988131549
C       1.555692372      0.882518869      0.694798855
H      -0.618084157      1.786601825      1.197748680
H      -0.313931100     -0.144093800      1.131478504
H       2.047640202      1.870387424      1.198948257
H       2.186400522     -0.070560666      1.010966789
           6
  t=        36.50000    1    1
C       0.261498944      0.895158762      0.991436182
C       1.561681999      0.896625235      0.709512143
H      -0.602639787      1.800445963      1.258655107
H      -0.403833917     -0.075093401      1.171239298
H       2.022784170      1.892011267      1.208258421
H       2.203034474     -0.023975553      1.037693411
           6
  t=        37.00000    1    1
C       0.290349059      0.897543702      0.995096961
C       1.568387387      0.911198632      0.725328018
H      -0.577003083      1.808980213      1.316589868
H      -0.488813920     -0.001339104      1.207974848
H       1.997137347      1.908756270      1.210393264
H       2.215756239      0.026319323      1.060210469
           6
  t=        37.50000    1    1
C       0.317004808      0.899719774      0.999333791
C       1.576047900      0.926237627      0.742151923
H      -0.540847234      1.812767899      1.370698577
H      -0.566310668      0.076137880      1.240842326
H       1.971214744      1.921254859      1.205677635
H       2.225517786      0.078825371      1.078396722
           6
  t=        38.00000    1    1
C       0.340959902      0.901886128      1.004329462
C       1.584835512      0.941697741      0.759823284
H      -0.494463302      1.812513442      1.419914696
H      -0.633985620      0.155775307      1.269600288
H       1.945475450      1.930221544      1.195281698
H       2.233796103      0.131842912      1.092125281
           6
  t=        38.50000    1    1
C       0.362036080      0.904162167      1.010193905
C       1.594711386      0.957569741      0.778156392
H      -0.438478743      1.808923344      1.463962722
H      -0.690640040      0.236154688      1.293776575
H       1.920570342      1.936859069      1.180154033
H       2.241955946      0.183568435      1.102098172
           6
  t=        39.00000    1    1
C       0.380083843      0.906626924      1.017017574
C       1.605565003      0.973858165      0.796972143
H      -0.373417839      1.802888702      1.502721018
H      -0.735443594      0.315749047      1.312823890
H       1.897478031      1.943021636      1.161201360
H       2.251810921      0.231787801      1.109133929
           6
  t=        39.50000    1    1
C       0.394945056      0.909350953      1.024876011
C       1.617265422      0.990540246      0.816097796
H      -0.299748586      1.795206054      1.535929562
H      -0.767860263      0.393078925      1.326397718
H       1.877401382      1.951125691      1.139537297
H       2.265534678      0.274198072      1.113881677
           6
  t=        40.00000    1    1
C       0.406554150      0.912382110      1.033822909
C       1.629648625      1.007539731      0.835383565
H      -0.218164875      1.786559632      1.563308343
H      -0.787704737      0.466936564      1.334333676
H       1.861591087      1.963881541      1.116355921
H       2.285120784      0.308950841      1.116736721
           6
  t=        40.50000    1    1
C       0.414993612      0.915730596      1.043874617
C       1.642541698      1.024727947      0.854721842
H      -0.129789010      1.777898450      1.584864811
H      -0.795145226      0.536361501      1.336569985
H       1.851001643      1.983699438      1.092692662
H       2.311982759      0.335058988      1.117805387
           6
  t=        41.00000    1    1
C       0.420488405      0.919366374      1.054995290
C       1.655808100      1.041945407      0.874056155
H      -0.036226061      1.770859100      1.601111684
H      -0.790670187      0.600463045      1.333138968
H       1.846089419      2.012014700      1.069316193
H       2.346704158      0.352599578      1.116873971
           6
  t=        41.50000    1    1
C       0.423367712      0.923215744      1.067081685
C       1.669391443      1.059034303      0.893376273
H       0.060318313      1.767803394      1.613205523
H      -0.775068101      0.658430279      1.324253772
H       1.847046099      2.048806732      1.046693251
H       2.388836873      0.362800901      1.113458173
           6
  t=        42.00000    1    1
C       0.424034975      0.927160593      1.079966373
C       1.683323828      1.075871086      0.912702288
H       0.157037540      1.771505678      1.622997105
H      -0.749440895      0.709684324      1.310327058
H       1.854114759      2.092595028      1.024929642
H       2.436856585      0.367827578      1.106944321
           6
  t=        42.50000    1    1
C       0.422942627      0.931076719      1.093463536
C       1.697697504      1.092379730      0.932057788
H       0.251142526      1.784630989      1.632681093
H      -0.715284053      0.753903322      1.291837215
H       1.867368411      2.140945380      1.003865672
H       2.488484578      0.370156437      1.096752200
           6
  t=        43.00000    1    1
C       0.420610674      0.934930173      1.107415790
C       1.712586876      1.108537373      0.951461259
H       0.340878437      1.808552785      1.643883814
H      -0.674901532      0.791029912      1.269371705
H       1.886285814      2.190947158      0.983289223
H       2.541218065      0.372059008      1.082535150
           6
  t=        43.50000    1    1
C       0.417625839      0.938846601      1.121733516
C       1.728014697      1.124375429      0.970901986
H       0.425411356      1.842456483      1.657156267
H      -0.631738499      0.821176121      1.243660961
H       1.910083834      2.239629524      0.963018586
H       2.592856970      0.375337189      1.064389018
           6
  t=        44.00000    1    1
C       0.414667631      0.943085799      1.136402264
C       1.743946423      1.139951407      0.990334079
H       0.504311164      1.883682399      1.671964688
H      -0.590593764      0.844402993      1.215509831
H       1.938099724      2.284505283      0.943044560
H       2.641607770      0.381295897      1.042770923
           6
  t=        44.50000    1    1
C       0.412527415      0.947969751      1.151451346
C       1.760313752      1.155308592      1.009678330
H       0.576832863      1.928806027      1.687253678
H      -0.557333221      0.860701977      1.185676782
H       1.969838382      2.323735117      0.923585335
H       2.685960670      0.390855095      1.018354117
           6
  t=        45.00000    1    1
C       0.412029827      0.953816219      1.166924435
C       1.777035427      1.170465841      1.028826939
H       0.641634095      1.974443998      1.702031616
H      -0.537718171      0.870230666      1.154701981
H       2.004780117      2.355935541      0.905013055
H       2.724681158      0.404613001      0.991982064
           6
  t=        45.50000    1    1
C       0.413816854      0.960866501      1.182866359
C       1.794028113      1.185425304      1.047666219
H       0.697072069      2.017785570      1.715628728
H      -0.535259085      0.873554921      1.122772488
H       2.042323682      2.380177759      0.887736041
H       2.756867045      0.422842458      0.964549630
           6
  t=        46.00000    1    1
C       0.418143254      0.969252502      1.199301684
C       1.811219277      1.200182526      1.066089981
H       0.741786102      2.057007748      1.727807121
H      -0.549485568      0.871497281      1.089856354
H       2.081829620      2.395927087      0.872145641
H       2.781876711      0.445559915      0.936907913
           6
  t=        46.50000    1    1
C       0.424840909      0.979009951      1.216205800
C       1.828564001      1.214729080      1.084004625
H       0.775080930      2.091238449      1.738664664
H      -0.576062908      0.864949489      1.056126886
H       2.122611760      2.403028182      0.858614720
H       2.799295366      0.472575769      0.909821431
           6
  t=        47.00000    1    1
C       0.433510848      0.990133928      1.233502752
C       1.846041689      1.229044903      1.101331043
H       0.796577397      2.120051715      1.748338855
H      -0.608703736      0.854861340      1.022292755
H       2.163926973      2.401693169      0.847529647
H       2.808957345      0.503451730      0.883905319
           6
  t=        47.50000    1    1
C       0.443741558      1.002617357      1.251083943
C       1.863635421      1.243094167      1.118001931
H       0.805997934      2.143196176      1.756877255
H      -0.641336811      0.842153771      0.989489121
H       2.204980174      2.392453605      0.839336992
H       2.810969146      0.537497919      0.859626272
           6
  t=        48.00000    1    1
C       0.455210552      1.016459259      1.268835985
C       1.881319039      1.256826208      1.133957565
H       0.803151639      2.160519850      1.764164515
H      -0.669176318      0.827686991      0.958994885
H       2.244923722      2.376088996      0.834608264
H       2.805737802      0.573841945      0.837311959
           6
  t=        48.50000    1    1
C       0.467684135      1.031662996      1.286661135
C       1.899051934      1.270177386      1.149144975
H       0.788010843      2.171992836      1.769949783
H      -0.688764327      0.812225156      0.931993406
H       2.282857063      2.353596594      0.834036504
H       2.794002146      0.611470577      0.817132693
           6
  t=        49.00000    1    1
C       0.480989390      1.048230201      1.304485127
C       1.916773251      1.283075895      1.163528455
H       0.760656092      2.177728047      1.774038202
H      -0.697786678      0.796381154      0.909422757
H       2.318012633      2.326366474      0.838240898
H       2.776920590      0.649104067      0.799036452
           6
  t=        49.50000    1    1
C       0.494985705      1.066137640      1.322254203
C       1.934390062      1.295455601      1.177106004
H       0.721220430      2.178057252      1.776512828
H      -0.694895796      0.780594090      0.891906423
H       2.350077141      2.296421067      0.847524677
H       2.756108596      0.685014010      0.782677880
           6
  t=        50.00000    1    1
C       0.509551615      1.085333415      1.339923594
C       1.951774048      1.307249223      1.189904029
H       0.669851772      2.173577764      1.777750901
H      -0.679370143      0.765165168      0.879855273
H       2.379275935      2.266253582      0.861910263
H       2.733447690      0.717228780      0.767465241
           6
  t=        50.50000    1    1
C       0.524578910      1.105730196      1.357441043
C       1.968748525      1.318387005      1.201972505
H       0.606964546      2.165233436      1.778329045
H      -0.650810862      0.750286268      0.873578738
H       2.406209188      2.238616497      0.881310025
H       2.710919136      0.743731944      0.752627289
           6
  t=        51.00000    1    1
C       0.539970556      1.127174403      1.374731031
C       1.985062170      1.328817096      1.213405952
H       0.533790364      2.154377679      1.778919276
H      -0.609044257      0.736065712      0.873278461
H       2.431710511      2.216467357      0.905554540
H       2.690434892      0.762552077      0.737233399
           6
  t=        51.50000    1    1
C       0.555669015      1.149439302      1.391692945
C       2.000399207      1.338513851      1.224364925
H       0.452415914      2.142711422      1.780168413
H      -0.554272465      0.722499870      0.878989116
H       2.456907046      2.202741742      0.934341892
H       2.673431599      0.772063567      0.720189740
           6
  t=        52.00000    1    1
C       0.571659460      1.172298342      1.408217834
C       2.014496316      1.347449595      1.235008639
H       0.364881217      2.131951585      1.782770975
H      -0.486998178      0.709417338      0.890614953
H       2.483033037      2.199760902      0.967359287
H       2.660451961      0.771428927      0.700611386
           6
  t=        52.50000    1    1
C       0.587960781      1.195541665      1.424213796
C       2.027217181      1.355629692      1.245441603
H       0.273237868      2.123561733      1.787287417
H      -0.408074004      0.696489044      0.907822900
H       2.510932180      2.208428045      1.004468708
H       2.650852524      0.761047120      0.678258783
           6
  t=        53.00000    1    1
C       0.604615323      1.219044970      1.439653245
C       2.038609151      1.363101798      1.255649562
H       0.179061903      2.118231713      1.793981358
H      -0.318710655      0.683268246      0.930007089
H       2.540682914      2.227967022      1.045881444
H       2.643120734      0.742364485      0.653761440
           6
  t=        53.50000    1    1
C       0.621665840      1.242815391      1.454590974
C       2.048843847      1.369980728      1.265539971
H       0.084052002      2.115451495      1.802548009
H      -0.220793067      0.668911112      0.956255262
H       2.571749551      2.256056414      1.092043417
H       2.635424140      0.717603191      0.628340310
           6
  t=        54.00000    1    1
C       0.639107634      1.266954318      1.469144864
C       2.058139634      1.376437810      1.275005971
H      -0.009475305      2.113829937      1.812333798
H      -0.116720237      0.652172390      0.985325549
H       2.603261055      2.289564407      1.143179118
H       2.626170252      0.689281832      0.603535019
           6
  t=        54.50000    1    1
C       0.656925332      1.291607385      1.483458268
C       2.066716433      1.382673123      1.283963839
H      -0.098973496      2.111760259      1.822600187
H      -0.009307322      0.631416430      1.015769354
H       2.634250386      2.325125397      1.199153534
H       2.614157412      0.659889043      0.580957190
           6
  t=        55.00000    1    1
C       0.675088183      1.316930245      1.497667453
C       2.074784511      1.388899611      1.292364125
H      -0.181920137      2.107737598      1.832733483
H       0.098545367      0.604741122      1.046082842
H       2.663754670      2.359619713      1.259479894
H       2.598587309      0.631559370      0.562176626
           6
  t=        55.50000    1    1
C       0.693504215      1.343037694      1.511861262
C       2.082529802      1.395321705      1.300207943
H      -0.255853169      2.100386240      1.842344489
H       0.204485147      0.570626990      1.075042981
H       2.690888262      2.390518130      1.323274446
H       2.579116606      0.605913447      0.548617419
           6
  t=        56.00000    1    1
C       0.711965595      1.369908977      1.526060021
C       2.090134161      1.402114380      1.307544227
H      -0.318608332      2.088659351      1.851202888
H       0.307311941      0.528920130      1.102127688
H       2.714978236      2.415836853      1.389251510
H       2.555763579      0.584298135      0.541492361
           6
  t=        56.50000    1    1
C       0.730186173      1.397322412      1.540217007
C       2.097754612      1.409422869      1.314441538
H      -0.368592495      2.072119634      1.859082228
H       0.407045916      0.481343088      1.127804821
H       2.735710959      2.434105292      1.456080892
H       2.528767205      0.567809748      0.541630040
           6
  t=        57.00000    1    1
C       0.747886472      1.424887775      1.554232885
C       2.105517065      1.417378254      1.320982603
H      -0.404601040      2.050751275      1.865763128
H       0.503874592      0.431164026      1.153246458
H       2.753076282      2.444347922      1.522529080
H       2.498575326      0.557259306      0.549509154
           6
  t=        57.50000    1    1
C       0.764839996      1.452168282      1.567997628
C       2.113525707      1.426102530      1.327264924
H      -0.425533155      2.024687263      1.871132703
H       0.597274736      0.382036374      1.179636651
H       2.767231442      2.446014959      1.587437301
H       2.465910531      0.553161100      0.565366557
           6
  t=        58.00000    1    1
C       0.780895855      1.478736649      1.581426473
C       2.121860123      1.435698665      1.333411585
H      -0.430579783      1.994210679      1.875110249
H       0.685566676      0.337412816      1.208029045
H       2.778467706      2.438992147      1.649667504
H       2.432201819      0.555758073      0.588910743
           6
  t=        58.50000    1    1
C       0.796132345      1.504247481      1.594504447
C       2.130483344      1.446229663      1.339543954
H      -0.420409098      1.960254935      1.877351422
H       0.766913200      0.299527501      1.239473524
H       2.787146315      2.423489625      1.708531804
H       2.399100890      0.565037377      0.618856269
           6
  t=        59.00000    1    1
C       0.810702497      1.528516421      1.607240148
C       2.139280774      1.457714772      1.345776357
H      -0.396247977      1.923834197      1.877877529
H       0.840375898      0.269396223      1.274294143
H       2.793599154      2.399966321      1.763519364
H       2.367983173      0.580477532      0.653903912
           6
  t=        59.50000    1    1
C       0.824715279      1.551397689      1.619643745
C       2.148175890      1.470166889      1.352246720
H      -0.359425147      1.885906090      1.876986908
H       0.904993267      0.247818702      1.312441499
H       2.798220847      2.369252037      1.814051521
H       2.340357666      0.601074777      0.692618734
           6
  t=        60.00000    1    1
C       0.838266234      1.572787683      1.631738315
C       2.157102123      1.483608641      1.359108464
H      -0.311550162      1.847469281      1.875038765
H       0.959950844      0.235105712      1.353662700
H       2.801629949      2.332521819      1.859687114
H       2.317684593      0.625309482      0.733232508
           6
  t=        60.50000    1    1
C       0.851456289      1.592627445      1.643553231
C       2.165994454      1.498076700      1.366511944
H      -0.254742688      1.809598904      1.872466489
H       1.004617838      0.231012794      1.397647010
H       2.804705818      2.291186017      1.900239176
H       2.301407169      0.651206204      0.773667928
           6
  t=        61.00000    1    1
C       0.864452349      1.610869231      1.655105919
C       2.174785193      1.513615781      1.374585788
H      -0.192082532      1.773492359      1.869873347
H       1.038515512      0.235007666      1.444051492
H       2.808562220      2.246870028      1.935820306
H       2.292787978      0.676510488      0.811811783
           6
  t=        61.50000    1    1
C       0.877542733      1.627461772      1.666390699
C       2.183399607      1.530250679      1.383408498
H      -0.128146033      1.740445589      1.868134643
H       1.061431454      0.246607258      1.492519012
H       2.814486481      2.201390987      1.966944359
H       2.292783407      0.698907803      0.845764274
           6
  t=        62.00000    1    1
C       0.891152792      1.642333484      1.677370185
C       2.191758548      1.547967168      1.392993935
H      -0.069196139      1.711787221      1.868479672
H       1.073385108      0.265616878      1.542656575
H       2.823935915      2.156715052      1.994533693
H       2.302054400      0.716320541      0.874047112
           6
  t=        62.50000    1    1
C       0.905760322      1.655425742      1.687999281
C       2.199800217      1.566679361      1.403275323
H      -0.022305329      1.688576140      1.872294327
H       1.074686797      0.292113069      1.593944109
H       2.838430612      2.114786607      2.019803491
H       2.320886157      0.727390824      0.895912286
           6
  t=        63.00000    1    1
C       0.921727735      1.666730734      1.698266983
C       2.207523866      1.586216458      1.414107406
H       0.006517835      1.671329668      1.880724750
H       1.065811177      0.326205903      1.645677689
H       2.859310307      2.077255136      2.043943885
H       2.349163392      0.731970077      0.911589396
           6
  t=        63.50000    1    1
C       0.939102881      1.676311713      1.708233351
C       2.215012747      1.606341098      1.425307885
H       0.014557562      1.660246567      1.894244932
H       1.047573625      0.367603892      1.696963847
H       2.887458048      2.045261492      2.067792847
H       2.386341253      0.731084775      0.922116508
           6
  t=        64.00000    1    1
C       0.957505185      1.684279559      1.718044050
C       2.222462352      1.626786109      1.436710143
H       0.003797847      1.655563592      1.912404746
H       1.021133670      0.415501867      1.746781244
H       2.922971628      2.019395200      2.091560214
H       2.431383845      0.726576137      0.929004915
           6
  t=        64.50000    1    1
C       0.976239225      1.690777153      1.727893075
C       2.230196622      1.647300742      1.448197138
H      -0.020184359      1.657719122      1.934129266
H       0.987929792      0.468458755      1.794040805
H       2.964913079      1.999748604      2.114737557
H       2.482640143      0.720639864      0.934010109
           6
  t=        65.00000    1    1
C       0.994554258      1.695949362      1.737961806
C       2.238633980      1.667699862      1.459706509
H      -0.050899204      1.667203929      1.958299999
H       0.949374858      0.524620108      1.837686440
H       3.011526867      1.986182272      2.136374226
H       2.537922795      0.715258840      0.938839107
           6
  t=        65.50000    1    1
C       1.011795795      1.699948948      1.748391305
C       2.248214727      1.687857233      1.471217618
H      -0.082581356      1.684372735      1.984031700
H       0.906892403      0.581895021      1.876668819
H       3.060744884      1.978536566      2.155373394
H       2.594663217      0.712012811      0.945088395
           6
  t=        66.00000    1    1
C       1.027471426      1.702973782      1.759285728
C       2.259312281      1.707677757      1.482734826
H      -0.110908196      1.709494016      2.010693269
H       0.861632179      0.637724088      1.910210027
H       3.110577087      1.976641967      2.170643939
H       2.650796972      0.712137657      0.953965061
           6
  t=        66.50000    1    1
C       1.041282803      1.705293562      1.770709967
C       2.272173620      1.727082693      1.494278149
H      -0.133007019      1.742798579      2.037833394
H       0.814204179      0.688923883      1.938083122
H       3.159258288      1.980338965      2.181308491
H       2.705218630      0.716470089      0.966012968
           6
  t=        67.00000    1    1
C       1.053135010      1.707221728      1.782681360
C       2.286901490      1.745996698      1.505879682
H      -0.147157068      1.784475584      2.065112706
H       0.765320297      0.732069909      1.960280809
H       3.205300163      1.989521911      2.186845717
H       2.756890578      0.725514028      0.981511099
           6
  t=        67.50000    1    1
C       1.063084618      1.709036767      1.795184956
C       2.303487987      1.764343061      1.517578157
H      -0.152413371      1.834654293      2.092279377
H       0.715756831      0.764354574      1.976875778
H       3.247468707      2.004156929      2.187065131
H       2.804745663      0.739577363      1.000545727
           6
  t=        68.00000    1    1
C       1.071274681      1.710911302      1.808197842
C       2.321843904      1.782048545      1.529410834
H      -0.148222685      1.893284995      2.119147862
H       0.666262732      0.784479162      1.987917938
H       3.284716894      2.024220482      2.182028550
H       2.847887077      0.758847822      1.023019708
           6
  t=        68.50000    1    1
C       1.077871333      1.712891644      1.821705060
C       2.341820280      1.799046720      1.541407107
H      -0.134092298      1.960023884      2.145542276
H       0.617699827      0.792952905      1.993359904
H       3.316185632      2.049660763      2.171996012
H       2.885614756      0.783451512      1.048724248
           6
  t=        69.00000    1    1
C       1.083025037      1.714927491      1.835698657
C       2.363219295      1.815281851      1.553588786
H      -0.109451759      2.034172240      2.171267946
H       0.571160293      0.791770237      1.993079842
H       3.341292425      2.080421911      2.157402129
H       2.917412847      0.813412088      1.077376125
           6
  t=        69.50000    1    1
C       1.086867306      1.716929553      1.850164634
C       2.385796258      1.830718710      1.565969320
H      -0.073741160      2.114643281      2.196118463
H       0.527904077      0.783763411      1.987032975
H       3.359846345      2.116448005      2.138872968
H       2.943001005      0.848523715      1.108607029
           6
  t=        70.00000    1    1
C       1.089525200      1.718829188      1.865071761
C       2.409263944      1.845347093      1.578555545
H      -0.026581843      2.200030586      2.219921165
H       0.489128876      0.771860254      1.975367601
H       3.372116141      2.157738405      2.117210374
H       2.962442636      0.888205113      1.141930134
           6
  t=        70.50000    1    1
C       1.091118969      1.720607755      1.880377456
C       2.433315487      1.859176884      1.591349731
H       0.032183908      2.288733575      2.242514546
H       0.455832381      0.758634570      1.958451100
H       3.378742207      2.204457259      2.093363625
H       2.976165569      0.931423285      1.176670643
           6
  t=        71.00000    1    1
C       1.091774933      1.722293078      1.896034121
C       2.457628401      1.872242834      1.604359165
H       0.102422735      2.378969030      2.263782368
H       0.428811735      0.746357719      1.936754942
H       3.380599613      2.257027718      2.068320141
H       2.984968407      0.976521301      1.211966226
           6
  t=        71.50000    1    1
C       1.091660194      1.723951590      1.911986968
C       2.481855279      1.884634584      1.617603469
H       0.183405776      2.468881437      2.283667013
H       0.408605360      0.736949312      1.910897420
H       3.378713830      2.315915586      2.042981148
H       2.990164576      1.021109513      1.246774032
           6
  t=        72.00000    1    1
C       1.090995030      1.725678437      1.928179037
C       2.505608965      1.896495684      1.631132910
H       0.274033397      2.556531289      2.302117919
H       0.395543398      0.732115868      1.881531883
H       3.374029327      2.381552851      2.017954655
H       2.993567544      1.062144733      1.279962988
           6
  t=        72.50000    1    1
C       1.090047066      1.727593251      1.944550613
C       2.528486575      1.908023580      1.645024339
H       0.372832660      2.639980210      2.319016617
H       0.389735328      0.733295053      1.849465496
H       3.367233513      2.454040895      1.993569785
H       2.997465102      1.096248053      1.310311106
           6
  t=        73.00000    1    1
C       1.089122367      1.729836803      1.961039313
C       2.550122125      1.919432878      1.659374625
H       0.477982680      2.717611334      2.334306102
H       0.391085737      0.741415307      1.815496075
H       3.358527397      2.533052911      1.969786430
H       3.004286463      1.120200182      1.336706766
           6
  t=        73.50000    1    1
C       1.088561946      1.732568930      1.977567271
C       2.570241765      1.930909807      1.674281278
H       0.587325272      2.788056608      2.347935350
H       0.399157816      0.756920060      1.780567648
H       3.347651444      2.617581367      1.946328093
H       3.016085917      1.131809654      1.358299367
           6
  t=        74.00000    1    1
C       1.088686287      1.735958100      1.994036263
C       2.588729671      1.942554637      1.689803169
H       0.698637267      2.850078586      2.359795826
H       0.413268524      0.779878000      1.745881350
H       3.333982550      2.705856176      1.922922869
H       3.033954077      1.130813116      1.374737138
           6
  t=        74.50000    1    1
C       1.089782069      1.740214182      2.010338346
C       2.605592514      1.954334033      1.705912511
H       0.809821627      2.902383303      2.369688970
H       0.432774849      0.810002842      1.712880516
H       3.316770265      2.795764191      1.899759502
H       3.057886003      1.118800450      1.386203888
           6
  t=        75.00000    1    1
C       1.092135049      1.745595697      2.026393090
C       2.620924921      1.966075094      1.722478939
H       0.918562156      2.943666720      2.377566587
H       0.456934943      0.846626425      1.682733939
H       3.295429661      2.884987531      1.877140464
H       3.086992117      1.099041514      1.393788286
           6
  t=        75.50000    1    1
C       1.096087672      1.752434425      2.042171034
C       2.634834517      1.977509791      1.739311185
H       1.022013477      2.972417614      2.383544535
H       0.484775968      0.888746084      1.656063117
H       3.269666044      2.970637324      1.855128272
H       3.120022461      1.076179423      1.399320631
           6
  t=        76.00000    1    1
C       1.102038564      1.761058773      2.057701813
C       2.647419471      1.988362745      1.756228002
H       1.117058809      2.987534130      2.387890397
H       0.514880562      0.935030665      1.632720274
H       3.239408153      3.050056299      1.833608583
H       3.155662749      1.054672597      1.404601988
           6
  t=        76.50000    1    1
C       1.110345486      1.771617580      2.073059121
C       2.658822771      1.998473640      1.773125945
H       1.201123047      2.989879965      2.391122011
H       0.545155713      0.983697917      1.611653452
H       3.204503660      3.120732293      1.812227532
H       3.192766719      1.038088527      1.410874851
           6
  t=        77.00000    1    1
C       1.121295194      1.784175913      2.088305885
C       2.669157686      2.007774965      1.789957598
H       1.272397287      2.981036618      2.393824850
H       0.573358189      1.032768992      1.591621832
H       3.165087032      3.180668427      1.790797575
H       3.230485422      1.028850531      1.418797288
           6
  t=        77.50000    1    1
C       1.135036545      1.798730370      2.103490974
C       2.678469189      2.016294829      1.806703297
H       1.330428200      2.962298772      2.396260942
H       0.597746957      1.080546340      1.571577290
H       3.121637503      3.228831692      1.769505289
H       3.268224412      1.028100117      1.428620829
           6
  t=        78.00000    1    1
C       1.151631328      1.815232052      2.118650667
C       2.686771581      2.024075988      1.823329745
H       1.374820037      2.934823044      2.398665584
H       0.617321505      1.125974006      1.550798682
H       3.075016245      3.264691918      1.748704885
H       3.305612081      1.036339963      1.440441566
           6
  t=        78.50000    1    1
C       1.171027643      1.833517358      2.133773886
C       2.694141348      2.031129981      1.839778480
H       1.404681948      2.900563448      2.401679384
H       0.631916196      1.168810034      1.529122751
H       3.026377077      3.288201248      1.728737700
H       3.342258158      1.053717808      1.454269437
           6
  t=        79.00000    1    1
C       1.193044930      1.853238388      2.148752898
C       2.700744949      2.037450204      1.855983864
H       1.418984836      2.863005222      2.406485517
H       0.642121197      1.209554916      1.507212522
H       2.976913305      3.299787174      1.709929942
H       3.377576292      1.080044573      1.469997856
           6
  t=        79.50000    1    1
C       1.217380175      1.873815458      2.163364831
C       2.706811583      2.043086077      1.871886163
H       1.417076660      2.827539539      2.414871007
H       0.649020107      1.249115428      1.486514081
H       2.927910063      3.300035554      1.692596273
H       3.410729345      1.114754912      1.487446499
           6
  t=        80.00000    1    1
C       1.243593309      1.894412715      2.177303187
C       2.712534920      2.048244864      1.887448805
H       1.400127222      2.801215573      2.428919537
H       0.653921026      1.288364665      1.468816218
H       2.880786832      3.289603516      1.677098224
H       3.440755940      1.156759475      1.506469260
           6
  t=        80.50000    1    1
C       1.271239118      1.914093654      2.190237942
C       2.718000795      2.053195224      1.902656968
H       1.370533045      2.791826219      2.450867801
H       0.658064086      1.327982652      1.455719167
H       2.836837813      3.269312157      1.663778015
H       3.467007466      1.204722103      1.526996083
           6
  t=        81.00000    1    1
C       1.300000429      1.932073033      2.201914335
C       2.723158307      2.058177960      1.917499264
H       1.330701116      2.805626212      2.482198142
H       0.662581744      1.368448112      1.448421280
H       2.797058266      3.240319976      1.653170839
H       3.489335062      1.257238190      1.548982420
           6
  t=        81.50000    1    1
C       1.329762801      1.948172196      2.212260964
C       2.727926676      2.063329882      1.931962866
H       1.281297106      2.842833379      2.522613627
H       0.668378878      1.409883188      1.447740931
H       2.762137331      3.204026076      1.645893808
H       3.507805225      1.313067285      1.572293357
           6
  t=        82.00000    1    1
C       1.360385723      1.962924104      2.221456240
C       2.732303426      2.068732527      1.946078007
H       1.222845740      2.896042658      2.569393149
H       0.675919976      1.451857910      1.454012494
H       2.732584305      3.162345988      1.642299612
H       3.522623249      1.370806717      1.596476808
           6
  t=        82.50000    1    1
C       1.391520788      1.977049639      2.229807063
C       2.736338550      2.074455661      1.959919374
H       1.157557824      2.955779233      2.618830683
H       0.685287515      1.493548672      1.467162105
H       2.708927807      3.117957454      1.642367359
H       3.534523041      1.428656083      1.620786677
           6
  t=        83.00000    1    1
C       1.422658114      1.991063738      2.237619781
C       2.740118400      2.080497557      1.973584659
H       1.088643543      3.015001509      2.667783713
H       0.696335379      1.534010701      1.486874012
H       2.691761083      3.074722674      1.645611022
H       3.544893910      1.484624296      1.644352871
           6
  t=        83.50000    1    1
C       1.453273781      2.005284598      2.245146157
C       2.743774353      2.086749348      1.987192546
H       1.019169974      3.069358448      2.714022473
H       0.708732438      1.572324784      1.512714134
H       2.681250262      3.037420306      1.651142672
H       3.555511196      1.536708638      1.666313010
           6
  t=        84.00000    1    1
C       1.482884265      2.019892155      2.252561090
C       2.747464265      2.093038724      2.000880808
H       0.951760749      3.116451173      2.756146116
H       0.721995881      1.607521657      1.544289838
H       2.677145042      3.011362221      1.657811427
H       3.568364960      1.582874517      1.685885789
           6
  t=        84.50000    1    1
C       1.511057104      2.034929603      2.259992548
C       2.751412408      2.099192526      2.014753090
H       0.888345410      3.155752545      2.793518995
H       0.735640313      1.638679702      1.581070285
H       2.678933128      3.000889485      1.664579680
H       3.585004029      1.621778241      1.702515456
           6
  t=        85.00000    1    1
C       1.537358098      2.050369071      2.267571016
C       2.755956398      2.105107731      2.028829381
H       0.830299976      3.187658467      2.825901943
H       0.749232375      1.665018992      1.622344747
H       2.685995376      3.008543154      1.670844789
H       3.606255798      1.652822472      1.715961562
           6
  t=        85.50000    1    1
C       1.561371088      2.066152538      2.275435309
C       2.761520502      2.110850282      2.043003266
H       0.778551087      3.212973469      2.853298803
H       0.762261125      1.685813101      1.667257817
H       2.697937239      3.034100151      1.676919412
H       3.632002480      1.676057773      1.726376935
           6
  t=        86.00000    1    1
C       1.582739388      2.082233555      2.283713372
C       2.768550126      2.116655879      2.057074063
H       0.733817475      3.232395869      2.875795557
H       0.774079935      1.700403534      1.714956571
H       2.714617253      3.074771354      1.683935058
H       3.661256278      1.691978407      1.734263719
           6
  t=        86.50000    1    1
C       1.601237846      2.098595626      2.292494291
C       2.777433169      2.122843448      2.070815059
H       0.696622405      3.246369972      2.893497974
H       0.783921006      1.708283849      1.764743866
H       2.736001119      3.126180475      1.693393069
H       3.692356807      1.701419139      1.740351877
           6
  t=        87.00000    1    1
C       1.616765059      2.115239425      2.301823917
C       2.788468278      2.129725865      2.084024665
H       0.667287059      3.255162892      2.906525249
H       0.790995061      1.709053849      1.816175277
H       2.762212339      3.183716678      1.706667128
H       3.723298325      1.705387730      1.745448648
           6
  t=        87.50000    1    1
C       1.629347599      2.132167037      2.311702746
C       2.801830088      2.137548825      2.096561365
H       0.645877242      3.259028926      2.915057417
H       0.794646702      1.702447156      1.869054061
H       2.793438159      3.243354076      1.724699077
H       3.752085683      1.704969670      1.750309276
           6
  t=        88.00000    1    1
C       1.639121021      2.149374119      2.322093318
C       2.817552211      2.146480759      2.108353481
H       0.632320360      3.258220947      2.919328446
H       0.794555052      1.688452065      1.923356565
H       2.829698697      3.301862791      1.747938494
H       3.777076494      1.701198466      1.755574324
           6
  t=        88.50000    1    1
C       1.646289019      2.166845467      2.332931536
C       2.835529947      2.156626875      2.119387471
H       0.626595696      3.252948963      2.919569079
H       0.790964575      1.667415346      1.979182112
H       2.870692582      3.356735612      1.776466898
H       3.797168802      1.694952087      1.761757299
           6
  t=        89.00000    1    1
C       1.651067661      2.184549928      2.344146425
C       2.855543742      2.168053537      2.129687900
H       0.628895294      3.243341303      2.915962469
H       0.784864979      1.640068528      2.036662649
H       2.915857482      3.405996363      1.810125983
H       3.811784721      1.686927272      1.769254442
           6
  t=        89.50000    1    1
C       1.653669742      2.202433601      2.355673884
C       2.877272679      2.180808004      2.139309170
H       0.639609390      3.229470671      2.908623797
H       0.777955896      1.607504035      2.095868273
H       2.964509951      3.448071297      1.848603160
H       3.820806174      1.677611808      1.778308615
           6
  t=        90.00000    1    1
C       1.654294765      2.220419800      2.367469831
C       2.900325969      2.194933764      2.148330259
H       0.659308958      3.211335516      2.897550831
H       0.772354504      1.571053128      2.156735897
H       3.016031312      3.481759631      1.891481083
H       3.824443003      1.667272327      1.788986691
           6
  t=        90.50000    1    1
C       1.653126130      2.238420550      2.379520021
C       2.924281642      2.210475514      2.156850209
H       0.688754124      3.188828865      2.882597987
H       0.770229828      1.532130129      2.218996686
H       3.069943417      3.506183219      1.938249084
H       3.823086920      1.655995320      1.801203324
           6
  t=        91.00000    1    1
C       1.650337090      2.256342415      2.391833397
C       2.948731254      2.227475084      2.164984614
H       0.728722526      3.161891818      2.863544674
H       0.773500311      1.492083154      2.282188160
H       3.125846731      3.520755079      1.988338362
H       3.817243828      1.643693473      1.814726469
           6
  t=        91.50000    1    1
C       1.646085414      2.274068719      2.404430241
C       2.973319450      2.245991813      2.172851944
H       0.779762858      3.130743162      2.840227613
H       0.783712696      1.452137522      2.345725251
H       3.183435951      3.524970489      2.041162441
H       3.807477973      1.630110597      1.829237595
           6
  t=        92.00000    1    1
C       1.640529017      2.291421775      2.417319381
C       2.997778993      2.266089601      2.180561712
H       0.841657093      3.096231730      2.812806392
H       0.801946538      1.413534854      2.408997352
H       3.242502729      3.518472094      2.096078389
H       3.794438816      1.614869471      1.844420554
           6
  t=        92.50000    1    1
C       1.633905332      2.308126696      2.430440928
C       3.021930555      2.287788307      2.188198555
H       0.912578200      3.060418738      2.781655963
H       0.828793512      1.377572258      2.472013785
H       3.302942819      3.501323901      2.152939550
H       3.778773599      1.597586580      1.859742858
           6
  t=        93.00000    1    1
C       1.626704939      2.323755611      2.443614027
C       3.045606636      2.311027778      2.195799686
H       0.988178017      3.027345999      2.747659549
H       0.864200335      1.345720052      2.535641828
H       3.364585744      3.474020292      2.212392191
H       3.761204536      1.578070518      1.874519293
           6
  t=        93.50000    1    1
C       1.620092068      2.337724094      2.456596060
C       3.068395280      2.335451982      2.203523496
H       1.060798974      3.004293735      2.715747805
H       0.906792403      1.319335028      2.597622930
H       3.426368904      3.438535100      2.271896299
H       3.742862542      1.556916689      1.889621422
           6
  t=        94.00000    1    1
C       1.615204888      2.349048200      2.469073078
C       3.090101406      2.360699814      2.211499399
H       1.120031904      3.003028869      2.691316433
H       0.955686494      1.299523327      2.656186231
H       3.488088931      3.397270570      2.329476734
H       3.724005839      1.534876906      1.905598380
           6
  t=        94.50000    1    1
C       1.612926696      2.356701735      2.480788289
C       3.110586883      2.386386004      2.219790890
H       1.157163239      3.035578916      2.677735779
H       1.010320128      1.287330234      2.710723541
H       3.550337639      3.353012138      2.384575641
H       3.704439512      1.512911507      1.922549146
           6
  t=        95.00000    1    1
C       1.613490473      2.360478243      2.491790087
C       3.129695209      2.412034196      2.228405424
H       1.171364012      3.104985087      2.674525143
H       1.069901938      1.283329423      2.760869424
H       3.614034043      3.309174535      2.437278375
H       3.683953563      1.492127027      1.940569021
           6
  t=        95.50000    1    1
C       1.616496004      2.361263637      2.502379080
C       3.147276178      2.437140260      2.237297542
H       1.169340056      3.202023859      2.678129676
H       1.133485771      1.287620747      2.806406785
H       3.680194516      3.269229300      2.488212008
H       3.662330610      1.473626417      1.959762594
           6
  t=        96.00000    1    1
C       1.621381618      2.360471744      2.512885027
C       3.163203502      2.461271301      2.246409755
H       1.159629237      3.311373862      2.684676465
H       1.200014831      1.300137477      2.847158747
H       3.749691320      3.235730199      2.538125265
H       3.639414807      1.458555527      1.980186652
           6
  t=        96.50000    1    1
C       1.627807700      2.359314806      2.523494984
C       3.177425392      2.484171856      2.255710907
H       1.147975871      3.420754977      2.691803224
H       1.268215842      1.320052453      2.883221113
H       3.822626928      3.209397430      2.587487728
H       3.615296471      1.447900773      2.001780445
           6
  t=        97.00000    1    1
C       1.635675417      2.358629826      2.534257663
C       3.189986737      2.505757205      2.265222194
H       1.137141160      3.522977636      2.698513323
H       1.336721100      1.345789637      2.915020125
H       3.897971870      3.189287851      2.636177771
H       3.590254362      1.442406936      2.024402992
           6
  t=        97.50000    1    1
C       1.645038251      2.359022778      2.545145444
C       3.201023200      2.526043372      2.275025713
H       1.128168811      3.614115596      2.704500320
H       1.404032922      1.375187180      2.943254936
H       3.973548302      3.173603439      2.683383529
H       3.564666494      1.442548630      2.047824308
           6
  t=        98.00000    1    1
C       1.655974426      2.361004767      2.556093762
C       3.210749313      2.545110098      2.285232020
H       1.121505853      3.691698834      2.709680101
H       1.468553334      1.405542331      2.969001813
H       4.046497889      3.160428655      2.727926516
H       3.539053789      1.448373816      2.071682704
           6
  t=        98.50000    1    1
C       1.668550264      2.365013158      2.567002988
C       3.219382215      2.563060217      2.295943383
H       1.117290928      3.754167465      2.714123970
H       1.528817791      1.433927409      2.993715845
H       4.114065722      3.148211014      2.768675262
H       3.514119405      1.459485720      2.095551840
           6
  t=        99.00000    1    1
C       1.682791783      2.371345042      2.577751689
C       3.227106558      2.580004410      2.307248963
H       1.115356568      3.801152546      2.718073083
H       1.583884778      1.457712768      3.018896312
H       4.174073792      3.135902050      2.804654493
H       3.490640082      1.475072525      2.119051075
           6
  t=        99.50000    1    1
C       1.698672103      2.380177561      2.588227882
C       3.234060804      2.596033665      2.319223422
H       1.115564446      3.832735338      2.721809072
H       1.633420756      1.475105953      3.045754522
H       4.224982839      3.122937217      2.835104436
H       3.469297355      1.494214986      2.141891943
           6
  t=       100.00000    1    1
C       1.716118697      2.391554396      2.598364936
C       3.240342090      2.611217342      2.331917635
H       1.117922514      3.849173291      2.725560824
H       1.677572536      1.485531056      3.074915366
H       4.265868887      3.109147938      2.859555971
H       3.450567201      1.516053233      2.163877528
           6
  t=       100.50000    1    1
C       1.735039482      2.405392029      2.608167364
C       3.246015997      2.625612550      2.345356665
H       1.122557534      3.850769512      2.729471497
H       1.716678307      1.489721659      3.106230394
H       4.296269001      3.094650485      2.877804943
H       3.434763380      1.539748940      2.184864895
           6
  t=       101.00000    1    1
C       1.755338804      2.421525869      2.617712068
C       3.251128836      2.639269119      2.359544046
H       1.129703659      3.837707251      2.733597063
H       1.750999841      1.489421916      3.138840207
H       4.316016928      3.079776432      2.889836011
H       3.422144188      1.564410617      2.204714317
           6
  t=       101.50000    1    1
C       1.776906566      2.439757570      2.627129321
C       3.255723888      2.652233646      2.374463505
H       1.139704212      3.810028258      2.737926650
H       1.780640146      1.486876468      3.171422994
H       4.325192055      3.065054731      2.895784627
H       3.412980056      1.589031083      2.223264675
           6
  t=       102.00000    1    1
C       1.799597014      2.459896595      2.636571705
C       3.259856184      2.664549988      2.390081096
H       1.153029497      3.767656305      2.742414624
H       1.805605569      1.484300364      3.202512061
H       4.324135840      3.051205101      2.895908641
H       3.407533902      1.612499612      2.240356782
           6
  t=       102.50000    1    1
C       1.823222080      2.481772224      2.646182854
C       3.263600511      2.676256437      2.406347066
H       1.170243691      3.710511459      2.747036546
H       1.825890180      1.483567612      3.230745885
H       4.313488250      3.039103869      2.890560249
H       3.405957344      1.633723768      2.255905766
           6
  t=       103.00000    1    1
C       1.847577176      2.505182359      2.656072558
C       3.267033678      2.687375885      2.423196915
H       1.191766794      3.639089576      2.751898345
H       1.841521758      1.486213535      3.254977981
H       4.294261101      3.029718479      2.880175596
H       3.408313343      1.651840276      2.269976394
           6
  t=       103.50000    1    1
C       1.872477527      2.529818417      2.666317858
C       3.270216734      2.697911609      2.440537268
H       1.217369645      3.555353755      2.757274833
H       1.852586326      1.493462345      3.274313197
H       4.267958827      3.024065551      2.865399621
H       3.414714896      1.666283138      2.282738681
           6
  t=       104.00000    1    1
C       1.897771903      2.555236996      2.676977830
C       3.273164320      2.707854107      2.458238967
H       1.245919688      3.463035133      2.763465149
H       1.859339946      1.506162318      3.288098191
H       4.236965384      3.023238417      2.847235835
H       3.425282089      1.676776262      2.294378376
           6
  t=       104.50000    1    1
C       1.923450244      2.580878872      2.688103748
C       3.275805863      2.717147976      2.476156259
H       1.274796514      3.367589150      2.770772914
H       1.861988167      1.524781662      3.295776514
H       4.204573793      3.028575067      2.826851766
H       3.440097543      1.683381715      2.305106607
           6
  t=       105.00000    1    1
C       1.949747680      2.606014705      2.699709712
C       3.277998757      2.725670034      2.494122519
H       1.298698366      3.276855205      2.779722900
H       1.860673802      1.549358359      3.297040551
H       4.174917375      3.041722917      2.805552497
H       3.459084414      1.686733067      2.315218537
           6
  t=       105.50000    1    1
C       1.977219497      2.629697651      2.711765475
C       3.279607750      2.733254989      2.511951486
H       1.308111864      3.201535232      2.791198543
H       1.855655643      1.579433828      3.291847343
H       4.152555151      3.064547866      2.784636312
H       3.481933267      1.687972931      2.325155252
           6
  t=       106.00000    1    1
C       2.006426683      2.651208148      2.724238797
C       3.280623884      2.739756301      2.529493252
H       1.292853403      3.149782616      2.806053713
H       1.847390597      1.614254232      3.280180975
H       4.141183264      3.098723137      2.764765911
H       3.508096853      1.688348696      2.335586502
           6
  t=       106.50000    1    1
C       2.037231240      2.670543126      2.737154734
C       3.281283898      2.745103684      2.546671414
H       1.249912447      3.121730045      2.824254225
H       1.836728367      1.652747608      3.262234554
H       4.142319202      3.145176964      2.745796655
H       3.537041935      1.688745527      2.347109851
           6
  t=       107.00000    1    1
C       2.068538400      2.688269314      2.750602350
C       3.282165659      2.749347457      2.563478227
H       1.186326345      3.111454418      2.844700433
H       1.824785697      1.693266138      3.238556212
H       4.154495366      3.203525262      2.726831584
H       3.568241277      1.689765859      2.360204790
           6
  t=       107.50000    1    1
C       2.098797910      2.705030234      2.764696970
C       3.284140671      2.752664675      2.579919929
H       1.113652178      3.112601691      2.865920941
H       1.812512987      1.733677424      3.209965934
H       4.173840631      3.271907807      2.706685772
H       3.601146238      1.691978637      2.375259180
           6
  t=       108.00000    1    1
C       2.126606010      2.721284329      2.779536282
C       3.288203991      2.755311461      2.595962724
H       1.041416499      3.121178519      2.886859998
H       1.800381956      1.771745460      3.177345568
H       4.195665605      3.347332898      2.684424034
H       3.635317937      1.696090368      2.392620772
           6
  t=       108.50000    1    1
C       2.150886391      2.737336009      2.795179452
C       3.295279455      2.757574672      2.611523084
H       0.975887949      3.134881743      2.906928437
H       1.788336551      1.805515393      3.141742333
H       4.215804888      3.426130087      2.659750623
H       3.670526011      1.702984184      2.412417543
           6
  t=       109.00000    1    1
C       2.170910751      2.753360852      2.811655501
C       3.306090130      2.759715137      2.626499613
H       0.920642307      3.152502543      2.925857612
H       1.776052035      1.833599083      3.104125884
H       4.231284153      3.504873253      2.632913840
H       3.706556092      1.713483075      2.434562590
           6
  t=       109.50000    1    1
C       2.186282121      2.769449638      2.828963864
C       3.321088875      2.761954259      2.640801727
H       0.877481330      3.173445532      2.943552972
H       1.763275425      1.855178653      3.065285448
H       4.240216446      3.580755995      2.604536306
H       3.743080417      1.728086822      2.458824724
           6
  t=       110.00000    1    1
C       2.196945871      2.785643819      2.847060400
C       3.340358643      2.764482803      2.654382954
H       0.847348231      3.197338336      2.959983522
H       1.749980859      1.869980427      3.025873767
H       4.241635635      3.651590840      2.575445021
H       3.779810278      1.746861950      2.484834896
           6
  t=       110.50000    1    1
C       2.203137113      2.801933112      2.865855159
C       3.363633341      2.767496540      2.667243590
H       0.830797864      3.223930560      2.975006396
H       1.736434406      1.878194747      2.986699416
H       4.235243373      3.715655591      2.546670647
H       3.816592245      1.769380466      2.511965044
           6
  t=       111.00000    1    1
C       2.205366988      2.818237116      2.885215243
C       3.390338776      2.771222137      2.679423648
H       0.827802423      3.253028911      2.988278121
H       1.723303711      1.880670483      2.948891423
H       4.221186732      3.771548307      2.519473071
H       3.853390720      1.794645893      2.539276499
           6
  t=       111.50000    1    1
C       2.204280504      2.834420866      2.904990657
C       3.419724048      2.775876249      2.691043010
H       0.838154033      3.284560609      3.000189082
H       1.711343019      1.878737709      2.912188494
H       4.199879099      3.818468413      2.494231934
H       3.890507742      1.821228123      2.566619353
           6
  t=       112.00000    1    1
C       2.200416844      2.850315196      2.925030631
C       3.451069210      2.781694454      2.702238676
H       0.862102618      3.318472400      3.011407995
H       1.701353093      1.873908136      2.875947344
H       4.171860855      3.855822895      2.470940524
H       3.928506142      1.847470343      2.594138955
           6
  t=       112.50000    1    1
C       2.194185711      2.865736173      2.945173419
C       3.483708008      2.788933252      2.713129234
H       0.900498641      3.354631052      3.022657727
H       1.694107071      1.867677739      2.839761764
H       4.137871649      3.883101438      2.449575402
H       3.968079645      1.871655486      2.622056349
           6
  t=       113.00000    1    1
C       2.186143276      2.880538533      2.965194660
C       3.516882928      2.797785973      2.723760387
H       0.953644052      3.392410819      3.033832044
H       1.689962595      1.861482733      2.805260861
H       4.099278477      3.900351338      2.431267838
H       4.009600826      1.892353009      2.649846238
           6
  t=       113.50000    1    1
C       2.176767218      2.894550984      2.984915107
C       3.549991103      2.808395501      2.734171612
H       1.021195450      3.431497317      3.044871980
H       1.689243995      1.856772353      2.773722782
H       4.057419501      3.907693109      2.416787443
H       4.053242267      1.908646073      2.677185252
           6
  t=       114.00000    1    1
C       2.166593217      2.907624613      3.004178622
C       3.582505532      2.820767399      2.744418902
H       1.101729802      3.471759767      3.055822679
H       1.691849332      1.854770690      2.746107618
H       4.013838122      3.905811288      2.406466420
H       4.098882143      1.920464911      2.703929274
           6
  t=       114.50000    1    1
C       2.156169411      2.919599698      3.022843264
C       3.614010410      2.834808708      2.754565407
H       1.192852781      3.513416208      3.066880471
H       1.697328351      1.856542620      2.723173415
H       3.970250233      3.895752953      2.400287760
H       4.146072286      1.928490435      2.730079781
           6
  t=       115.00000    1    1
C       2.146102258      2.930282169      3.040791483
C       3.644175847      2.850309327      2.764681528
H       1.290718466      3.557486084      3.078339624
H       1.705038448      1.863002037      2.705482943
H       3.928531397      3.879105903      2.397870639
H       4.194130166      1.934017446      2.755722350
           6
  t=       115.50000    1    1
C       2.137066158      2.939392512      3.057927649
C       3.672732756      2.866941777      2.774851533
H       1.390094249      3.606450434      3.090538845
H       1.714242484      1.874846596      2.693473507
H       3.890635044      3.858226250      2.398464922
H       4.242242547      1.938743881      2.780966518
           6
  t=       116.00000    1    1
C       2.129766819      2.946541171      3.074174598
C       3.699433655      2.884274257      2.785192970
H       1.485158326      3.664436410      3.103805338
H       1.724089676      1.892591139      2.687487019
H       3.858562171      3.836449660      2.400833743
H       4.289620926      1.944479099      2.805898815
           6
  t=       116.50000    1    1
C       2.124746276      2.951381504      3.089498006
C       3.724068543      2.901781886      2.795863950
H       1.571750346      3.735671422      3.118322353
H       1.733701805      1.916478263      2.687627985
H       3.834047782      3.818026684      2.403172467
H       4.335612464      1.952887339      2.830561120
           6
  t=       117.00000    1    1
C       2.122178416      2.953922216      3.103920490
C       3.746503359      2.918913996      2.807038897
H       1.649695376      3.821083738      3.134015188
H       1.742234122      1.946223658      2.693684820
H       3.818131095      3.807430036      2.403418764
H       4.379723070      1.965309767      2.854954165
           6
  t=       117.50000    1    1
C       2.121965897      2.954665079      3.117513590
C       3.766679847      2.935195859      2.818875549
H       1.721849439      3.916623904      3.150575400
H       1.748827945      1.980895188      2.705120736
H       3.811071490      3.808309485      2.399727342
H       4.421550085      1.982755954      2.879036502
           6
  t=       118.00000    1    1
C       2.123978795      2.954423591      3.130388435
C       3.784610048      2.950351327      2.831455002
H       1.791223594      4.015347271      3.167603257
H       1.752543929      2.018861788      2.721048371
H       3.812513672      3.822182106      2.391142008
H       4.460781739      2.005881668      2.902760890
           6
  t=       118.50000    1    1
C       2.128219906      2.954027333      3.142673420
C       3.800318463      2.964361284      2.844746648
H       1.859363324      4.110714743      3.184772590
H       1.752270008      2.057853624      2.740292093
H       3.821883476      3.847892438      2.378012589
H       4.497233506      2.034994047      2.926114114
           6
  t=       119.00000    1    1
C       2.134817544      2.954183557      3.154505736
C       3.813829399      2.977412324      2.858618269
H       1.926436462      4.198097527      3.201872154
H       1.746698133      2.095101847      2.761457165
H       3.838557390      3.882247803      2.361855470
H       4.530850565      2.070032645      2.949126528
           6
  t=       119.50000    1    1
C       2.143960253      2.955484114      3.166014765
C       3.825176511      2.989785008      2.872881777
H       1.991851216      4.274357626      3.218797025
H       1.734422966      2.127748917      2.783136290
H       3.861819615      3.921287825      2.344793846
H       4.561698164      2.110557993      2.971886682
           6
  t=       120.00000    1    1
C       2.155829738      2.958406590      3.177298118
C       3.834426127      3.001758220      2.887339393
H       2.054629264      4.337171503      3.235485752
H       1.714239425      2.153575929      2.804265005
H       3.890756997      3.961333379      2.329012727
H       4.589917385      2.155777809      2.994529018
           6
  t=       120.50000    1    1
C       2.170530552      2.963285730      3.188407137
C       3.841695499      3.013559012      2.901815342
H       2.113619057      4.384505119      3.251819479
H       1.685560073      2.171806227      2.824439849
H       3.924292973      3.999547227      2.316372253
H       4.615680834      2.204645840      3.017198439
           6
  t=       121.00000    1    1
C       2.188043259      2.970242832      3.199332914
C       3.847130202      3.025365875      2.916170830
H       2.167719095      4.414895022      3.267613240
H       1.648838675      2.183452100      2.844097078
H       3.961363061      4.034008316      2.308262576
H       4.639197680      2.255962106      3.040013486
           6
  t=       121.50000    1    1
C       2.208199891      2.979181703      3.210012380
C       3.850884554      3.037326398      2.930307575
H       2.216035630      4.427702253      3.282661634
H       1.605799598      2.191033496      2.864375456
H       4.001003824      4.063508398      2.305617435
H       4.660763407      2.308441441      3.063029644
           6
  t=       122.00000    1    1
C       2.230700730      2.989885084      3.220355068
C       3.853121951      3.049562525      2.944164376
H       2.257893529      4.422866165      3.296774802
H       1.559270300      2.197788619      2.886721955
H       4.042301197      4.087311543      2.309015556
H       4.680764118      2.360777983      3.086218298
           6
  t=       122.50000    1    1
C       2.255182622      3.002117848      3.230276621
C       3.854016938      3.062165316      2.957713272
H       2.292763982      4.400792963      3.309798093
H       1.512556562      2.206703584      2.912414779
H       4.084312390      4.104958783      2.318799174
H       4.699613024      2.411755021      3.109452003
           6
  t=       123.00000    1    1
C       2.281298220      3.015671106      3.239718363
C       3.853746812      3.075193304      2.970953253
H       2.320230746      4.362460616      3.321611501
H       1.468743019      2.219902105      2.942291571
H       4.126064360      4.116157444      2.335175779
H       4.717641039      2.460355141      3.132516850
           6
  t=       123.50000    1    1
C       2.308748890      3.030341169      3.248651903
C       3.852485073      3.088677168      2.983900477
H       2.340074078      4.309544554      3.332082357
H       1.430381851      2.238646139      2.976751081
H       4.166581342      4.120795933      2.358274325
H       4.734982575      2.505814065      3.155163546
           6
  t=       124.00000    1    1
C       2.337276369      3.045896524      3.257078631
C       3.850410413      3.102617818      2.996577691
H       2.352369983      4.244495661      3.341011288
H       1.399440845      2.263534472      3.015869413
H       4.204902135      4.119125058      2.388127102
H       4.751503142      2.547579131      3.177195490
           6
  t=       124.50000    1    1
C       2.366647918      3.062032254      3.265018513
C       3.847722378      3.116972248      3.009006587
H       2.357352499      4.171042198      3.348219338
H       1.377408697      2.294675640      3.059530219
H       4.240096558      4.111899758      2.424599291
H       4.766805723      2.585204334      3.198546388
           6
  t=       125.00000    1    1
C       2.396659767      3.078290620      3.272498044
C       3.844635749      3.131656956      3.021206922
H       2.355273487      4.095187036      3.353811716
H       1.365347115      2.331741447      3.107394041
H       4.271297964      4.100232489      2.467263349
H       4.780312202      2.618351783      3.219326931
           6
  t=       125.50000    1    1
C       2.427148225      3.093927943      3.279529053
C       3.841370075      3.146565296      3.033214220
H       2.345997605      4.026626931      3.358341206
H       1.364057767      2.374139019      3.158950145
H       4.297810697      4.085411269      2.515394506
H       4.791386315      2.646761771      3.239655579
           6
  t=       126.00000    1    1
C       2.458011006      3.107876991      3.286103264
C       3.838146217      3.161569541      3.045092046
H       2.328285224      3.979048569      3.362794263
H       1.374210787      2.421094975      3.213592586
H       4.319354382      4.068989207      2.567971238
H       4.799465021      2.670206651      3.259514561
           6
  t=       126.50000    1    1
C       2.489227960      3.119122798      3.292223119
C       3.835173711      3.176514629      3.056930827
H       2.299553425      3.965656302      3.368062278
H       1.396242067      2.471558259      3.270728104
H       4.336223491      4.052996786      2.623779197
H       4.804144217      2.688444297      3.278713492
           6
  t=       127.00000    1    1
C       2.520684623      3.127515929      3.297978232
C       3.832677845      3.191234039      3.068822225
H       2.258076960      3.989392014      3.374027373
H       1.430067261      2.524111526      3.329827213
H       4.349180556      4.039893883      2.681526785
H       4.805150445      2.701255130      3.297031292
           6
  t=       127.50000    1    1
C       2.551971080      3.133898223      3.303562421
C       3.830896644      3.205571713      3.080839562
H       2.205759307      4.041255502      3.379520616
H       1.475014936      2.577092649      3.390344515
H       4.359256775      4.032397437      2.739824348
H       4.802268625      2.708412997      3.314388805
           6
  t=       128.00000    1    1
C       2.582417125      3.139505076      3.309204792
C       3.830073560      3.219399955      3.093035240
H       2.147883899      4.107518939      3.383133258
H       1.529957924      2.628673240      3.451691080
H       4.367565117      4.033038784      2.797319443
H       4.795314587      2.709743793      3.330781804
           6
  t=       128.50000    1    1
C       2.611345140      3.145303475      3.315082448
C       3.830468125      3.232643947      3.105427830
H       2.089931671      4.177584780      3.384099035
H       1.593393556      2.677039338      3.513346613
H       4.375132547      4.043625700      2.852876011
H       4.784264888      2.705220420      3.346301294
           6
  t=       129.00000    1    1
C       2.638228227      3.151863515      3.321296855
C       3.832388391      3.245293760      3.117991349
H       2.035512809      4.245551369      3.382255066
H       1.663339032      2.720498871      3.575125376
H       4.382750292      4.064951488      2.905835917
H       4.769308586      2.694968575      3.361054618
           6
  t=       129.50000    1    1
C       2.662699138      3.159463795      3.327885526
C       3.836180986      3.257433673      3.130666704
H       1.986502114      4.308593017      3.377850256
H       1.737185378      2.757643419      3.637208574
H       4.390926452      4.096520470      2.955917634
H       4.750917475      2.679394117      3.375150322
           6
  t=       130.00000    1    1
C       2.684476680      3.168252104      3.334847356
C       3.842272932      3.269226386      3.143385255
H       1.943812369      4.365423132      3.371326721
H       1.811756277      2.787069645      3.700090989
H       4.399643315      4.136712241      3.002926335
H       4.729635158      2.659107675      3.388677396
           6
  t=       130.50000    1    1
C       2.703400889      3.178297050      3.342155682
C       3.851103817      3.280873074      3.156082140
H       1.907611606      4.415785532      3.363225087
H       1.883592305      2.807434380      3.764489422
H       4.408391161      4.182992556      3.046630094
H       4.705930827      2.635028196      3.401700937
           6
  t=       131.00000    1    1
C       2.719432413      3.189634267      3.349754722
C       3.863031006      3.292572599      3.168709016
H       1.877314441      4.459946381      3.353453615
H       1.949824366      2.817727166      3.831832113
H       4.416367229      4.232472586      3.087426668
H       4.680272382      2.607994648      3.413727381
           6
  t=       131.50000    1    1
C       2.732539141      3.202309513      3.357596602
C       3.878280100      3.304514678      3.181221547
H       1.852531249      4.497703486      3.341769860
H       2.008816727      2.817484670      3.903484369
H       4.422778503      4.282379834      3.125761488
H       4.653172634      2.578639177      3.424287208
           6
  t=       132.00000    1    1
C       2.742679228      3.216341518      3.365696874
C       3.896855997      3.316880141      3.193585744
H       1.833618258      4.527952578      3.328355069
H       2.060605336      2.807325610      3.979473486
H       4.427151551      4.330075523      3.161673541
H       4.625153093      2.547708249      3.433352553
           6
  t=       132.50000    1    1
C       2.749833306      3.231674959      3.374137898
C       3.918538860      3.329802021      3.205807389
H       1.821189746      4.549628447      3.313567584
H       2.106903319      2.788738058      4.058395137
H       4.429439583      4.373436347      3.194996138
H       4.596783424      2.515976321      3.441085824
           6
  t=       133.00000    1    1
C       2.754062086      3.248174858      3.383060596
C       3.942938035      3.343348492      3.217925517
H       1.815713692      4.562309739      3.297713677
H       2.150329598      2.763664418      4.137780581
H       4.429893278      4.411143465      3.225514446
H       4.568657553      2.484037212      3.447720025
           6
  t=       133.50000    1    1
C       2.755538767      3.265685027      3.392630012
C       3.969563065      3.357516651      3.229998993
H       1.817567264      4.565620902      3.281090434
H       2.193285887      2.734481178      4.214668477
H       4.428952748      4.442415249      3.253119049
H       4.541336820      2.452567292      3.453360779
           6
  t=       134.00000    1    1
C       2.754552144      3.284083844      3.402973521
C       3.997881187      3.372243436      3.242094636
H       1.827176425      4.558950926      3.264106283
H       2.237275350      2.703553866      4.286356612
H       4.427142053      4.466818138      3.277772014
H       4.515275085      2.422446216      3.458025890
           6
  t=       134.50000    1    1
C       2.751486177      3.303279256      3.414155637
C       4.027349770      3.387421979      3.254275751
H       1.844886733      4.541778606      3.247315067
H       2.282930567      2.672867248      4.350737674
H       4.425016328      4.484199242      3.299432040
H       4.490829752      2.394733615      3.461787029
           6
  t=       135.00000    1    1
C       2.746779221      3.323185799      3.426194636
C       4.057438879      3.402907066      3.266594688
H       1.870772555      4.513901079      3.231384671
H       2.330295080      2.644035816      4.406191614
H       4.423199342      4.494734125      3.318040093
H       4.468350355      2.370590981      3.464813871
           6
  t=       135.50000    1    1
C       2.740872091      3.343728103      3.439081105
C       4.087645587      3.418512900      3.279093693
H       1.904703782      4.475297900      3.217040490
H       2.379063975      2.618355480      4.451447583
H       4.422474194      4.499064606      3.333520922
H       4.448228965      2.351212990      3.467335885
           6
  t=       136.00000    1    1
C       2.734169544      3.364839411      3.452782374
C       4.117505667      3.434022756      3.291804264
H       1.946460119      4.425996647      3.204970776
H       2.428751085      2.596806153      4.485638824
H       4.423879939      4.498400590      3.345851152
H       4.430841571      2.337760145      3.469568924
           6
  t=       136.50000    1    1
C       2.727086314      3.386384293      3.467242810
C       4.146593069      3.449215848      3.304747814
H       1.995223885      4.366759327      3.195668115
H       2.478733385      2.580127290      4.508439444
H       4.428718159      4.494459733      3.355129311
H       4.416462163      2.331257859      3.471655497
           6
  t=       137.00000    1    1
C       2.720097702      3.408092298      3.482408802
C       4.174504898      3.463888966      3.317942019
H       2.049111998      4.299682355      3.189297177
H       2.528178098      2.569043639      4.519923557
H       4.438496414      4.489257772      3.361530406
H       4.405436286      2.332513248      3.473610031
           6
  t=       137.50000    1    1
C       2.713750531      3.429559527      3.498274613
C       4.200859074      3.477871911      3.331399915
H       2.105042581      4.228391049      3.185387540
H       2.576034293      2.564216436      4.520407257
H       4.454805890      4.484980570      3.365210705
H       4.398342501      2.341894649      3.475343603
           6
  t=       138.00000    1    1
C       2.708742581      3.450152697      3.514957675
C       4.225317253      3.491046597      3.345133287
H       2.157646481      4.159366054      3.181963977
H       2.621141163      2.566163037      4.510388504
H       4.479174835      4.483749383      3.366245881
H       4.395899623      2.359235870      3.476718087
           6
  t=       138.50000    1    1
C       2.705993400      3.468932478      3.532793747
C       4.247626807      3.503391443      3.359160850
H       2.198364669      4.102972350      3.174343355
H       2.662361647      2.575156800      4.490520940
H       4.512752205      4.487139145      3.364533792
H       4.398707976      2.383773551      3.477641334
           6
  t=       139.00000    1    1
C       2.706455528      3.484931243      3.552322769
C       4.267659684      3.515024521      3.373500415
H       2.217658543      4.070331554      3.155390790
H       2.698563892      2.591120787      4.461570231
H       4.555939817      4.495478154      3.359798221
H       4.407211887      2.414257728      3.478112796
           6
  t=       139.50000    1    1
C       2.710670194      3.497825424      3.573914796
C       4.285361519      3.526153392      3.388164198
H       2.210936208      4.065556436      3.119986475
H       2.728606109      2.613744943      4.424245567
H       4.608182030      4.507905719      3.351752586
H       4.421899336      2.449128677      3.478274657
           6
  t=       140.00000    1    1
C       2.718480441      3.508159282      3.597354752
C       4.300776526      3.537073863      3.403159481
H       2.181564043      4.083224425      3.069441941
H       2.751574600      2.642261840      4.379592655
H       4.667992824      4.522704764      3.340245059
H       4.443147078      2.486283517      3.478397516
           6
  t=       140.50000    1    1
C       2.729205450      3.516975127      3.621819829
C       4.314038038      3.548151904      3.418490432
H       2.138453558      4.112876344      3.011389935
H       2.766788239      2.675145531      4.329393532
H       4.733257767      4.537709487      3.325242204
H       4.471362844      2.523092532      3.478854665
           6
  t=       141.00000    1    1
C       2.742080715      3.525355468      3.646292410
C       4.325314237      3.559762336      3.434110273
H       2.090496880      4.145558096      2.954260782
H       2.774125180      2.709076179      4.276956710
H       4.801682029      4.550762871      3.307213817
H       4.507176772      2.556621631      3.480120452
           6
  t=       141.50000    1    1
C       2.756528129      3.534269356      3.669908488
C       4.334732330      3.572230628      3.449922380
H       2.043967387      4.176005872      2.903568866
H       2.774100405      2.738300932      4.226875951
H       4.871245953      4.560019300      3.287013358
H       4.551192938      2.584307987      3.482679852
           6
  t=       142.00000    1    1
C       2.772192729      3.544594638      3.692003734
C       4.342423004      3.585760000      3.465814893
H       2.002652439      4.201632658      2.862239981
H       2.767255144      2.755297710      4.184124846
H       4.940076523      4.564105596      3.265635950
H       4.603628170      2.604752256      3.486887163
           6
  t=       142.50000    1    1
C       2.788930559      3.557002227      3.712170693
C       4.348581987      3.600367923      3.481678380
H       1.968473203      4.221474910      2.831532858
H       2.753729437      2.753114330      4.152282249
H       5.006336716      4.562243376      3.244107890
H       4.663641384      2.618445973      3.493037547
           6
  t=       143.00000    1    1
C       2.806759097      3.571728278      3.730310773
C       4.353426164      3.615919157      3.497428545
H       1.942451019      4.235222305      2.812104925
H       2.733305871      2.729073917      4.131659072
H       5.068338140      4.554089205      3.223360163
H       4.729324451      2.627517308      3.501410939
           6
  t=       143.50000    1    1
C       2.825697679      3.588472690      3.746614471
C       4.357184746      3.632198877      3.513011837
H       1.925236185      4.242961809      2.804261464
H       2.706141790      2.686543777      4.119384783
H       5.124538121      4.539603255      3.204103802
H       4.798450797      2.634687506      3.512229737
           6
  t=       144.00000    1    1
C       2.845637821      3.606558007      3.761419456
C       4.360139211      3.648948460      3.528383256
H       1.917197815      4.245092921      2.807912993
H       2.673550273      2.633278789      4.111303834
H       5.173564961      4.519148374      3.186888474
H       4.868648590      2.642593350      3.525701952
           6
  t=       144.50000    1    1
C       2.866405710      3.625288943      3.775000015
C       4.362569306      3.665916685      3.543505357
H       1.918589590      4.242046194      2.822901389
H       2.637382610      2.577259300      4.104163565
H       5.214308144      4.493378628      3.172135046
H       4.937661112      2.653448159      3.541995390
           6
  t=       145.00000    1    1
C       2.887803133      3.644118055      3.787520247
C       4.364736096      3.682878830      3.558351090
H       1.929609971      4.234256225      2.849055391
H       2.599684790      2.524719660      4.096057096
H       5.245907841      4.463157452      3.160146717
H       5.003354789      2.668920392      3.561251932
           6
  t=       145.50000    1    1
C       2.909620402      3.662660138      3.799055629
C       4.366891276      3.699638276      3.572906319
H       1.950364345      4.222262905      2.886148107
H       2.562508873      2.479888672      4.086172249
H       5.267729425      4.429584033      3.151094865
H       5.063706299      2.690075006      3.583608367
           6
  t=       146.00000    1    1
C       2.931645335      3.680643145      3.809635717
C       4.369269495      3.716032052      3.587171298
H       1.980888774      4.206713903      2.933871100
H       2.527648809      2.445511082      4.074361155
H       5.279390848      4.393994217      3.144967395
H       5.116999925      2.717367274      3.609177879
           6
  t=       146.50000    1    1
C       2.953669289      3.697884025      3.819278649
C       4.372066256      3.731932281      3.601162267
H       2.021218861      4.188329394      2.991794496
H       2.496509896      2.423128730      4.060834308
H       5.280853086      4.357829237      3.141510556
H       5.161990377      2.750798862      3.638023989
           6
  t=       147.00000    1    1
C       2.975505249      3.714255893      3.828023197
C       4.375414304      3.747236845      3.614917123
H       2.071194450      4.168026038      3.059168932
H       2.470142809      2.413356590      4.045980733
H       5.272591445      4.322598570      3.140151052
H       5.197958516      2.790057399      3.670166736
           6
  t=       147.50000    1    1
C       2.997025459      3.729645622      3.835958078
C       4.379363178      3.761857725      3.628502327
H       2.129943062      4.147182935      3.134601874
H       2.449387332      2.416194145      4.030277445
H       5.255751656      4.290095189      3.139870026
H       5.224723280      2.834368102      3.705691454
           6
  t=       148.00000    1    1
C       3.018189810      3.743908086      3.843241995
C       4.383890281      3.775706379      3.642019163
H       2.195412418      4.127771395      3.215866176
H       2.435072180      2.431565467      4.014148297
H       5.231979027      4.262302143      3.139185372
H       5.242610140      2.882636851      3.744785644
           6
  t=       148.50000    1    1
C       3.039075914      3.756810607      3.850160381
C       4.388995403      3.788712573      3.655550453
H       2.263693612      4.112466214      3.299136203
H       2.428026354      2.459607879      3.998350951
H       5.203124034      4.241385388      3.136879185
H       5.251926212      2.933494990      3.787347147
           6
  t=       149.00000    1    1
C       3.060025156      3.768047891      3.857163112
C       4.394721180      3.800859823      3.669137567
H       2.327839128      4.104962989      3.378651817
H       2.428461428      2.499810946      3.983951010
H       5.171297254      4.229675061      3.131945287
H       5.252720989      2.985261395      3.833223159
           6
  t=       149.50000    1    1
C       3.081739260      3.777293831      3.864737427
C       4.400940417      3.812156296      3.682859027
H       2.378531727      4.109865883      3.448215872
H       2.436069467      2.550978097      3.971755212
H       5.138818146      4.229045456      3.122923989
H       5.245454288      3.036442671      3.882522350
           6
  t=       150.00000    1    1
C       3.104899444      3.784202262      3.873286149
C       4.407536674      3.822632080      3.696810776
H       2.406477477      4.132513607      3.502740812
H       2.450788762      2.611655458      3.962329383
H       5.107401210      4.240472363      3.108191964
H       5.231037551      3.085944456      3.935446672
           6
  t=       150.50000    1    1
C       3.129637618      3.788605732      3.882882026
C       4.414503754      3.832370723      3.711033435
H       2.407927206      4.175987350      3.541100700
H       2.472849401      2.680623901      3.956273222
H       5.077831353      4.264146490      3.086926205
H       5.210706982      3.132713743      3.991994461
           6
  t=       151.00000    1    1
C       3.155282143      3.790763845      3.893247922
C       4.421980656      3.841556198      3.725458598
H       2.387754003      4.238809669      3.566515204
H       2.502181509      2.756132899      3.954199538
H       5.049850241      4.299144677      3.059618681
H       5.186264481      3.175616157      4.051958669
           6
  t=       151.50000    1    1
C       3.180652129      3.791291408      3.903957777
C       4.430198368      3.850452559      3.739904679
H       2.356461310      4.315804486      3.583980958
H       2.538275176      2.835818452      3.956809084
H       5.022499030      4.343715031      3.027994157
H       5.159994070      3.213471458      4.115157634
           6
  t=       152.00000    1    1
C       3.204680211      3.790939280      3.914676165
C       4.439403059      3.859373851      3.754111693
H       2.323642503      4.401052099      3.597466374
H       2.579750284      2.916383238      3.964738547
H       4.994767018      4.395425385      2.994573202
H       5.134478319      3.245239759      4.181560414
           6
  t=       152.50000    1    1
C       3.226743886      3.790494764      3.925192163
C       4.449820255      3.868627477      3.767798936
H       2.295610639      4.489493259      3.609234564
H       2.623751004      2.993193697      3.978700155
H       4.965784411      4.451597008      2.962319403
H       5.111860015      3.270248452      4.251086163
           6
  t=       153.00000    1    1
C       3.246751119      3.790800289      3.935376165
C       4.461637786      3.878460717      3.780738737
H       2.275644241      4.577423246      3.620273054
H       2.665080147      3.059568716      3.999520863
H       4.935032642      4.509573055      2.934105136
H       5.093434954      3.288555586      4.323305208
           6
  t=       153.50000    1    1
C       3.265017603      3.792745636      3.945113238
C       4.475017103      3.889025071      3.792810532
H       2.265133332      4.662372157      3.630971673
H       2.696252802      3.107008596      4.028265384
H       4.902478230      4.567056569      2.912142020
H       5.079645978      3.301020188      4.397357495
           6
  t=       154.00000    1    1
C       3.281995809      3.797049377      3.954271882
C       4.490077377      3.900372032      3.804013145
H       2.264445295      4.742637152      3.641538963
H       2.710042660      3.128364024      4.066194249
H       4.868474534      4.622171792      2.897941642
H       5.070187187      3.309194296      4.471843303
           6
  t=       154.50000    1    1
C       3.297829777      3.803867424      3.962771195
C       4.506866167      3.912487520      3.814425857
H       2.273404617      4.816989729      3.652098449
H       2.704323778      3.122870321      4.114007788
H       4.833693347      4.673371341      2.892528227
H       5.064405205      3.314928457      4.544933853
           6
  t=       155.00000    1    1
C       3.312225468      3.812754765      3.970656528
C       4.525328528      3.925307239      3.824181332
H       2.291529137      4.884416671      3.662778881
H       2.683548323      3.097003656      4.170833114
H       4.799036993      4.719410079      2.896546193
H       5.061586067      3.320073611      4.614607687
           6
  t=       155.50000    1    1
C       3.324711308      3.823016564      3.978096306
C       4.545314964      3.938735118      3.833438874
H       2.318211779      4.944142234      3.673725497
H       2.655278697      3.060158089      4.234274852
H       4.765565065      4.759388654      2.910287457
H       5.061115340      3.326334972      4.678917933
           6
  t=       156.00000    1    1
C       3.334957726      3.834077520      3.985296343
C       4.566609689      3.952675423      3.842352392
H       2.352889622      4.995633666      3.685014132
H       2.625933177      3.020022686      4.301584061
H       4.734351952      4.792818763      2.933721926
H       5.062561574      3.335040373      4.736281418
           6
  t=       156.50000    1    1
C       3.342856240      3.845572906      3.992440838
C       4.588941830      3.967039191      3.851061909
H       2.395145370      5.038244213      3.696698499
H       2.599755517      2.981840321      4.370325544
H       4.706417220      4.819611412      2.966539969
H       5.065599015      3.347088702      4.785525970
           6
  t=       157.00000    1    1
C       3.348484373      3.857324239      3.999670593
C       4.612009902      3.981737934      3.859699984
H       2.444634119      5.071219652      3.708826020
H       2.579046147      2.948687964      4.438639257
H       4.682736428      4.840058005      3.008127273
H       5.069965229      3.363046951      4.825821225
           6
  t=       157.50000    1    1
C       3.352052021      3.869252849      4.007085030
C       4.635497402      3.996669543      3.868401789
H       2.500783240      5.094115488      3.721438024
H       2.564876621      2.922119316      4.505190572
H       4.664288100      4.854832276      3.057486382
H       5.075453069      3.383286282      4.856662592
           6
  t=       158.00000    1    1
C       3.353819846      3.881302715      4.014763273
C       4.659090677      4.011707571      3.877306370
H       2.562772444      5.106936540      3.734562528
H       2.557901316      2.903002246      4.568882118
H       4.652012797      4.864924754      3.113339019
H       5.081919300      3.408117725      4.877798051
           6
  t=       158.50000    1    1
C       3.354056968      3.893433196      4.022764275
C       4.682485980      4.026690951      3.886559083
H       2.629877567      5.109862104      3.748180074
H       2.558671880      2.891963915      4.628713020
H       4.646494303      4.871726433      3.174226544
H       5.089365258      3.437747295      4.889272103
           6
  t=       159.00000    1    1
C       3.353020643      3.905646358      4.031120048
C       4.705403423      4.041418783      3.896326021
H       2.701670549      5.102917768      3.762221714
H       2.567578111      2.889453041      4.683754582
H       4.647722187      4.877217098      3.238343233
H       5.098109312      3.472090156      4.891527583
           6
  t=       159.50000    1    1
C       3.350978389      3.917970906      4.039849715
C       4.727603580      4.055644581      3.906807567
H       2.777131276      5.086110091      3.776682793
H       2.584719689      2.895970974      4.732983655
H       4.655435073      4.884016737      3.303214424
H       5.108998560      3.510613407      4.885451373
           6
  t=       160.00000    1    1
C       3.348228543      3.930418963      4.048988886
C       4.748877447      4.069079681      3.918213443
H       2.853893811      5.059702076      3.791667608
H       2.609922277      2.912180260      4.775242253
H       4.669904700      4.895233400      3.365940574
H       5.123237043      3.552578631      4.872073401
           6
  t=       160.50000    1    1
C       3.345127057      3.942961775      4.058584272
C       4.768984835      4.081435222      3.930709841
H       2.929391254      5.023990906      3.807274997
H       2.642818050      2.938797022      4.809487568
H       4.691659885      4.914346855      3.423941067
H       5.141851290      3.597277337      4.852381376
           6
  t=       161.00000    1    1
C       3.342103423      3.955457927      4.068698924
C       4.787636011      4.092537428      3.944312852
H       3.001537808      4.980401140      3.823184298
H       2.682976165      2.976333503      4.834911148
H       4.720599621      4.944323315      3.475633336
H       5.165793624      3.643562243      4.828143959
           6
  t=       161.50000    1    1
C       3.339656072      3.967611530      4.079411521
C       4.804519563      4.102452086      3.958808367
H       3.068171857      4.932857820      3.838456051
H       2.729685991      3.024679794      4.851063660
H       4.755963230      4.986007617      3.520781071
H       5.196468508      3.689515172      4.802599984
           6
  t=       162.00000    1    1
C       3.338372546      3.978871355      4.090823113
C       4.819290138      4.111513022      3.973783370
H       3.126348406      4.888964035      3.851329610
H       2.781753894      3.083098009      4.858108528
H       4.797043224      5.037581349      3.560398271
H       5.235836208      3.732679871      4.780049975
           6
  t=       162.50000    1    1
C       3.338789893      3.988471439      4.103088108
C       4.831644430      4.120208729      3.988760361
H       3.172780116      4.858876633      3.859256280
H       2.837796565      3.150629694      4.856613967
H       4.843584483      5.095542497      3.596106213
H       5.286037337      3.770666177      4.764702969
           6
  t=       163.00000    1    1
C       3.341295616      3.995742303      4.116374212
C       4.841420129      4.129010127      4.003403697
H       3.205226631      4.852076739      3.859371162
H       2.896296974      3.225706054      4.847537331
H       4.895303092      5.155745153      3.629484228
H       5.348429809      3.802073639      4.758888276
           6
  t=       163.50000    1    1
C       3.346145765      4.000658266      4.130632092
C       4.848654355      4.138267196      4.017643557
H       3.223610725      4.871937132      3.850178823
H       2.955099885      3.305207876      4.833131278
H       4.951365956      5.214021875      3.661786164
H       5.422585904      3.826951895      4.762014631
           6
  t=       164.00000    1    1
C       3.353528415      4.004068946      4.145410644
C       4.853631110      4.148175896      4.031670543
H       3.229307306      4.913351402      3.832844429
H       3.011051547      3.384057716      4.817842958
H       5.010588037      5.267037448      3.693650834
H       5.505844360      3.846361245      4.770934949
           6
  t=       164.50000    1    1
C       3.363670577      4.007435355      4.159803814
C       4.856823372      4.158827825      4.045807344
H       3.224047202      4.966577529      3.810306769
H       3.059506833      3.454434090      4.809786589
H       5.071729031      5.312662196      3.725157518
H       5.594018971      3.861494480      4.781468126
           6
  t=       165.00000    1    1
C       3.376837683      4.012271839      4.172644499
C       4.858739498      4.170279274      4.060356371
H       3.209566697      5.022385213      3.785720421
H       3.095086335      3.507359453      4.819872655
H       5.133434574      5.349497442      3.756163428
H       5.682886986      3.873242910      4.789995283
           6
  t=       165.50000    1    1
C       3.393121177      4.019572793      4.183044884
C       4.859873340      4.182598031      4.075499346
H       3.187718608      5.074233299      3.761601363
H       3.114293725      3.537372976      4.856440378
H       5.194081757      5.376310061      3.786544007
H       5.768740645      3.882185024      4.794199369
           6
  t=       166.00000    1    1
C       3.412255623      4.029512929      4.190925141
C       4.860730432      4.195832847      4.091309139
H       3.160078892      5.118509623      3.739513191
H       3.117679695      3.545843938      4.919422479
H       5.252155103      5.392186981      3.816160671
H       5.848107818      3.888814055      4.792805539
           6
  t=       166.50000    1    1
C       3.433621261      4.041633129      4.197006889
C       4.861791558      4.209994141      4.107787151
H       3.128166866      5.153360970      3.720414906
H       3.109546341      3.539755434      4.999949492
H       5.306488190      5.396906572      3.844788025
H       5.917989525      3.893568324      4.785334397
           6
  t=       167.00000    1    1
C       3.456472379      4.055315234      4.202229658
C       4.863462726      4.225086327      4.124889427
H       3.093827713      5.177724160      3.705098347
H       3.095239598      3.526936521      5.086667127
H       5.356034242      5.390765359      3.872126663
H       5.976289237      3.896698609      4.771976399
           6
  t=       167.50000    1    1
C       3.480162929      4.070081898      4.207313752
C       4.866076173      4.241107866      4.142566216
H       3.058818318      5.190961714      3.694350845
H       3.078914645      3.513044834      5.170679553
H       5.399892194      5.374321110      3.897748669
H       6.021735207      3.898333217      4.753277876
           6
  t=       168.00000    1    1
C       3.504203990      4.085658752      4.212689821
C       4.869913733      4.258020155      4.160768778
H       3.024534833      5.192541493      3.688858749
H       3.063111384      3.501414473      5.246495146
H       5.437310040      5.348445557      3.921275953
H       6.053610980      3.898527745      4.729871480
           6
  t=       168.50000    1    1
C       3.528261779      4.101893044      4.218601701
C       4.875141591      4.275730204      4.179440131
H       2.992105114      5.182429969      3.688900037
H       3.049408041      3.493727573      5.311124270
H       5.467714364      5.314471117      3.942382455
H       6.071780914      3.897229329      4.702568449
           6
  t=       169.00000    1    1
C       3.552069202      4.118690067      4.225174414
C       4.881867097      4.294105411      4.198520090
H       2.962530252      5.160949551      3.694519115
H       3.038835377      3.490689112      5.363178572
H       5.490831236      5.274209345      3.960697851
H       6.076390558      3.894307570      4.672310467
           6
  t=       169.50000    1    1
C       3.575389545      4.135973001      4.232463280
C       4.890143631      4.312968436      4.217957708
H       2.936683566      5.128679120      3.705621115
H       3.032025119      3.492470159      5.402215792
H       5.506960080      5.230109314      3.975716676
H       6.067819993      3.889591924      4.640088023
           6
  t=       170.00000    1    1
C       3.598011479      4.153663644      4.240488226
C       4.899957199      4.332092983      4.237713700
H       2.915268609      5.086465469      3.721966211
H       3.029288574      3.498899355      5.428387063
H       5.517125180      5.185406045      3.986681855
H       6.046714941      3.882800279      4.606977543
           6
  t=       170.50000    1    1
C       3.619743497      4.171664806      4.249276852
C       4.911215108      4.351196977      4.257764636
H       2.898753677      5.035470049      3.743128993
H       3.030861224      3.509710773      5.441967255
H       5.523140662      5.144098813      3.992521153
H       6.013943951      3.873556982      4.574152134
           6
  t=       171.00000    1    1
C       3.640424876      4.189856661      4.258880337
C       4.923733762      4.369953998      4.278108233
H       2.887277694      4.977245710      3.768443779
H       3.037032852      3.524623036      5.443183775
H       5.527517777      5.110660292      3.991809283
H       5.970669852      3.861435232      4.542892695
           6
  t=       171.50000    1    1
C       3.659943466      4.208100785      4.269368505
C       4.937248061      4.388062473      4.298755482
H       2.880606406      4.913726044      3.796987719
H       3.048126858      3.543319431      5.432270297
H       5.532955498      5.089305362      3.982874217
H       5.918599686      3.845846133      4.514597493
           6
  t=       172.00000    1    1
C       3.678242717      4.226231736      4.280821187
C       4.951468945      4.405357728      4.319700787
H       2.878098783      4.847169760      3.827606380
H       3.064453051      3.565482737      5.409545648
H       5.541532407      5.082886674      3.964258971
H       5.860104301      3.825929105      4.490674549
           6
  t=       172.50000    1    1
C       3.695329664      4.244046789      4.293320096
C       4.966154955      4.421916741      4.340871097
H       2.878535910      4.780197574      3.858867961
H       3.086302913      3.590786950      5.375541753
H       5.553904837      5.091771081      3.935506405
H       5.798248109      3.800520923      4.472377657
           6
  t=       173.00000    1    1
C       3.711263300      4.261326712      4.306955617
C       4.981157702      4.438060454      4.362089978
H       2.880007292      4.715690283      3.888975507
H       3.114012928      3.618819092      5.331043709
H       5.569147158      5.113719263      3.897687868
H       5.736595962      3.768181166      4.460672668
           6
  t=       173.50000    1    1
C       3.726150175      4.277891136      4.321821563
C       4.996435578      4.454231460      4.383095149
H       2.880043026      4.656373339      3.915775999
H       3.147835954      3.648936472      5.277253976
H       5.585442937      5.144845808      3.853314439
H       5.678407497      3.727587891      4.456006483
           6
  t=       174.00000    1    1
C       3.740107155      4.293650640      4.337971788
C       5.012078764      4.470824776      4.403603505
H       2.876297863      4.604239249      3.937236033
H       3.187773083      3.680209378      5.215816616
H       5.600841506      5.180994962      3.805554566
H       5.625510463      3.678192693      4.458331648
           6
  t=       174.50000    1    1
C       3.753239644      4.308650372      4.355333387
C       5.028277517      4.488056636      4.423377197
H       2.867362627      4.560402297      3.951881207
H       3.233392088      3.711052919      5.149218270
H       5.613710433      5.218491448      3.757476060
H       5.577855675      3.621026894      4.467270967
           6
  t=       175.00000    1    1
C       3.765640630      4.323095398      4.373622484
C       5.045214522      4.505909120      4.442253637
H       2.853396250      4.525245677      3.959120800
H       3.283471041      3.738792150      5.081402157
H       5.623058677      5.254281644      3.711758917
H       5.534212330      3.559205912      4.482111881
           6
  t=       175.50000    1    1
C       3.777443526      4.337377468      4.392302602
C       5.062980795      4.524189767      4.460126738
H       2.836049117      4.498742992      3.959390318
H       3.335274837      3.758997242      5.018255050
H       5.628517235      5.286290887      3.670485757
H       5.493359968      3.496885958      4.502106061
           6
  t=       176.00000    1    1
C       3.788880079      4.352098758      4.410645684
C       5.081558412      4.542668372      4.476909084
H       2.817760611      4.480826982      3.953584488
H       3.384458992      3.764828345      4.967583463
H       5.629976868      5.312899744      3.635517576
H       5.454765039      3.438161301      4.526408177
           6
  t=       176.50000    1    1
C       3.800212361      4.367958037      4.427949217
C       5.100844568      4.561145989      4.492548840
H       2.801043693      4.471340453      3.942933964
H       3.426652171      3.748416052      4.936510537
H       5.627461081      5.332969917      3.608348816
H       5.418364655      3.386241110      4.554158565
           6
  t=       177.00000    1    1
C       3.811487543      4.385352104      4.443909188
C       5.120700314      4.579450425      4.507018314
H       2.787999769      4.469964471      3.928905347
H       3.460408762      3.705620149      4.927167828
H       5.621175756      5.345937606      3.590111596
H       5.384390756      3.343471996      4.584579440
           6
  t=       177.50000    1    1
C       3.822450266      4.404044114      4.458736214
C       5.140955308      4.597434430      4.520321855
H       2.780380311      4.476173526      3.913170563
H       3.487989193      3.639967996      4.935411889
H       5.611580598      5.351663062      3.581516768
H       5.353444229      3.311568626      4.616869999
           6
  t=       178.00000    1    1
C       3.832718401      4.423329551      4.472876708
C       5.161452864      4.614989658      4.532493401
H       2.779664254      4.489379256      3.897294145
H       3.512915975      3.560416795      4.954487557
H       5.599290317      5.350259091      3.582869920
H       5.326329269      3.291735129      4.650191585
           6
  t=       178.50000    1    1
C       3.842035191      4.442482462      4.486692261
C       5.182049521      4.632033345      4.543617075
H       2.786890773      4.508918969      3.882639053
H       3.537520098      3.476205995      4.978724624
H       5.584915196      5.342209731      3.593918197
H       5.303834272      3.284547133      4.683793303
           6
  t=       179.00000    1    1
C       3.850326834      4.460961593      4.500391202
C       5.202582073      4.648480715      4.553818250
H       2.802715597      4.533899126      3.870423156
H       3.562458093      3.394756842      5.004342060
H       5.569082491      5.328426098      3.613934776
H       5.286843888      3.290025386      4.716988879
           6
  t=       179.50000    1    1
C       3.857678078      4.478418718      4.514073054
C       5.222845077      4.664217078      4.563249829
H       2.827327301      4.563387291      3.861523370
H       3.587413808      3.321167846      5.029293439
H       5.552638523      5.310200737      3.641801939
H       5.276077484      3.308227209      4.749057700
           6
  t=       180.00000    1    1
C       3.864279514      4.494641077      4.527802992
C       5.242576123      4.679092555      4.572085933
H       2.860401486      4.596743081      3.856323400
H       3.611920471      3.258437438      5.052633332
H       5.536821712      5.289131994      3.675887934
H       5.271943594      3.339517317      4.779341858
           6
  t=       180.50000    1    1
C       3.870378591      4.509494829      4.541640446
C       5.261463854      4.692932806      4.580541623
H       2.901212743      4.633524155      3.854971639
H       3.635662824      3.208420610      5.073726192
H       5.523214156      5.267186412      3.713826551
H       5.274662310      3.384188688      4.807423970
           6
  t=       181.00000    1    1
C       3.876250621      4.522926340      4.555619928
C       5.279181518      4.705536504      4.588905185
H       2.948707379      4.673338301      3.857539639
H       3.658485762      3.172106448      5.092110180
H       5.513599763      5.246866555      3.752290163
H       5.284271449      3.442179924      4.833175623
           6
  t=       181.50000    1    1
C       3.882165692      4.534954512      4.569756143
C       5.295424837      4.716688596      4.597540241
H       3.001626009      4.715762997      3.863976810
H       3.680326248      3.149865821      5.107478484
H       5.509757174      5.231187970      3.787020949
H       5.300722193      3.512864383      4.856704000
           6
  t=       182.00000    1    1
C       3.888368161      4.545642454      4.584070737
C       5.309935741      4.726224959      4.606828120
H       3.058490502      4.760378866      3.873951381
H       3.701162889      3.141782710      5.119599352
H       5.513284265      5.223386731      3.813342448
H       5.324079605      3.594545075      4.878447360
           6
  t=       182.50000    1    1
C       3.895091936      4.555070822      4.598616982
C       5.322515006      4.734176741      4.617035561
H       3.117438670      4.806865480      3.886658138
H       3.720972897      3.147787493      5.128281100
H       5.525357900      5.225955062      3.827540313
H       5.354638501      3.683787562      4.899303826
           6
  t=       183.00000    1    1
C       3.902571326      4.563296445      4.613492419
C       5.333027499      4.740916305      4.628141964
H       3.176292574      4.855106061      3.900806757
H       3.739631474      3.167886284      5.133288949
H       5.546375445      5.239350981      3.828753382
H       5.393122490      3.775130421      4.920742833
           6
  t=       183.50000    1    1
C       3.911032544      4.570323484      4.628822031
C       5.341385807      4.747258933      4.639743278
H       3.232874209      4.905220023      3.914911699
H       3.756720082      3.202160996      5.134333343
H       5.575904802      5.261970896      3.819367912
H       5.440906331      3.860211659      4.945478498
           6
  t=       184.00000    1    1
C       3.920676744      4.576099697      4.644714516
C       5.347488751      4.754371500      4.651124075
H       3.285279852      4.957486930      3.927723136
H       3.771522577      3.250776620      5.131138307
H       5.612963628      5.291136621      3.803678240
H       5.500400963      3.927983345      4.977971915
           6
  t=       184.50000    1    1
C       3.931633150      4.580572072      4.661193615
C       5.351238400      4.763261332      4.661534310
H       3.332242714      5.012153590      3.938618579
H       3.783343133      3.313745264      5.123687732
H       5.656035951      5.323857981      3.786430355
H       5.574712099      3.969805399      5.022770062
           6
  t=       185.00000    1    1
C       3.943929011      4.583794306      4.678167829
C       5.352716093      4.774049343      4.670580524
H       3.373587140      5.069173159      3.947731489
H       3.791865784      3.390208985      5.112542074
H       5.703153382      5.357588973      3.771771129
H       5.665005863      3.987048030      5.080810777
           6
  t=       185.50000    1    1
C       3.957482328      4.585971845      4.695463211
C       5.352364760      4.786044115      4.678370626
H       3.410224450      5.127845911      3.955878551
H       3.797117158      3.478254618      5.098739651
H       5.752296763      5.390626916      3.762562362
H       5.768062691      3.989817481      5.148164136
           6
  t=       186.00000    1    1
C       3.972113850      4.587474614      4.712825539
C       5.350876226      4.798469169      4.685240756
H       3.443563772      5.186834760      3.964380633
H       3.798958875      3.574744099      5.083777541
H       5.801588077      5.421800157      3.760689488
H       5.878382225      3.988604940      5.219150639
           6
  t=       186.50000    1    1
C       3.987648121      4.588950258      4.729901918
C       5.349006675      4.810811400      4.691497149
H       3.474844943      5.244351093      3.974709510
H       3.796665025      3.673782260      5.070111712
H       5.849217741      5.450280118      3.767490896
H       5.990340313      3.990319622      5.289060153
           6
  t=       187.00000    1    1
C       4.004017812      4.591427949      4.746208858
C       5.347399163      4.822818207      4.697360674
H       3.504981882      5.298589306      3.988229815
H       3.788397403      3.765073321      5.061829675
H       5.893671260      5.475583673      3.783594835
H       6.099515615      3.998292647      5.354941582
           6
  t=       187.50000    1    1
C       4.021351893      4.596264477      4.761136806
C       5.346599473      4.834379644      4.702992161
H       3.534407778      5.347971652      4.005981222
H       3.770085761      3.834216483      5.064789254
H       5.933679449      5.497363438      3.809305169
H       6.202774193      4.013992996      5.414940416
           6
  t=       188.00000    1    1
C       4.039845436      4.604581190      4.774166384
C       5.347133995      4.845466321      4.708524809
H       3.563193081      5.391232212      4.028554486
H       3.736520424      3.869217684      5.084254790
H       5.968177171      5.515329610      3.844649689
H       6.297723716      4.037959005      5.467775352
           6
  t=       188.50000    1    1
C       4.059504877      4.616376365      4.785241640
C       5.349269631      4.856119073      4.714083003
H       3.591256954      5.427980391      4.056018387
H       3.686210005      3.870675781      5.120523799
H       5.996717023      5.529423854      3.888702191
H       6.383126821      4.069574721      5.513190841
           6
  t=       189.00000    1    1
C       4.079971848      4.630722048      4.794727632
C       5.353134519      4.866398429      4.719764767
H       3.618470023      5.458439577      4.088243591
H       3.622760949      3.849545164      5.169170175
H       6.019119112      5.539622991      3.940279231
H       6.458429663      4.108021499      5.551407865
           6
  t=       189.50000    1    1
C       4.100573350      4.646397314      4.803203423
C       5.358886760      4.876344393      4.725652422
H       3.644658510      5.483109366      4.124813734
H       3.553101412      3.819755508      5.223784754
H       6.035384717      5.546123836      3.998255621
H       6.523011915      4.152744703      5.582496293
           6
  t=       190.00000    1    1
C       4.120703588      4.662536983      4.811161941
C       5.366667111      4.885992983      4.731818925
H       3.669375535      5.502659699      4.165030232
H       3.483282037      3.790767731      5.279383010
H       6.045785403      5.549417054      4.061324206
H       6.576539549      4.203002863      5.606703485
           6
  t=       190.50000    1    1
C       4.139933964      4.678644728      4.818951239
C       5.376552743      4.895354167      4.738358518
H       3.691939157      5.517916507      4.208009666
H       3.417352923      3.767524533      5.332885605
H       6.051125342      5.550449793      4.127762558
H       6.619027684      4.257875461      5.624444388
           6
  t=       191.00000    1    1
C       4.157976592      4.694441773      4.826809443
C       5.388563086      4.904379850      4.745417592
H       3.711565484      5.529819437      4.252798035
H       3.357853984      3.752302402      5.382537354
H       6.052906051      5.550693557      4.195483755
H       6.650417610      4.316569774      5.635933347
           6
  t=       191.50000    1    1
C       4.174681421      4.709766855      4.834909416
C       5.402597666      4.912960595      4.753184481
H       3.727474452      5.539466655      4.298292748
H       3.306294196      3.745877528      5.427434981
H       6.053438195      5.552187314      4.262213157
H       6.670654955      4.378398049      5.641146930
           6
  t=       192.00000    1    1
C       4.189999456      4.724507876      4.843383039
C       5.418437288      4.920932312      4.761866717
H       3.738910327      5.548083490      4.343370072
H       3.263652520      3.748422596      5.467049748
H       6.055542659      5.557560547      4.325542736
H       6.679891229      4.442623737      5.640101312
           6
  t=       192.50000    1    1
C       4.203929000      4.738568194      4.852332435
C       5.435804136      4.928107747      4.771653304
H       3.745248788      5.556929124      4.386964076
H       3.230680355      3.759927984      5.501038998
H       6.061822119      5.570194688      4.382813942
H       6.678727310      4.507998686      5.633394652
           6
  t=       193.00000    1    1
C       4.216490308      4.751864214      4.861836337
C       5.454446591      4.934333984      4.782667338
H       3.746193924      5.567184405      4.428269823
H       3.208058531      3.780318914      5.529103095
H       6.073833332      5.593379084      4.431642900
H       6.667978349      4.572945641      5.622110484
           6
  t=       193.50000    1    1
C       4.227732670      4.764358962      4.871941519
C       5.474241134      4.939566910      4.794945955
H       3.741822687      5.579738736      4.466803441
H       3.196276954      3.809305446      5.551063363
H       6.091658763      5.628526534      4.471259489
H       6.647879540      4.636418560      5.606681635
           6
  t=       194.00000    1    1
C       4.237714860      4.776069114      4.882665097
C       5.495241733      4.943920447      4.808459003
H       3.732506358      5.594988635      4.502362896
H       3.195647146      3.846451046      5.566857387
H       6.113642468      5.674921829      4.502188539
H       6.618060588      4.697616501      5.587003033
           6
  t=       194.50000    1    1
C       4.246495265      4.787065220      4.893990942
C       5.517599511      4.947673993      4.823117384
H       3.718978350      5.612723577      4.535007210
H       3.206145219      3.891128596      5.576617346
H       6.136870690      5.730252441      4.525519226
H       6.578229315      4.755519774      5.563048182
           6
  t=       195.00000    1    1
C       4.254116020      4.797463609      4.905881799
C       5.541417607      4.951207177      4.838791319
H       3.702300728      5.632161277      4.564890932
H       3.227635337      3.942644026      5.580585344
H       6.158164774      5.791574465      4.542341755
H       6.528907072      4.808638958      5.535320534
           6
  t=       195.50000    1    1
C       4.260593924      4.807413846      4.918295604
C       5.566628804      4.954925955      4.855290552
H       3.683753016      5.652226341      4.592200647
H       3.260143447      4.000287359      5.578956704
H       6.174775303      5.855936047      4.553479203
H       6.472138588      4.855091873      5.505383332
           6
  t=       196.00000    1    1
C       4.265939601      4.817084520      4.931199251
C       5.592874778      4.959209457      4.872301829
H       3.664781238      5.671822597      4.617013246
H       3.303900188      4.063260716      5.571917753
H       6.184795385      5.920755838      4.559621073
H       6.412297165      4.892827471      5.476411007
           6
  t=       196.50000    1    1
C       4.270196700      4.826655136      4.944570382
C       5.619436854      4.964385081      4.889297646
H       3.646792019      5.689994982      4.639246571
H       3.359110176      4.130580547      5.559791984
H       6.187169928      5.983871435      4.561533978
H       6.356870053      4.919906693      5.453947545
           6
  t=       197.00000    1    1
C       4.273532600      4.836318730      4.958376827
C       5.645156679      4.970723461      4.905446516
H       3.630803834      5.705924220      4.658718682
H       3.425448852      4.201006372      5.543239769
H       6.181570819      6.043385117      4.560202513
H       6.317299555      4.934762050      5.446821016
           6
  t=       197.50000    1    1
C       4.276271481      4.846306695      4.972503037
C       5.668762777      4.978438732      4.919831626
H       3.617480958      5.719033643      4.675222177
H       3.501136907      4.272395580      5.523910569
H       6.168402743      6.097475113      4.556829297
H       6.305583710      4.936625848      5.464688013
           6
  t=       198.00000    1    1
C       4.278895371      4.856956221      4.986674696
C       5.689611757      4.987683222      4.932005441
H       3.607319607      5.728867033      4.688587767
H       3.582252884      4.341063438      5.505194405
H       6.148517141      6.144399769      4.552711073
H       6.326219056      4.925547763      5.511632394
           6
  t=       198.50000    1    1
C       4.282098823      4.868748909      5.000439563
C       5.707895492      4.998554937      4.942171479
H       3.600974885      5.735292622      4.698756445
H       3.661893273      4.401005380      5.492790601
H       6.122884839      6.182471209      4.548898669
H       6.373920816      4.902445558      5.583926732
           6
  t=       199.00000    1    1
C       4.286853842      4.882345527      5.013129492
C       5.724372194      5.011029447      4.951118451
H       3.599011693      5.738357115      4.705678769
H       3.729742769      4.443746058      5.495173586
H       6.092539203      6.210387460      4.546131578
H       6.436789329      4.869467490      5.670969927
           6
  t=       199.50000    1    1
C       4.294076062      4.898349406      5.024071417
C       5.739748964      5.024953571      4.959690376
H       3.601615743      5.738256350      4.709415562
H       3.776306565      4.461352493      5.520854767
H       6.058580364      6.227668268      4.544647678
H       6.503697564      4.829467104      5.761914833
           6
  t=       200.00000    1    1
C       4.304047230      4.916870525      5.033055862
C       5.754442298      5.040162381      4.968452085
H       3.608581362      5.735391540      4.710052354
H       3.799403574      4.451445708      5.572869451
H       6.022259276      6.233999031      4.544690375
H       6.567461299      4.785391497      5.849162947
