           6
  t=         0.00000    2    2
C      -0.684778521      0.001773469      0.013246591
C       0.668907729     -0.006124030     -0.001079061
H      -1.184562112      0.976759651     -0.075989292
H      -1.205364862     -0.948278910     -0.049139179
H       1.255834943      0.890370058      0.010904331
H       1.323203203     -0.867010869     -0.030760182
           6
  t=         0.50000    2    2
C      -0.687645399      0.003018170      0.012788592
C       0.671745733     -0.006098884     -0.000610972
H      -1.183540668      0.964191168     -0.074063614
H      -1.206258917     -0.947074859     -0.047887291
H       1.253717523      0.902665369      0.009886307
H       1.325537469     -0.883072669     -0.033039909
           6
  t=         1.00000    2    2
C      -0.691486248      0.004222437      0.012326509
C       0.675894821     -0.006089002     -0.000099501
H      -1.183507871      0.950570657     -0.073300886
H      -1.208238681     -0.944902047     -0.045615109
H       1.251357753      0.915635008      0.009894815
H       1.326171500     -0.899061842     -0.036671764
           6
  t=         1.50000    2    2
C      -0.696148440      0.005287656      0.011866945
C       0.681301637     -0.006104932      0.000456947
H      -1.185043882      0.937188238     -0.073803826
H      -1.211333035     -0.941931540     -0.042325752
H       1.248578609      0.928511617      0.010878320
H       1.324708504     -0.914029350     -0.041596093
           6
  t=         2.00000    1    1
C      -0.701445907      0.006116284      0.011419117
C       0.687863028     -0.006147782      0.001060299
H      -1.188754076      0.925390478     -0.075731373
H      -1.215597138     -0.938400405     -0.037994222
H       1.245271336      0.940575043      0.012823558
H       1.320929742     -0.927189056     -0.047798438
           6
  t=         2.50000    1    1
C      -0.711479265      0.001737234      0.006046080
C       0.689938159     -0.011108045     -0.003219422
H      -1.253390151      0.858154459     -0.136344927
H      -1.279300188     -0.992978507     -0.091467692
H       1.183022615      0.893082730     -0.043228760
H       1.256522694     -0.996420946     -0.112462642
           6
  t=         3.00000    1    1
C      -0.720854402     -0.003556008      0.000498624
C       0.691311458     -0.016748813     -0.007617771
H      -1.321306433      0.796603101     -0.196060629
H      -1.340598316     -1.043097240     -0.144052011
H       1.124274065      0.850063322     -0.099339370
H       1.190010430     -1.061267881     -0.175363695
           6
  t=         3.50000    1    1
C      -0.729668077     -0.010052719     -0.005325256
C       0.691453085     -0.023850899     -0.012149906
H      -1.392363221      0.741718055     -0.254764838
H      -1.397075520     -1.086358556     -0.194638624
H       1.073495117      0.818586877     -0.156106610
H       1.121834127     -1.119428785     -0.235729404
           6
  t=         4.00000    1    1
C      -0.738112581     -0.017808008     -0.011545790
C       0.689931927     -0.033081586     -0.016770335
H      -1.465121996      0.692810282     -0.312011105
H      -1.446915840     -1.121467814     -0.242112160
H       1.034089363      0.804776766     -0.214895866
H       1.052764038     -1.169024812     -0.292865631
           6
  t=         4.50000    1    1
C      -0.746476869     -0.026769003     -0.018301296
C       0.686553106     -0.044714642     -0.021438143
H      -1.537191934      0.648396864     -0.366949281
H      -1.488806441     -1.147723146     -0.285445706
H       1.007187874      0.810770412     -0.277004653
H       0.983730587     -1.208780251     -0.346191310
           6
  t=         5.00000    1    1
C      -0.755040108     -0.036824527     -0.025740626
C       0.681360992     -0.058509253     -0.026205212
H      -1.605858366      0.606915318     -0.418395699
H      -1.522031770     -1.165026656     -0.323866633
H       0.991271740      0.833258117     -0.342477243
H       0.915620251     -1.238114995     -0.395226558
           6
  t=         5.50000    1    1
C      -0.764061112     -0.047840182     -0.033995251
C       0.674554089     -0.073914036     -0.031228346
H      -1.668627378      0.567167520     -0.465142156
H      -1.546243669     -1.173730071     -0.356900876
H       0.983432628      0.865636174     -0.409884715
H       0.849217935     -1.257047028     -0.439647605
           6
  t=         6.00000    1    1
C      -0.773734192     -0.059669345     -0.043190828
C       0.666331667     -0.090336761     -0.036702020
H      -1.723418169      0.528338827     -0.505974359
H      -1.561312672     -1.174455026     -0.384298517
H       0.980670146      0.901069166     -0.477060188
H       0.785254657     -1.266108608     -0.479270935
           6
  t=         6.50000    1    1
C      -0.784193281     -0.072190838     -0.053438218
C       0.656827867     -0.107288379     -0.042806340
H      -1.768669356      0.490237478     -0.539875497
H      -1.567176045     -1.168043852     -0.405843301
H       0.980617149      0.934158597     -0.541813869
H       0.724470972     -1.266138398     -0.514052353
           6
  t=         7.00000    1    1
C      -0.795547005     -0.085332977     -0.064827558
C       0.646099226     -0.124408525     -0.049700398
H      -1.803232866      0.453339476     -0.566108335
H      -1.563676512     -1.155450663     -0.421174805
H       0.981708906      0.961165578     -0.602237531
H       0.667746928     -1.258067558     -0.544028003
           6
  t=         7.50000    1    1
C      -0.807840914     -0.099060226     -0.077392171
C       0.634157746     -0.141422806     -0.057517464
H      -1.826605453      0.418715056     -0.584464685
H      -1.550773782     -1.137880618     -0.429906799
H       0.982877386      0.979619432     -0.656769043
H       0.616006785     -1.242983513     -0.569369363
           6
  t=         8.00000    1    1
C      -0.821038256     -0.113364912     -0.091092895
C       0.621017365     -0.158126955     -0.066344492
H      -1.839069550      0.387693911     -0.595357836
H      -1.528731858     -1.116703962     -0.431799717
H       0.983394889      0.988101335     -0.704349843
H       0.569920669     -1.221952272     -0.590391801
           6
  t=         8.50000    1    1
C      -0.835028290     -0.128221930     -0.105851106
C       0.606712000     -0.174363346     -0.076201054
H      -1.841351805      0.361291138     -0.599445011
H      -1.498352707     -1.093383770     -0.426936288
H       0.982735318      0.985969443     -0.744458192
H       0.529819569     -1.196061398     -0.607580754
           6
  t=         9.00000    1    1
C      -0.849640838     -0.143529240     -0.121564832
C       0.591284785     -0.189970933     -0.087048472
H      -1.834413512      0.340155355     -0.597322564
H      -1.461182033     -1.069850064     -0.415813001
H       0.980526118      0.973062545     -0.776888719
H       0.496041306     -1.167003108     -0.621724677
           6
  t=         9.50000    1    1
C      -0.864658249     -0.159089552     -0.138091470
C       0.574772887     -0.204743160     -0.098825314
H      -1.819547956      0.324862537     -0.589562654
H      -1.419339827     -1.048813355     -0.399301533
H       0.976536072      0.949318815     -0.801451141
H       0.469194061     -1.137393136     -0.634001254
           6
  t=        10.00000    1    1
C      -0.879766101     -0.174585800     -0.155219120
C       0.557212213     -0.218426123     -0.111454151
H      -1.798581724      0.316045518     -0.576884256
H      -1.375647802     -1.034338962     -0.378812200
H       0.970649326      0.914721338     -0.817953103
H       0.449867536     -1.110585595     -0.645921064
           6
  t=        10.50000    1    1
C      -0.894536532     -0.189582808     -0.172680924
C       0.538617887     -0.230743942     -0.124858865
H      -1.773757805      0.314434412     -0.560174077
H      -1.333565627     -1.032072722     -0.356135608
H       0.962865117      0.869355767     -0.826180592
H       0.438486702     -1.090223110     -0.659107650
           6
  t=        11.00000    1    1
C      -0.908502225     -0.203646929     -0.190223336
C       0.518987287     -0.241448819     -0.138960085
H      -1.747620178      0.320804184     -0.540396775
H      -1.296423752     -1.047899279     -0.332869122
H       0.953294327      0.813631670     -0.826054643
H       0.435277952     -1.079725442     -0.675044825
           6
  t=        11.50000    1    1
C      -0.921300221     -0.216540581     -0.207664754
C       0.498317114     -0.250392756     -0.153704342
H      -1.722755561      0.335929450     -0.518561030
H      -1.266381713     -1.085559403     -0.309727499
H       0.942139307      0.748420804     -0.817667837
H       0.440499599     -1.081592655     -0.694717635
           6
  t=        12.00000    1    1
C      -0.932780032     -0.228422954     -0.224913725
C       0.476614437     -0.257599899     -0.169120806
H      -1.701511367      0.360525829     -0.495576047
H      -1.243729938     -1.144177093     -0.286411874
H       0.929770825      0.675171123     -0.801248671
H       0.454541303     -1.096679731     -0.718029379
           6
  t=        12.50000    1    1
C      -0.943037932     -0.239861425     -0.241943794
C       0.453949083     -0.263385546     -0.185278129
H      -1.685496713      0.394687717     -0.472045261
H      -1.227208976     -1.217542249     -0.262359497
H       0.916971809      0.596591987     -0.777778101
H       0.477284944     -1.123482882     -0.743455626
           6
  t=        13.00000    1    1
C      -0.952304909     -0.251503336     -0.258746658
C       0.430411977     -0.268289188     -0.202230324
H      -1.675043170      0.437567125     -0.448045180
H      -1.215453319     -1.297525232     -0.237503788
H       0.905053458      0.516638420     -0.749076858
H       0.508054341     -1.159096852     -0.768621034
           6
  t=        13.50000    1    1
C      -0.960881119     -0.263820608     -0.275327813
C       0.406074895     -0.273000209     -0.219959868
H      -1.669022946      0.486978959     -0.423194238
H      -1.207653153     -1.376709134     -0.212243085
H       0.896077754      0.440320531     -0.717787201
H       0.545571193     -1.199925835     -0.791009884
           6
  t=        14.00000    1    1
C      -0.969070055     -0.276999650     -0.291694023
C       0.380912381     -0.278332759     -0.238339451
H      -1.665463827      0.539725838     -0.396974276
H      -1.203562397     -1.450009981     -0.187189052
H       0.893558958      0.373976317     -0.687550099
H       0.588022605     -1.242272073     -0.808324085
           6
  t=        14.50000    1    1
C      -0.977202949     -0.291014033     -0.307824596
C       0.354841250     -0.285081879     -0.257171659
H      -1.662360062      0.592061979     -0.369058446
H      -1.203263191     -1.514045967     -0.163005601
H       0.902292898      0.324161001     -0.662198145
H       0.633627201     -1.283168307     -0.818992867
           6
  t=        15.00000    1    1
C      -0.985673780     -0.305774597     -0.323656951
C       0.327921425     -0.293816132     -0.276346037
H      -1.658072224      0.640620900     -0.339502673
H      -1.207006785     -1.566279455     -0.140337933
H       0.926251661      0.295290834     -0.643931813
H       0.681005205     -1.320489518     -0.822176480
           6
  t=        15.50000    1    1
C      -0.994795512     -0.321172219     -0.339108000
C       0.300511609     -0.304607327     -0.295940131
H      -1.651376451      0.682777117     -0.308957175
H      -1.214821930     -1.605410755     -0.119593505
H       0.965498070      0.286869573     -0.631584505
H       0.728353669     -1.352858298     -0.818049863
           6
  t=        16.00000    1    1
C      -1.004768745     -0.337060875     -0.354116592
C       0.273281832     -0.317110633     -0.316191575
H      -1.641590592      0.716459582     -0.278106195
H      -1.226447427     -1.631149295     -0.101010720
H       1.015492164      0.294074416     -0.621613248
H       0.773675651     -1.379520211     -0.807130442
           6
  t=        16.50000    1    1
C      -1.015807456     -0.353286035     -0.368618753
C       0.247099823     -0.330869560     -0.337306292
H      -1.628455909      0.740089145     -0.247564475
H      -1.241595309     -1.643624932     -0.084957264
H       1.069512440      0.310799184     -0.610864653
H       0.815356021     -1.399940824     -0.789897759
           6
  t=        17.00000    1    1
C      -1.028144465     -0.369715238     -0.382535179
C       0.222763586     -0.345511980     -0.359379977
H      -1.612012192      0.752644761     -0.217968429
H      -1.259973068     -1.643193893     -0.071802344
H       1.121723006      0.332028199     -0.597579960
H       0.852243435     -1.413739674     -0.766909633
           6
  t=        17.50000    1    1
C      -1.041990196     -0.386234864     -0.395785662
C       0.200906259     -0.360780831     -0.382413241
H      -1.592547767      0.753580963     -0.189927894
H      -1.281254698     -1.630332720     -0.061853724
H       1.167847307      0.354246865     -0.581123496
H       0.883539825     -1.420797110     -0.738832601
           6
  t=        18.00000    1    1
C      -1.057479137     -0.402745392     -0.408298208
C       0.181984208     -0.376505593     -0.406340020
H      -1.570547002      0.742740519     -0.163997642
H      -1.305158593     -1.605651971     -0.055364133
H       1.204858025      0.375174360     -0.561575664
H       0.908639892     -1.421282221     -0.706423812
           6
  t=        18.50000    1    1
C      -1.074639361     -0.419157328     -0.420015105
C       0.166273662     -0.392574471     -0.431050305
H      -1.546644957      0.720333054     -0.140697401
H      -1.331526291     -1.570039883     -0.052455879
H       1.230782042      0.393408571     -0.539410969
H       0.927036394     -1.415512788     -0.670565223
           6
  t=        19.00000    1    1
C      -1.093405807     -0.435368431     -0.430898541
C       0.153914736     -0.408912822     -0.456414499
H      -1.521605201      0.686944113     -0.120518096
H      -1.360378822     -1.524952034     -0.053022689
H       1.244402276      0.408103955     -0.515251172
H       0.938286203     -1.403880922     -0.632245232
           6
  t=        19.50000    1    1
C      -1.113633534     -0.451238286     -0.440937375
C       0.144956133     -0.425466519     -0.482304436
H      -1.496256438      0.643632291     -0.103803650
H      -1.391976353     -1.472796532     -0.056757226
H       1.244927483      0.418831417     -0.489840751
H       0.941962038     -1.386926113     -0.592342678
           6
  t=        20.00000    1    1
C      -1.135057771     -0.466586345     -0.450187204
C       0.139315860     -0.442186293     -0.508573460
H      -1.471458652      0.592077443     -0.090503046
H      -1.426927493     -1.417179384     -0.063099651
H       1.232026141      0.425546991     -0.464212416
H       0.937686097     -1.365416661     -0.551520769
           6
  t=        20.50000    1    1
C      -1.157238325     -0.481169004     -0.458791296
C       0.136745358     -0.459015113     -0.535021518
H      -1.448311039      0.534339870     -0.080410419
H      -1.466312364     -1.362745339     -0.070858093
H       1.205701579      0.428194961     -0.439508197
H       0.925350908     -1.340294684     -0.510711823
           6
  t=        21.00000    1    1
C      -1.179530360     -0.494701853     -0.467006001
C       0.136750728     -0.475863042     -0.561401737
H      -1.428168791      0.473191077     -0.073088760
H      -1.511675859     -1.315150739     -0.078044223
H       1.166345987      0.426492445     -0.416852119
H       0.905665868     -1.312853056     -0.471104238
           6
  t=        21.50000    1    1
C      -1.201242446     -0.506990722     -0.475144242
C       0.138794424     -0.492602137     -0.587498888
H      -1.412731783      0.412766163     -0.067749174
H      -1.564905098     -1.280093423     -0.082249349
H       1.114272555      0.420050359     -0.397056263
H       0.880071130     -1.284978141     -0.433919433
           6
  t=        22.00000    1    1
C      -1.221709983     -0.518085928     -0.483514491
C       0.142257590     -0.509049747     -0.613145791
H      -1.403529088      0.358728147     -0.063029691
H      -1.627783069     -1.261995675     -0.081665112
H       1.049986924      0.408663295     -0.380778528
H       0.850828045     -1.259282120     -0.399986248
           6
  t=        22.50000    1    1
C      -1.240492115     -0.528348100     -0.492320809
C       0.146492339     -0.524976660     -0.638248839
H      -1.401596278      0.316275361     -0.057164765
H      -1.700756058     -1.261339290     -0.076115427
H       0.974411682      0.392619273     -0.368541513
H       0.820962804     -1.239203609     -0.369407565
           6
  t=        23.00000    1    1
C      -1.257440507     -0.538334045     -0.501598782
C       0.150830111     -0.540180853     -0.662783401
H      -1.407418670      0.289375578     -0.048555935
H      -1.781956196     -1.275059179     -0.067350818
H       0.889020828      0.372788506     -0.360669623
H       0.793817689     -1.228418239     -0.341576398
           6
  t=        23.50000    1    1
C      -1.272661111     -0.548547075     -0.511219984
C       0.154680169     -0.554571838     -0.686786163
H      -1.420876922      0.279480682     -0.036401216
H      -1.867798378     -1.298322827     -0.058248034
H       0.795764051      0.350528722     -0.357277161
H       0.772040086     -1.229649006     -0.315396820
           6
  t=        24.00000    1    1
C      -1.286363648     -0.559251016     -0.520937475
C       0.157574008     -0.568225492     -0.710285762
H      -1.441346455      0.285044087     -0.021239609
H      -1.954368522     -1.326390919     -0.051733813
H       0.696943621      0.327647082     -0.358311809
H       0.756870584     -1.243848037     -0.290056629
           6
  t=        24.50000    1    1
C      -1.298793356     -0.570442102     -0.530455987
C       0.159180212     -0.581419492     -0.733273307
H      -1.467713538      0.301939705     -0.004966360
H      -2.038411513     -1.355575977     -0.049961309
H       0.595445428      0.306635481     -0.363257011
H       0.747925669     -1.269804788     -0.265648245
           6
  t=        25.00000    1    1
C      -1.310201171     -0.581986651     -0.539496841
C       0.159283941     -0.594580145     -0.755717064
H      -1.498558929      0.325069421      0.009882313
H      -2.117396534     -1.383199280     -0.054259478
H       0.494412196      0.290674824     -0.370945192
H       0.743662579     -1.304793943     -0.243172847
           6
  t=        25.50000    1    1
C      -1.320820642     -0.593752875     -0.547845659
C       0.157784759     -0.608169606     -0.777584628
H      -1.532451809      0.350018676      0.021066229
H      -2.189300833     -1.407378946     -0.065416029
H       0.396331008      0.283003651     -0.379854167
H       0.742120339     -1.345584792     -0.224065335
           6
  t=        26.00000    1    1
C      -1.330833612     -0.605637635     -0.555382028
C       0.154716527     -0.622542943     -0.798835311
H      -1.568361076      0.373749158      0.027164671
H      -2.252904088     -1.427158273     -0.083683171
H       0.302535349      0.285601021     -0.388817308
H       0.741477337     -1.389072920     -0.209739022
           6
  t=        26.50000    1    1
C      -1.340401761     -0.617582884     -0.562041688
C       0.150188696     -0.637825526     -0.819374285
H      -1.605633026      0.394253570      0.027338774
H      -2.307616038     -1.442208936     -0.109052472
H       0.213961922      0.298034331     -0.397666832
H       0.740175238     -1.432344530     -0.201426899
           6
  t=        27.00000    1    1
C      -1.349706917     -0.629578071     -0.567793955
C       0.144310712     -0.653888962     -0.839044203
H      -1.643590218      0.410022261      0.021023164
H      -2.353006934     -1.452400833     -0.141398994
H       0.131690668      0.317490444     -0.407267714
H       0.736889390     -1.472862557     -0.200064061
           6
  t=        27.50000    1    1
C      -1.358909413     -0.641642690     -0.572649405
C       0.137126708     -0.670440488     -0.857679453
H      -1.681489843      0.420052668      0.007856752
H      -2.388764512     -1.457778746     -0.180400018
H       0.056911134      0.340173506     -0.418939353
H       0.730759799     -1.509039977     -0.206140111
           6
  t=        28.00000    1    1
C      -1.368153562     -0.653816694     -0.576648723
C       0.128602732     -0.687164570     -0.875124385
H      -1.718632414      0.423740437     -0.012318201
H      -2.414510678     -1.458511905     -0.225691032
H      -0.008821362      0.362665841     -0.434007104
H       0.721277685     -1.539969261     -0.219906351
           6
  t=        28.50000    1    1
C      -1.377561112     -0.666138193     -0.579856756
C       0.118673271     -0.703780631     -0.891266744
H      -1.754459754      0.420771486     -0.039469422
H      -2.429877670     -1.454880025     -0.276804821
H      -0.063939018      0.382208526     -0.453495034
H       0.708180671     -1.565186864     -0.241403112
           6
  t=        29.00000    1    1
C      -1.387214165     -0.678622594     -0.582366749
C       0.107268369     -0.720061441     -0.906053110
H      -1.788549943      0.410998528     -0.073424029
H      -2.434621797     -1.447242215     -0.333070073
H      -0.107272704      0.396678423     -0.477961731
H       0.691445867     -1.584587261     -0.270441433
           6
  t=        29.50000    1    1
C      -1.397153731     -0.691263060     -0.584311098
C       0.094325393     -0.735830209     -0.919482980
H      -1.820556045      0.394402688     -0.113851507
H      -2.428757301     -1.436039145     -0.393562104
H      -0.138154745      0.404547751     -0.507515139
H       0.671307897     -1.598371163     -0.306596992
           6
  t=        30.00000    1    1
C      -1.407385980     -0.704045387     -0.585864828
C       0.079788101     -0.750945115     -0.931594360
H      -1.850179124      0.371094314     -0.160223509
H      -2.412666499     -1.421798641     -0.457133680
H      -0.156271388      0.404861669     -0.541947857
H       0.648280079     -1.607025390     -0.349214354
           6
  t=        30.50000    1    1
C      -1.417874986     -0.716947491     -0.587239940
C       0.063603347     -0.765287118     -0.942455151
H      -1.877158076      0.341335311     -0.211824670
H      -2.387288319     -1.405267830     -0.522461434
H      -0.161537129      0.397180004     -0.580834445
H       0.623159889     -1.611306151     -0.397422485
           6
  t=        31.00000    1    1
C      -1.428519105     -0.729933009     -0.588671562
C       0.045718694     -0.778747129     -0.952149522
H      -1.901274223      0.305787004     -0.267697182
H      -2.354522373     -1.387840166     -0.588199936
H      -0.153945169      0.381566589     -0.623705373
H       0.597035174     -1.612278313     -0.450189493
           6
  t=        31.50000    1    1
C      -1.439141524     -0.742940899     -0.590381308
C       0.026058035     -0.791212146     -0.960759739
H      -1.922380431      0.265685413     -0.326747641
H      -2.317246723     -1.371866249     -0.653273583
H      -0.133331966      0.358407529     -0.670153736
H       0.571273288     -1.611287254     -0.506470367
           6
  t=        32.00000    1    1
C      -1.449495736     -0.755895037     -0.592532312
C       0.004518853     -0.802562690     -0.968371275
H      -1.940507509      0.222736013     -0.387897892
H      -2.278911110     -1.360297435     -0.717147371
H      -0.099556515      0.328305536     -0.719828217
H       0.547498080     -1.610020525     -0.565267262
           6
  t=        32.50000    1    1
C      -1.459256084     -0.768702360     -0.595215381
C      -0.018964487     -0.812719086     -0.975101039
H      -1.955910737      0.179134010     -0.450191080
H      -2.243410971     -1.356382934     -0.779827386
H      -0.053287400      0.292329064     -0.772134314
H       0.527430477     -1.610550876     -0.625650362
           6
  t=        33.00000    1    1
C      -1.468080345     -0.781280779     -0.598468616
C      -0.044368070     -0.821696386     -0.981086331
H      -1.969139528      0.137695160     -0.512745563
H      -2.214475102     -1.363357938     -0.841727929
H       0.003862052      0.252295142     -0.826154857
H       0.512599265     -1.615074702     -0.686914178
           6
  t=        33.50000    1    1
C      -1.475733638     -0.793644129     -0.602294714
C      -0.071593366     -0.829621837     -0.986423210
H      -1.981198745      0.101462207     -0.574802699
H      -2.194296374     -1.383436613     -0.903427638
H       0.070247322      0.210794919     -0.881075846
H       0.503873872     -1.625330623     -0.748875950
           6
  t=        34.00000    1    1
C      -1.482180750     -0.805912952     -0.606691911
C      -0.100462549     -0.836750624     -0.991160578
H      -1.993385473      0.072840066     -0.635896781
H      -2.182486659     -1.416734260     -0.965086319
H       0.144462365      0.170591173     -0.936318657
H       0.501030776     -1.641894024     -0.811858535
           6
  t=        34.50000    1    1
C      -1.487613000     -0.818265056     -0.611696959
C      -0.130680145     -0.843372438     -0.995323798
H      -2.006644928      0.053017179     -0.695829774
H      -2.176651292     -1.461428278     -1.025970205
H       0.225242361      0.133418251     -0.991554908
H       0.502644287     -1.663939701     -0.876381975
           6
  t=        35.00000    1    1
C      -1.492397006     -0.830854723     -0.617389382
C      -0.161765766     -0.849699212     -0.998960656
H      -2.021169488      0.041751461     -0.754521130
H      -2.173726492     -1.514640511     -1.084536064
H       0.310834996      0.099216820     -1.046519483
H       0.506239685     -1.689680688     -0.942818182
           6
  t=        35.50000    1    1
C      -1.496966531     -0.843751827     -0.623877621
C      -0.193069213     -0.855837674     -1.002172336
H      -2.036524961      0.037639341     -0.811743492
H      -2.171014216     -1.573320545     -1.138970443
H       0.398429077      0.066432707     -1.100769343
H       0.508916917     -1.717105356     -1.011153161
           6
  t=        36.00000    1    1
C      -1.501791995     -0.856945636     -0.631273140
C      -0.223841099     -0.861838669     -1.005123166
H      -2.051875960      0.038571080     -0.866965831
H      -2.166480398     -1.634702969     -1.187627776
H       0.484535388      0.033080187     -1.153633094
H       0.507971694     -1.744405651     -1.080948678
           6
  t=        36.50000    1    1
C      -1.507343705     -0.870367962     -0.639674642
C      -0.253322143     -0.867769536     -1.008029010
H      -2.066365346      0.042152872     -0.919291226
H      -2.158722216     -1.696358630     -1.229273496
H       0.565619191     -0.002393724     -1.204347839
H       0.501235452     -1.770074056     -1.151350818
           6
  t=        37.00000    1    1
C      -1.514022959     -0.883924576     -0.649152791
C      -0.280846103     -0.873738219     -1.011131166
H      -2.079467046      0.046138173     -0.967627978
H      -2.146965079     -1.756221001     -1.263184913
H       0.638668094     -0.040782330     -1.252189023
H       0.487262936     -1.792973828     -1.221181306
           6
  t=        37.50000    1    1
C      -1.522123020     -0.897525773     -0.659732774
C      -0.305909882     -0.879872740     -1.014666638
H      -2.090921925      0.048911539     -1.010939684
H      -2.131023832     -1.812875591     -1.289186678
H       0.701467018     -0.082222879     -1.296558808
H       0.465324630     -1.812310201     -1.289125559
           6
  t=        38.00000    1    1
C      -1.531849934     -0.911103387     -0.671376158
C      -0.328158120     -0.886282225     -1.018849577
H      -2.100559378      0.049348976     -1.048560720
H      -2.111183175     -1.865424002     -1.307515606
H       0.752517892     -0.126517498     -1.336971195
H       0.435253515     -1.827567380     -1.354004560
           6
  t=        38.50000    1    1
C      -1.543312268     -0.924626773     -0.684018351
C      -0.347402361     -0.893035546     -1.023859762
H      -2.108261989      0.046612657     -1.080357158
H      -2.088010063     -1.913240831     -1.318300905
H       0.791129585     -0.173234777     -1.372788622
H       0.397238321     -1.838508851     -1.415088058
           6
  t=        39.00000    1    1
C      -1.556568689     -0.938075289     -0.697614526
C      -0.363525843     -0.900195489     -1.029849940
H      -2.114029834      0.040104019     -1.106165201
H      -2.062223014     -1.955880033     -1.321638407
H       0.816956151     -0.221672855     -1.403430357
H       0.351651376     -1.845181776     -1.471738841
           6
  t=        39.50000    1    1
C      -1.571615470     -0.951442725     -0.712131626
C      -0.376460728     -0.907810917     -1.036949241
H      -2.118003089      0.029363181     -1.125834203
H      -2.034637708     -1.992888858     -1.317683177
H       0.829670014     -0.271043868     -1.428368254
H       0.298923343     -1.847858659     -1.523335833
           6
  t=        40.00000    1    1
C      -1.588367389     -0.964749794     -0.727544357
C      -0.386208769     -0.915906572     -1.045253051
H      -2.120484005      0.014082958     -1.139371344
H      -2.006092354     -2.023744656     -1.306598968
H       0.828994089     -0.320602446     -1.447075138
H       0.239477175     -1.846958691     -1.569400108
           6
  t=        40.50000    1    1
C      -1.606663351     -0.978027534     -0.743823000
C      -0.392868570     -0.924495008     -1.054824471
H      -2.121964367     -0.005725839     -1.146851112
H      -1.977336778     -2.048021385     -1.288699075
H       0.814832619     -0.369613648     -1.459123984
H       0.173905631     -1.843134272     -1.609573110
           6
  t=        41.00000    1    1
C      -1.626261460     -0.991333490     -0.760928593
C      -0.396634598     -0.933560763     -1.065673556
H      -2.123169946     -0.029710594     -1.148595032
H      -1.949163093     -2.065364839     -1.264356630
H       0.787350293     -0.417448620     -1.464173235
H       0.102996754     -1.837219598     -1.643846213
           6
  t=        41.50000    1    1
C      -1.646847168     -1.004702613     -0.778795802
C      -0.397821920     -0.943089281     -1.077767299
H      -2.125101337     -0.057113999     -1.144885678
H      -1.922477120     -2.075805309     -1.234372090
H       0.747188585     -0.463329848     -1.462225638
H       0.028021678     -1.830476183     -1.672305427
           6
  t=        42.00000    1    1
C      -1.668040703     -1.018151941     -0.797339565
C      -0.396824867     -0.953055662     -1.091032063
H      -2.128960097     -0.086910293     -1.136090250
H      -1.898383086     -2.079801727     -1.199772081
H       0.695423082     -0.506340080     -1.453432136
H      -0.049615945     -1.824481821     -1.695296976
           6
  t=        42.50000    1    1
C      -1.689418769     -1.031677363     -0.816437775
C      -0.394123811     -0.963438139     -1.105337737
H      -2.136149907     -0.117644599     -1.122775727
H      -1.878341501     -2.078435365     -1.161747403
H       0.633815780     -0.545364280     -1.438232340
H      -0.128133798     -1.821033460     -1.713628831
           6
  t=        43.00000    1    1
C      -1.710533132     -1.045252689     -0.835936455
C      -0.390338185     -0.974259187     -1.120480136
H      -2.148289995     -0.147238587     -1.105701319
H      -1.864319625     -2.073627985     -1.121401287
H       0.565633914     -0.578761517     -1.417607829
H      -0.205172685     -1.821972902     -1.728724715
           6
  t=        43.50000    1    1
C      -1.730948126     -1.058811569     -0.855678782
C      -0.386260357     -0.985633491     -1.136184462
H      -2.167089240     -0.173153426     -1.085610480
H      -1.857865209     -2.068064965     -1.079748252
H       0.496262744     -0.604147833     -1.393269677
H      -0.278610871     -1.828961602     -1.742258621
           6
  t=        44.00000    1    1
C      -1.750285610     -1.072217744     -0.875535147
C      -0.382897407     -0.997835290     -1.152131019
H      -2.194070937     -0.193106000     -1.062962595
H      -1.859640909     -2.064748672     -1.037760743
H       0.433874049     -0.617959811     -1.367764171
H      -0.346939987     -1.843199584     -1.755606218
           6
  t=        44.50000    1    1
C      -1.768234924     -1.085245575     -0.895423960
C      -0.381447772     -1.011319825     -1.168023291
H      -2.230165986     -0.205842471     -1.037851486
H      -1.869939912     -2.066801238     -0.996150439
H       0.389083791     -0.615279816     -1.343983011
H      -0.408973418     -1.865000353     -1.769575691
           6
  t=        45.00000    1    1
C      -1.784605618     -1.097608036     -0.915339925
C      -0.382892759     -1.026566035     -1.183728984
H      -2.275210145     -0.211731766     -1.010004810
H      -1.888781480     -2.076846710     -0.955081382
H       0.370294411     -0.591624244     -1.323590742
H      -0.463834998     -1.893567761     -1.784250278
           6
  t=        45.50000    1    1
C      -1.799360567     -1.109040824     -0.935339480
C      -0.387503783     -1.043772954     -1.199315207
H      -2.327889145     -0.212630081     -0.979023545
H      -1.915847848     -2.096134161     -0.914227955
H       0.378113543     -0.546006447     -1.306147303
H      -0.510972690     -1.927560894     -1.799322528
           6
  t=        46.00000    1    1
C      -1.812641676     -1.119393667     -0.955467675
C      -0.394777431     -1.062679539     -1.214956774
H      -2.385880358     -0.211384868     -0.944750088
H      -1.950285627     -2.123752237     -0.873170597
H       0.404563219     -0.482980380     -1.290033908
H      -0.549892120     -1.965390819     -1.814368567
           6
  t=        46.50000    1    1
C      -1.824722433     -1.128667929     -0.975692639
C      -0.403884573     -1.082728828     -1.230814810
H      -2.446354356     -0.211060715     -0.907454582
H      -1.990909899     -2.156846329     -0.831867008
H       0.438221592     -0.410869637     -1.274104257
H      -0.579806650     -2.005144267     -1.828766695
           6
  t=        47.00000    1    1
C      -1.835900535     -1.136988117     -0.995896715
C      -0.414181314     -1.103390122     -1.246958967
H      -2.506689051     -0.214107934     -0.867833657
H      -2.036610349     -2.191820956     -0.790747252
H       0.470432135     -0.337233405     -1.258218688
H      -0.599917353     -2.045247294     -1.842101888
           6
  t=        47.50000    1    1
C      -1.846469127     -1.144531881     -1.015912327
C      -0.425294241     -1.124294782     -1.263383747
H      -2.564693235     -0.222177081     -0.826815917
H      -2.086291668     -2.225329026     -0.750641730
H       0.496353643     -0.267287115     -1.242918073
H      -0.609625995     -2.084456740     -1.854136584
           6
  t=        48.00000    1    1
C      -1.856726167     -1.151470394     -1.035555007
C      -0.437002847     -1.145207621     -1.280047107
H      -2.618515642     -0.236278124     -0.785396883
H      -2.138515976     -2.254642163     -0.712775081
H       0.513413369     -0.204523159     -1.228982107
H      -0.608726057     -2.121761404     -1.864569937
           6
  t=        48.50000    1    1
C      -1.866958490     -1.157968099     -1.054652343
C      -0.449157631     -1.165960107     -1.296874580
H      -2.666746523     -0.256705096     -0.744578434
H      -2.191581560     -2.277837275     -0.678462852
H       0.520417779     -0.151256650     -1.217174505
H      -0.597499056     -2.156523966     -1.873262547
           6
  t=        49.00000    1    1
C      -1.877373008     -1.164197883     -1.073034578
C      -0.461680313     -1.186395258     -1.313774630
H      -2.708223441     -0.283419910     -0.705539262
H      -2.243956460     -2.293513142     -0.648878887
H       0.516792025     -0.109271881     -1.208143206
H      -0.576531823     -2.188209905     -1.880327431
           6
  t=        49.50000    1    1
C      -1.888087575     -1.170336672     -1.090567102
C      -0.474570576     -1.206394370     -1.330668042
H      -2.742096148     -0.316037107     -0.669437299
H      -2.294425703     -2.300961805     -0.624895577
H       0.502874111     -0.079371502     -1.202262015
H      -0.546827043     -2.216416250     -1.885908314
           6
  t=        50.00000    1    1
C      -1.899171506     -1.176532465     -1.107146723
C      -0.487876899     -1.225883003     -1.347502011
H      -2.767662609     -0.353962320     -0.637233631
H      -2.342145270     -2.300047685     -0.607164989
H       0.479431407     -0.061666995     -1.199715100
H      -0.509294520     -2.240884941     -1.890066684
           6
  t=        50.50000    1    1
C      -1.910659985     -1.182909318     -1.122695213
C      -0.501647280     -1.244805039     -1.364241894
H      -2.784354847     -0.396431613     -0.609708954
H      -2.386495129     -2.291059992     -0.596247975
H       0.447228378     -0.055994091     -1.200589995
H      -0.464895580     -2.261445469     -1.892718389
           6
  t=        51.00000    1    1
C      -1.922559039     -1.189583610     -1.137150819
C      -0.515908590     -1.263101125     -1.380864028
H      -2.791736439     -0.442566610     -0.587511097
H      -2.426928103     -2.274490028     -0.592707244
H       0.406815881     -0.062230762     -1.204937544
H      -0.414772673     -2.277927399     -1.893619862
           6
  t=        51.50000    1    1
C      -1.934857685     -1.196666183     -1.150462893
C      -0.530656756     -1.280700763     -1.397351267
H      -2.789587439     -0.491238032     -0.571150586
H      -2.462951815     -2.251058581     -0.597052126
H       0.358486790     -0.080421623     -1.212789384
H      -0.360110415     -2.290213918     -1.892527388
           6
  t=        52.00000    1    1
C      -1.947536202     -1.204261441     -1.162593835
C      -0.545856528     -1.297524023     -1.413690139
H      -2.777963316     -0.540938108     -0.560950850
H      -2.494169784     -2.221805437     -0.609689736
H       0.302337248     -0.110760441     -1.224168555
H      -0.302000955     -2.298287595     -1.889295969
           6
  t=        52.50000    1    1
C      -1.960567138     -1.212474414     -1.173528021
C      -0.561433572     -1.313492631     -1.429871988
H      -2.757227832     -0.590063867     -0.556952513
H      -2.520373953     -2.187807226     -0.630946447
H       0.238437081     -0.153438447     -1.239110687
H      -0.241571267     -2.302164741     -1.883812290
           6
  t=        53.00000    1    1
C      -1.973875739     -1.221396804     -1.183316293
C      -0.577284483     -1.328561194     -1.445890140
H      -2.728391826     -0.636707378     -0.558578813
H      -2.541744870     -2.150615578     -0.660944084
H       0.167189302     -0.208151497     -1.257672728
H      -0.180155851     -2.301953983     -1.875948018
           6
  t=        53.50000    1    1
C      -1.987332999     -1.231119603     -1.192069904
C      -0.593313629     -1.342713604     -1.461737073
H      -2.692994133     -0.678422905     -0.564674151
H      -2.558820497     -2.112420965     -0.699624354
H       0.089416328     -0.274129470     -1.279920447
H      -0.119177081     -2.297788429     -1.865615275
           6
  t=        54.00000    1    1
C      -2.000712238     -1.241726286     -1.199995365
C      -0.609484004     -1.356004072     -1.477405029
H      -2.653133660     -0.712407743     -0.573340140
H      -2.572675962     -2.075902297     -0.746558599
H       0.006609327     -0.349581309     -1.305756395
H      -0.060094049     -2.289942296     -1.852870281
           6
  t=        54.50000    1    1
C      -2.013711358     -1.253280735     -1.207390956
C      -0.625806093     -1.368593557     -1.492896252
H      -2.611295761     -0.735384583     -0.581941630
H      -2.584996235     -2.044353645     -0.800935939
H      -0.079118314     -0.431480598     -1.334824389
H      -0.004324582     -2.278746112     -1.837934289
           6
  t=        55.00000    1    1
C      -2.025919961     -1.265785674     -1.214626181
C      -0.642437645     -1.380845930     -1.508207590
H      -2.569796558     -0.744054538     -0.587250989
H      -2.598388554     -2.021669873     -0.861819046
H      -0.164626609     -0.514628540     -1.366638910
H       0.046904175     -2.264434451     -1.821092459
           6
  t=        55.50000    1    1
C      -2.036799071     -1.279096071     -1.222118402
C      -0.659841896     -1.393559681     -1.523341353
H      -2.530537413     -0.736228033     -0.586576835
H      -2.615980675     -2.011832963     -0.927566506
H      -0.244714626     -0.589469949     -1.399861128
H       0.092517951     -2.246983740     -1.803015724
           6
  t=        56.00000    1    1
C      -2.046032584     -1.292970557     -1.230156425
C      -0.678517989     -1.407932799     -1.538448965
H      -2.494676811     -0.711234813     -0.579456395
H      -2.640262087     -2.018106097     -0.995600239
H      -0.312138992     -0.642175326     -1.431215322
H       0.131102364     -2.226231748     -1.784775057
           6
  t=        56.50000    1    1
C      -2.053745379     -1.307216957     -1.238724196
C      -0.698729507     -1.424997179     -1.553709926
H      -2.461604064     -0.671137962     -0.567352921
H      -2.672547469     -2.040819957     -1.064517178
H      -0.360624409     -0.659989886     -1.458005419
H       0.161714895     -2.202533648     -1.767058748
           6
  t=        57.00000    1    1
C      -2.060321091     -1.321749748     -1.247586878
C      -0.720316004     -1.445013484     -1.569180384
H      -2.429754644     -0.620114518     -0.553202479
H      -2.712244251     -2.077152216     -1.133952190
H      -0.388983414     -0.638760418     -1.479390941
H       0.183670435     -2.176601064     -1.750265541
           6
  t=        57.50000    1    1
C      -2.066252866     -1.336582808     -1.256427642
C      -0.742723668     -1.467247797     -1.584761528
H      -2.397499296     -0.563098810     -0.540353014
H      -2.757066211     -2.122321342     -1.204115833
H      -0.401594104     -0.585907211     -1.496518858
H       0.196708733     -2.149440655     -1.734642577
           6
  t=        58.00000    1    1
C      -2.072019638     -1.351762510     -1.265000082
C      -0.765266561     -1.490380267     -1.600292999
H      -2.363968634     -0.504549478     -0.531591793
H      -2.803858391     -2.171266080     -1.274935490
H      -0.405239408     -0.516192030     -1.511238848
H       0.201121754     -2.122067590     -1.720472461
           6
  t=        58.50000    1    1
C      -2.077994687     -1.367313857     -1.273160016
C      -0.787408572     -1.513320870     -1.615673737
H      -2.329269738     -0.448121086     -0.528936387
H      -2.849728955     -2.219663604     -1.345747615
H      -0.405129812     -0.442068425     -1.524801706
H       0.197395020     -2.095387063     -1.708072560
           6
  t=        59.00000    1    1
C      -2.084436399     -1.383217014     -1.280844107
C      -0.808826088     -1.535387024     -1.630855160
H      -2.293955764     -0.396698487     -0.533653845
H      -2.892539348     -2.264363993     -1.415641686
H      -0.404334120     -0.371403611     -1.537946409
H       0.186234698     -2.070166689     -1.697680965
           6
  t=        59.50000    1    1
C      -2.091505170     -1.399432187     -1.288050598
C      -0.829383896     -1.556214180     -1.645808286
H      -2.258840963     -0.352559010     -0.546402962
H      -2.930743458     -2.303071610     -1.483647111
H      -0.404301657     -0.308284835     -1.551157477
H       0.168658320     -2.047155522     -1.689491234
           6
  t=        60.00000    1    1
C      -2.099296432     -1.415898447     -1.294823338
C      -0.849058318     -1.575645497     -1.660523887
H      -2.224939483     -0.317183656     -0.567108276
H      -2.963340551     -2.334333720     -1.548912711
H      -0.405637889     -0.254520853     -1.564833010
H       0.146139773     -2.027111460     -1.683619369
           6
  t=        60.50000    1    1
C      -2.107863707     -1.432517440     -1.301220611
C      -0.867880630     -1.593612100     -1.675010520
H      -2.193468013     -0.291702071     -0.595402425
H      -2.989640637     -2.357271611     -1.610618173
H      -0.408580656     -0.211091782     -1.579272101
H       0.120454009     -2.010796058     -1.680157501
           6
  t=        61.00000    1    1
C      -2.117221055     -1.449164444     -1.307320299
C      -0.885935181     -1.610125703     -1.689299174
H      -2.165553616     -0.276748804     -0.630527089
H      -3.009443625     -2.371721055     -1.668087589
H      -0.413101957     -0.178194190     -1.594686300
H       0.093672624     -1.998889022     -1.679031033
           6
  t=        61.50000    1    1
C      -2.127390238     -1.465722046     -1.313210463
C      -0.903308604     -1.625180770     -1.703414152
H      -2.142254748     -0.272952236     -0.671787297
H      -3.022682532     -2.377703958     -1.720579834
H      -0.418984287     -0.155973898     -1.611222770
H       0.067861179     -1.992059256     -1.680190014
           6
  t=        62.00000    1    1
C      -2.138399088     -1.482097964     -1.318988543
C      -0.920079821     -1.638768161     -1.717366272
H      -2.124529512     -0.280876667     -0.718553905
H      -3.029356196     -2.375286942     -1.767331635
H      -0.425874225     -0.144424479     -1.628980003
H       0.044895250     -1.990890763     -1.683638389
           6
  t=        62.50000    1    1
C      -2.150270620     -1.498223728     -1.324757409
C      -0.936297619     -1.650900225     -1.731157534
H      -2.113182811     -0.300862951     -0.770223730
H      -3.029570929     -2.364652592     -1.807634513
H      -0.433381115     -0.143281768     -1.647962537
H       0.026150937     -1.995793009     -1.689433694
           6
  t=        63.00000    1    1
C      -2.163012610     -1.514053934     -1.330621089
C      -0.951956149     -1.661619799     -1.744784801
H      -2.108767678     -0.332857481     -0.826206289
H      -3.023598179     -2.346201443     -1.840908654
H      -0.441213055     -0.152071914     -1.668025411
H       0.012183803     -2.006923496     -1.697689013
           6
  t=        63.50000    1    1
C      -2.176609066     -1.529561435     -1.336677820
C      -0.966982311     -1.670994814     -1.758240811
H      -2.111614760     -0.376389847     -0.885919483
H      -3.011903798     -2.320552791     -1.866749681
H      -0.449264257     -0.170275931     -1.688903343
H       0.002622971     -2.024166349     -1.708572042
           6
  t=        64.00000    1    1
C      -2.191004320     -1.544740537     -1.343021885
C      -0.981245402     -1.679105690     -1.771510072
H      -2.121941687     -0.430432554     -0.948661021
H      -2.995247314     -2.288585404     -1.885001345
H      -0.457629118     -0.197521036     -1.710304304
H      -0.003680754     -2.047152673     -1.722294535
           6
  t=        64.50000    1    1
C      -2.206082487     -1.559637183     -1.349757547
C      -0.994587805     -1.686021089     -1.784558733
H      -2.139821407     -0.492898982     -1.013355287
H      -2.974909610     -2.251644114     -1.895904497
H      -0.466589499     -0.233735487     -1.732002731
H      -0.008350648     -2.075330405     -1.739077797
           6
  t=        65.00000    1    1
C      -2.221660690     -1.574397785     -1.356999116
C      -1.006841410     -1.691770587     -1.797338681
H      -2.165054056     -0.559943629     -1.078380661
H      -2.952930352     -2.211743615     -1.900272805
H      -0.476682436     -0.279228487     -1.753872021
H      -0.013192083     -2.108124135     -1.759067608
           6
  t=        65.50000    1    1
C      -2.237493608     -1.589283855     -1.364833426
C      -1.017820520     -1.696365300     -1.809818723
H      -2.197274188     -0.625549101     -1.141637377
H      -2.932221390     -2.171674648     -1.899650636
H      -0.488670588     -0.334459959     -1.775829770
H      -0.020031902     -2.145052036     -1.782238772
           6
  t=        66.00000    1    1
C      -2.253244918     -1.604676588     -1.373269942
C      -1.027330565     -1.699809688     -1.822003867
H      -2.236348706     -0.681217143     -1.200745776
H      -2.916643909     -2.135110141     -1.896535484
H      -0.503445808     -0.399911583     -1.797794004
H      -0.030576112     -2.185862415     -1.808382958
           6
  t=        66.50000    1    1
C      -2.268484410     -1.620995310     -1.382201003
C      -1.035232093     -1.702128048     -1.833915189
H      -2.282517990     -0.717618612     -1.253975906
H      -2.910492042     -2.106021310     -1.894139029
H      -0.521884891     -0.475799976     -1.819588811
H      -0.046201286     -2.230410533     -1.837226086
           6
  t=        67.00000    1    1
C      -2.282766493     -1.638390421     -1.391392811
C      -1.041495344     -1.703399035     -1.845560488
H      -2.335976793     -0.729006106     -1.301133815
H      -2.918120780     -2.088295428     -1.895843726
H      -0.544338007     -0.561596479     -1.840922224
H      -0.067671662     -2.278355825     -1.868564540
           6
  t=        67.50000    1    1
C      -2.295764218     -1.656553983     -1.400579519
C      -1.046202701     -1.703798380     -1.856939662
H      -2.396466893     -0.716516289     -1.343421546
H      -2.942892495     -2.084758033     -1.904135497
H      -0.570278301     -0.655498613     -1.861425249
H      -0.095324099     -2.329113891     -1.902248319
           6
  t=        68.00000    1    1
C      -2.307446593     -1.674897959     -1.409643510
C      -1.049555415     -1.703689713     -1.868059405
H      -2.462802215     -0.686762455     -1.382242370
H      -2.985485305     -2.096173352     -1.919437862
H      -0.598040800     -0.753565397     -1.880788549
H      -0.129302784     -2.381922154     -1.938081682
           6
  t=        68.50000    1    1
C      -2.318129570     -1.692874808     -1.418717723
C      -1.051929209     -1.703760455     -1.878923790
H      -2.533086678     -0.648029199     -1.418465637
H      -3.042880264     -2.120911643     -1.939618151
H      -0.624238466     -0.848254207     -1.898855290
H      -0.169667998     -2.436001637     -1.975852208
           6
  t=        69.00000    1    1
C      -2.328304308     -1.710121170     -1.428083586
C      -1.053944065     -1.705116655     -1.889527999
H      -2.605244360     -0.607449562     -1.452374687
H      -3.109799107     -2.155973598     -1.961273988
H      -0.643022862     -0.927414404     -1.915753629
H      -0.216382371     -2.490519593     -2.015254765
           6
  t=        69.50000    1    1
C      -2.338502612     -1.726422066     -1.438037363
C      -1.056401162     -1.709149690     -1.899862054
H      -2.677453148     -0.570393445     -1.484073843
H      -3.180371597     -2.198068039     -1.980873443
H      -0.646281263     -0.975880731     -1.931765710
H      -0.269367603     -2.544544989     -2.056023526
           6
  t=        70.00000    1    1
C      -2.349177757     -1.741660304     -1.448808700
C      -1.059936545     -1.716766214     -1.909925081
H      -2.748169032     -0.540592655     -1.513500910
H      -3.249339608     -2.244214002     -1.995718352
H      -0.628154438     -0.984538775     -1.947275015
H      -0.328305033     -2.597034405     -2.097809409
           6
  t=        70.50000    1    1
C      -2.360639891     -1.755758443     -1.460553790
C      -1.064675180     -1.727834649     -1.919747579
H      -2.815838473     -0.520315954     -1.540272983
H      -3.312787620     -2.292361658     -2.004340850
H      -0.589577772     -0.956551110     -1.962423108
H      -0.392543701     -2.647096954     -2.140097054
           6
  t=        71.00000    1    1
C      -2.373095842     -1.768691377     -1.473351009
C      -1.070239308     -1.741345345     -1.929401187
H      -2.879041415     -0.510836922     -1.564020203
H      -3.367922228     -2.341083978     -2.006151389
H      -0.537615380     -0.905225606     -1.976926878
H      -0.461269676     -2.693908021     -2.182341440
           6
  t=        71.50000    1    1
C      -2.386692642     -1.780483749     -1.487222116
C      -1.076141857     -1.756206196     -1.938965064
H      -2.936859352     -0.512774533     -1.584531301
H      -3.412869889     -2.389227113     -2.000982873
H      -0.480006964     -0.844688327     -1.990427114
H      -0.533587141     -2.736595943     -2.224077649
           6
  t=        72.00000    1    1
C      -2.401500882     -1.791161907     -1.502168405
C      -1.082075791     -1.771651136     -1.948493207
H      -2.988537149     -0.526542192     -1.601647527
H      -3.446284813     -2.435703023     -1.988954754
H      -0.422786967     -0.785007931     -2.002709570
H      -0.608379955     -2.774580987     -2.264900371
           6
  t=        72.50000    1    1
C      -2.417507000     -1.800751837     -1.518171502
C      -1.087951200     -1.787235845     -1.958012524
H      -3.033459581     -0.552322588     -1.615220525
H      -3.467417935     -2.479555527     -1.970493891
H      -0.369894179     -0.732241647     -2.013765611
H      -0.684306565     -2.807564097     -2.304438076
           6
  t=        73.00000    1    1
C      -2.434663534     -1.809279762     -1.535196818
C      -1.093805334     -1.802740931     -1.967543352
H      -3.071300283     -0.589981701     -1.625148366
H      -3.475906693     -2.520028531     -1.946114004
H      -0.323573028     -0.689799754     -2.023636209
H      -0.759933161     -2.835326885     -2.342407820
           6
  t=        73.50000    1    1
C      -2.452860434     -1.816797886     -1.553174119
C      -1.099734900     -1.818040570     -1.977106044
H      -3.102031300     -0.638948433     -1.631497631
H      -3.471901912     -2.556576234     -1.916506637
H      -0.285244235     -0.659731164     -2.032351412
H      -0.833875146     -2.857814525     -2.378615790
           6
  t=        74.00000    1    1
C      -2.471949335     -1.823384384     -1.572003334
C      -1.105854865     -1.833050699     -1.986710554
H      -3.125782158     -0.698232747     -1.634466983
H      -3.455986136     -2.588992976     -1.882534475
H      -0.255759639     -0.643155780     -2.039998518
H      -0.904966553     -2.875173009     -2.412987142
           6
  t=        74.50000    1    1
C      -2.491754419     -1.829134360     -1.591581353
C      -1.112310668     -1.847732374     -1.996348456
H      -3.142802748     -0.766530508     -1.634303073
H      -3.428899456     -2.617350109     -1.845104717
H      -0.235407560     -0.640346906     -2.046731035
H      -0.972291071     -2.887692611     -2.445543544
           6
  t=        75.00000    1    1
C      -2.512050706     -1.834161974     -1.611799403
C      -1.119247152     -1.862065715     -2.006006369
H      -3.153721972     -0.841985314     -1.631265863
H      -3.391654569     -2.642033747     -1.805170662
H      -0.224322475     -0.651299330     -2.052717994
H      -1.035027518     -2.895725455     -2.476358266
           6
  t=        75.50000    1    1
C      -2.532540914     -1.838623990     -1.632544401
C      -1.126781235     -1.876021397     -2.015670421
H      -3.159844182     -0.921809676     -1.625612072
H      -3.345702539     -2.663831830     -1.763674235
H      -0.222747281     -0.676092975     -2.058128142
H      -1.092326743     -2.899672599     -2.505576669
           6
  t=        76.00000    1    1
C      -2.552836183     -1.842746247     -1.653711883
C      -1.134993876     -1.889542627     -2.025331846
H      -3.163413035     -1.001948626     -1.617480874
H      -3.292922325     -2.684029301     -1.721490214
H      -0.231131703     -0.715068368     -2.063141176
H      -1.143285242     -2.899949273     -2.533354280
           6
  t=        76.50000    1    1
C      -2.572423642     -1.846876894     -1.675231578
C      -1.143926171     -1.902550243     -2.034989968
H      -3.168102625     -1.076658724     -1.606696732
H      -3.235547281     -2.704395211     -1.679371008
H      -0.249941198     -0.768566828     -2.067969539
H      -1.187151629     -2.896983382     -2.559747219
           6
  t=        77.00000    1    1
C      -2.590704414     -1.851455575     -1.697103856
C      -1.153594193     -1.914971734     -2.044647037
H      -3.178900559     -1.139036528     -1.592462897
H      -3.175794962     -2.726999726     -1.637877774
H      -0.279412700     -0.836550191     -2.072872000
H      -1.223428317     -2.891271729     -2.584701050
           6
  t=        77.50000    1    1
C      -2.607106566     -1.856903535     -1.719399677
C      -1.164034536     -1.926797927     -2.054302266
H      -3.200991757     -1.182653267     -1.573291837
H      -3.115630919     -2.753907088     -1.597444797
H      -0.318946286     -0.917748996     -2.078181465
H      -1.251943679     -2.883538179     -2.608099973
           6
  t=        78.00000    1    1
C      -2.621310150     -1.863422518     -1.742188960
C      -1.175321367     -1.938089596     -2.063952922
H      -3.237241162     -1.204644908     -1.547719558
H      -3.056545662     -2.786473539     -1.558446531
H      -0.366976329     -1.009592394     -2.084261097
H      -1.272836546     -2.874733287     -2.629869800
           6
  t=        78.50000    1    1
C      -2.633419614     -1.870893017     -1.765433555
C      -1.187539346     -1.948937132     -2.073597248
H      -3.286218472     -1.207417933     -1.515542357
H      -2.999284239     -2.824684022     -1.521221781
H      -0.421558201     -1.109068494     -2.091381909
H      -1.286483447     -2.865824475     -2.650079913
           6
  t=        79.00000    1    1
C      -2.643898848     -1.879023827     -1.788933053
C      -1.200829899     -1.959523930     -2.083240738
H      -3.343034368     -1.196822083     -1.478270728
H      -2.944033188     -2.867121910     -1.486225711
H      -0.479687697     -1.212149127     -2.099716344
H      -1.293378618     -2.857691408     -2.668914792
           6
  t=        79.50000    1    1
C      -2.653329232     -1.887556655     -1.812357019
C      -1.215546273     -1.970266561     -2.092891518
H      -3.401790999     -1.179357915     -1.438550224
H      -2.890944868     -2.911342082     -1.454226318
H      -0.535300586     -1.311852465     -2.109393206
H      -1.294195043     -2.851374504     -2.686672582
           6
  t=        80.00000    1    1
C      -2.662150945     -1.896362263     -1.835346622
C      -1.232446952     -1.981884838     -2.102550829
H      -3.457579179     -1.160333347     -1.399194286
H      -2.840527191     -2.954546354     -1.426138771
H      -0.577842534     -1.397564992     -2.120554293
H      -1.289605495     -2.847940442     -2.703743815
           6
  t=        80.50000    1    1
C      -2.670633211     -1.905435094     -1.857583498
C      -1.252534461     -1.995159006     -2.112227117
H      -3.506950524     -1.143028723     -1.362542682
H      -2.793468481     -2.994520558     -1.402926263
H      -0.594349097     -1.458060681     -2.133338187
H      -1.280180712     -2.848318141     -2.720379819
           6
  t=        81.00000    1    1
C      -2.678943296     -1.914823601     -1.878819328
C      -1.276263144     -2.010307371     -2.121939605
H      -3.547903337     -1.129142554     -1.330334130
H      -2.750364661     -3.029800861     -1.385367239
H      -0.578247820     -1.489300949     -2.147732668
H      -1.266492010     -2.853132885     -2.736805496
           6
  t=        81.50000    1    1
C      -2.687217022     -1.924582165     -1.898882466
C      -1.303131596     -2.026873077     -2.131735770
H      -3.579469625     -1.119683562     -1.303683961
H      -2.711930088     -3.059310643     -1.373933002
H      -0.533429199     -1.495671459     -2.163385405
H      -1.249258706     -2.862862689     -2.753266088
           6
  t=        82.00000    1    1
C      -2.695578099     -1.934747719     -1.917669459
C      -1.331865425     -2.044017035     -2.141694245
H      -3.601350767     -1.115327465     -1.283195709
H      -2.679009989     -3.082357444     -1.368864534
H      -0.472214820     -1.486616802     -2.179747148
H      -1.229323759     -2.877637931     -2.769762094
           6
  t=        82.50000    1    1
C      -2.704122279     -1.945333808     -1.935136627
C      -1.361200417     -2.061040638     -2.151924205
H      -3.613597060     -1.116563645     -1.269101928
H      -2.652358211     -3.098579260     -1.370155228
H      -0.406944863     -1.470556070     -2.196218276
H      -1.207465868     -2.897075090     -2.785886764
           6
  t=        83.00000    1    1
C      -2.712946296     -1.956329768     -1.951268857
C      -1.390266973     -2.077591436     -2.162559427
H      -3.616350750     -1.123733163     -1.261504997
H      -2.632410453     -3.107827685     -1.377578729
H      -0.345593806     -1.452598081     -2.212241932
H      -1.184341801     -2.920199458     -2.800906950
           6
  t=        83.50000    1    1
C      -2.722164356     -1.967706777     -1.966065170
C      -1.418512017     -2.093576004     -2.173723577
H      -3.609844096     -1.136944485     -1.260458588
H      -2.619319644     -3.110205368     -1.390808325
H      -0.292365365     -1.435321303     -2.227466670
H      -1.160592094     -2.945678122     -2.813985268
           6
  t=        84.00000    1    1
C      -2.731908242     -1.979428980     -1.979520879
C      -1.445517824     -2.109007870     -2.185516717
H      -3.594329146     -1.156150041     -1.266066521
H      -2.613153552     -3.106025293     -1.409535161
H      -0.249603065     -1.420071293     -2.241727115
H      -1.136960605     -2.972166134     -2.824355649
           6
  t=        84.50000    1    1
C      -2.742308452     -1.991449822     -1.991635626
C      -1.470947557     -2.123935064     -2.198018604
H      -3.570134947     -1.181177745     -1.278431769
H      -2.613878171     -3.095842375     -1.433423119
H      -0.218676114     -1.407644377     -2.254944765
H      -1.114241740     -2.998466766     -2.831383663
           6
  t=        85.00000    1    1
C      -2.753484914     -2.003713031     -2.002409400
C      -1.494549055     -2.138414127     -2.211293183
H      -3.537655308     -1.211803568     -1.297669820
H      -2.621458093     -3.080456476     -1.462060343
H      -0.200051624     -1.398402489     -2.267100394
H      -1.093185648     -3.023639054     -2.834623072
           6
  t=        85.50000    1    1
C      -2.765528435     -2.016147171     -2.011873917
C      -1.516135251     -2.152494440     -2.225386892
H      -3.497571848     -1.247587739     -1.323713458
H      -2.635841579     -3.061156663     -1.494795957
H      -0.193571597     -1.392471041     -2.278235699
H      -1.074467437     -3.046971075     -2.833819034
           6
  t=        86.00000    1    1
C      -2.778472706     -2.028672023     -2.020102107
C      -1.535522909     -2.166194880     -2.240343755
H      -3.451007679     -1.287718978     -1.356193699
H      -2.657125311     -3.039872744     -1.530673588
H      -0.199129467     -1.390005246     -2.288413786
H      -1.058755804     -3.067920043     -2.828840202
           6
  t=        86.50000    1    1
C      -2.792262934     -2.041209716     -2.027221480
C      -1.552536192     -2.179506221     -2.256205995
H      -3.399565502     -1.330937412     -1.394325125
H      -2.685582783     -3.019080875     -1.568458541
H      -0.216868705     -1.391198099     -2.297666165
H      -1.046779216     -3.086114480     -2.819652693
           6
  t=        87.00000    1    1
C      -2.806711404     -2.053720978     -2.033466258
C      -1.567050690     -2.192400974     -2.273001454
H      -3.345816317     -1.374628276     -1.436385068
H      -2.721414064     -3.002210977     -1.606663401
H      -0.247005384     -1.396171976     -2.305969950
H      -1.039269706     -3.101412355     -2.806366794
           6
  t=        87.50000    1    1
C      -2.821479395     -2.066272537     -2.039233596
C      -1.579008934     -2.204845776     -2.290735196
H      -3.293669583     -1.413837032     -1.478974604
H      -2.764688219     -2.993736542     -1.643715615
H      -0.289690619     -1.404942284     -2.313300314
H      -1.036818481     -3.113881756     -2.789186129
           6
  t=        88.00000    1    1
C      -2.836113091     -2.079118218     -2.045049357
C      -1.588421395     -2.216801484     -2.309375415
H      -3.247464740     -1.442223840     -1.517097094
H      -2.815835413     -2.997178673     -1.678435971
H      -0.345127564     -1.417525973     -2.319729708
H      -1.039735562     -3.123766382     -2.768327059
           6
  t=        88.50000    1    1
C      -2.850120921     -2.092690293     -2.051469181
C      -1.595398002     -2.228219953     -2.328830453
H      -3.211120835     -1.452839053     -1.545071196
H      -2.875424377     -3.014334708     -1.710384326
H      -0.413486014     -1.434055450     -2.325510609
H      -1.047910872     -3.131508995     -2.744129931
           6
  t=        89.00000    1    1
C      -2.863145125     -2.107425051     -2.058837788
C      -1.600121609     -2.239038539     -2.348959332
H      -3.186851371     -1.440460582     -1.559007540
H      -2.943842932     -3.044941782     -1.739977890
H      -0.494738294     -1.454779986     -2.331033273
H      -1.060854913     -3.137893062     -2.717248936
           6
  t=        89.50000    1    1
C      -2.875147051     -2.123491809     -2.067101256
C      -1.602832507     -2.249223571     -2.369595827
H      -3.174027220     -1.404871173     -1.559090496
H      -3.020861729     -3.086450528     -1.768266274
H      -0.588193675     -1.479695605     -2.336716606
H      -1.077714216     -3.144072846     -2.688654364
           6
  t=        90.00000    1    1
C      -2.886333401     -2.140717373     -2.075858944
C      -1.603878068     -2.258750647     -2.390541148
H      -3.169498670     -1.351732132     -1.549371299
H      -3.105818087     -3.134677142     -1.796776646
H      -0.692155874     -1.508009299     -2.343222190
H      -1.097395295     -3.151718374     -2.659248898
           6
  t=        90.50000    1    1
C      -2.896991210     -2.158774672     -2.084655412
C      -1.603745168     -2.267644330     -2.411586590
H      -3.169808218     -1.289715178     -1.535064439
H      -3.197488666     -3.184535497     -1.826624382
H      -0.803317276     -1.537651226     -2.351206080
H      -1.118664927     -3.162918444     -2.629960306
           6
  t=        91.00000    1    1
C      -2.907312664     -2.177326919     -2.093143194
C      -1.603201353     -2.276145991     -2.432556039
H      -3.172552457     -1.226277560     -1.520726928
H      -3.293760409     -3.231932535     -1.858360391
H      -0.916262762     -1.564579154     -2.360733724
H      -1.140018835     -3.179488067     -2.601854049
           6
  t=        91.50000    1    1
C      -2.917413266     -2.196106468     -2.101070970
C      -1.603235326     -2.284878662     -2.453404250
H      -3.176626329     -1.167196539     -1.510068508
H      -3.391778706     -3.273162005     -1.891940556
H      -1.023090310     -1.581856867     -2.370598482
H      -1.160161380     -3.202057779     -2.576004915
           6
  t=        92.00000    1    1
C      -2.927373146     -2.214939500     -2.108309100
C      -1.604846020     -2.294815395     -2.474163876
H      -3.181610634     -1.116270563     -1.505337863
H      -3.489132759     -3.305709884     -1.927267720
H      -1.114650686     -1.579115739     -2.379229006
H      -1.178213990     -3.230188375     -2.552988390
           6
  t=        92.50000    1    1
C      -2.937228880     -2.233720984     -2.114829356
C      -1.608676174     -2.306879870     -2.494886241
H      -3.187442820     -1.075901241     -1.507625845
H      -3.583884590     -3.327979018     -1.964220855
H      -1.185325931     -1.546819012     -2.385196733
H      -1.193700697     -3.262857409     -2.532988017
           6
  t=        93.00000    1    1
C      -2.947057374     -2.252381650     -2.120642513
C      -1.614660865     -2.321254185     -2.515570574
H      -3.194143736     -1.047840906     -1.517443710
H      -3.674271224     -3.338858765     -2.002605430
H      -1.236844651     -1.484554889     -2.388187249
H      -1.206492216     -3.298490574     -2.515882256
           6
  t=        93.50000    1    1
C      -2.956971221     -2.270858071     -2.125792105
C      -1.622282518     -2.337212555     -2.536098789
H      -3.201731692     -1.033156608     -1.534870960
H      -3.758689665     -3.337897990     -2.042140162
H      -1.275665842     -1.403169986     -2.389515027
H      -1.216539870     -3.335029310     -2.501446759
           6
  t=        94.00000    1    1
C      -2.967093924     -2.289084329     -2.130361532
C      -1.631049527     -2.353796444     -2.556308903
H      -3.210238089     -1.032239671     -1.559600302
H      -3.835835181     -3.325346195     -2.082403715
H      -1.307373899     -1.315685794     -2.390974816
H      -1.223918792     -3.371018386     -2.489551807
           6
  t=        94.50000    1    1
C      -2.977545967     -2.306984590     -2.134478545
C      -1.640667608     -2.370288282     -2.576054078
H      -3.219710886     -1.045105831     -1.591047660
H      -3.904604959     -3.302002944     -2.122810888
H      -1.334837018     -1.231941704     -2.394001259
H      -1.228886581     -3.405257029     -2.480159437
           6
  t=        95.00000    1    1
C      -2.988444403     -2.324500777     -2.138312768
C      -1.650996252     -2.386225281     -2.595173783
H      -3.230383994     -1.071695643     -1.628334297
H      -3.963967145     -3.268679637     -2.162692663
H      -1.358852488     -1.158902453     -2.399924994
H      -1.231723389     -3.436235031     -2.473378408
           6
  t=        95.50000    1    1
C      -2.999831713     -2.341644572     -2.142015522
C      -1.662017695     -2.401408370     -2.613546801
H      -3.242371132     -1.111336418     -1.670561774
H      -4.013359196     -3.226163452     -2.201634373
H      -1.379422629     -1.100492294     -2.409542957
H      -1.232581206     -3.462146500     -2.469366223
           6
  t=        96.00000    1    1
C      -3.011689093     -2.358419027     -2.145703587
C      -1.673746784     -2.415818081     -2.631114453
H      -3.255647682     -1.163078509     -1.717052383
H      -4.052530112     -3.175395492     -2.239350973
H      -1.396672495     -1.058167636     -2.422950799
H      -1.231657743     -3.481739186     -2.468297634
           6
  t=        96.50000    1    1
C      -3.023988730     -2.374812483     -2.149483655
C      -1.686180982     -2.429482040     -2.647849141
H      -3.270158084     -1.225688141     -1.767098342
H      -4.081458632     -3.117668712     -2.275602495
H      -1.410751366     -1.032388553     -2.440013106
H      -1.229242173     -3.494303561     -2.470313345
           6
  t=        97.00000    1    1
C      -3.036684607     -2.390833598     -2.153477079
C      -1.699323210     -2.442448670     -2.663724065
H      -3.285782737     -1.297257717     -1.819831770
H      -4.100347745     -3.054708941     -2.310192267
H      -1.421752499     -1.022917082     -2.460495300
H      -1.225671360     -3.499579231     -2.475585862
           6
  t=        97.50000    1    1
C      -3.049702963     -2.406547223     -2.157833883
C      -1.713182417     -2.454752174     -2.678696417
H      -3.302546233     -1.374998524     -1.874138644
H      -4.109636798     -2.988469087     -2.342915913
H      -1.429706765     -1.029310480     -2.484200965
H      -1.221222812     -3.497664417     -2.484352410
           6
  t=        98.00000    1    1
C      -3.062932132     -2.422135279     -2.162735072
C      -1.727758432     -2.466388499     -2.692715719
H      -3.321028132     -1.454912109     -1.928620673
H      -4.109903033     -2.920719094     -2.373486848
H      -1.434632670     -1.051339219     -2.511010414
H      -1.216053805     -3.488897747     -2.496862244
           6
  t=        98.50000    1    1
C      -3.076173413     -2.437971024     -2.168374832
C      -1.743025256     -2.477324846     -2.705748097
H      -3.342066856     -1.529703820     -1.981260611
H      -4.102714524     -2.854213027     -2.401979530
H      -1.436715598     -1.088891519     -2.540776566
H      -1.210249912     -3.473874796     -2.513295022
           6
  t=        99.00000    1    1
C      -3.089125374     -2.454590164     -2.174909808
C      -1.758934401     -2.487500011     -2.717787591
H      -3.366808711     -1.589628321     -2.029956849
H      -4.090711696     -2.792368459     -2.428861469
H      -1.436236130     -1.141741309     -2.573292938
H      -1.203913358     -3.453495393     -2.533695812
           6
  t=        99.50000    1    1
C      -3.101425216     -2.472537160     -2.182410325
C      -1.775419131     -2.496840264     -2.728858064
H      -3.396805521     -1.625366887     -2.073334562
H      -4.077074042     -2.738231824     -2.454747942
H      -1.433487756     -1.209319646     -2.608310553
H      -1.197137538     -3.428991680     -2.557950788
           6
  t=       100.00000    1    1
C      -3.112740566     -2.491990836     -2.190811605
C      -1.792415969     -2.505319304     -2.739016100
H      -3.432513055     -1.632165349     -2.111249277
H      -4.065612896     -2.694520636     -2.480541725
H      -1.428916707     -1.290245334     -2.645428000
H      -1.189925940     -3.401964099     -2.585800738
           6
  t=       100.50000    1    1
C      -3.122918453     -2.512561279     -2.199949899
C      -1.809871300     -2.512968819     -2.748331136
H      -3.472193843     -1.612624219     -2.144543437
H      -4.060150687     -2.663191074     -2.507287576
H      -1.423047946     -1.382597818     -2.684161306
H      -1.182130236     -3.374045002     -2.616966217
           6
  t=       101.00000    1    1
C      -3.132037656     -2.533495920     -2.209658720
C      -1.827741908     -2.519925934     -2.756889489
H      -3.512450897     -1.574724252     -2.174227568
H      -4.063534372     -2.645067307     -2.535798709
H      -1.416224436     -1.483243290     -2.723960525
H      -1.173533758     -3.346896696     -2.651128693
           6
  t=       101.50000    1    1
C      -3.140332704     -2.554071717     -2.219843582
C      -1.846028652     -2.526484082     -2.764780700
H      -3.549884746     -1.526907056     -2.200865404
H      -4.076882807     -2.640145642     -2.566400647
H      -1.408129976     -1.587150041     -2.764329532
H      -1.163928486     -3.322232089     -2.687953975
           6
  t=       102.00000    1    1
C      -3.148111059     -2.573759862     -2.230486614
C      -1.864820738     -2.533173351     -2.772089555
H      -3.582176303     -1.475770991     -2.224664542
H      -4.099283133     -2.647818292     -2.598786698
H      -1.397234649     -1.686659211     -2.804921320
H      -1.153349770     -3.301704187     -2.727090827
           6
  t=       102.50000    1    1
C      -3.155685622     -2.592213124     -2.241645175
C      -1.884334109     -2.540729618     -2.778863422
H      -3.608252490     -1.425925031     -2.245667072
H      -4.128169490     -2.667117771     -2.631994770
H      -1.380307896     -1.772340624     -2.845785830
H      -1.142365511     -3.286470698     -2.768161402
           6
  t=       103.00000    1    1
C      -3.163329210     -2.609247037     -2.253400620
C      -1.904821203     -2.549815468     -2.785103157
H      -3.628137349     -1.380460890     -2.264013472
H      -4.160198325     -2.696572965     -2.664690128
H      -1.353409099     -1.836367673     -2.887523078
H      -1.131977107     -3.277040531     -2.810780345
           6
  t=       103.50000    1    1
C      -3.171297649     -2.624753870     -2.265820860
C      -1.926327418     -2.560692088     -2.790814017
H      -3.642153096     -1.341460090     -2.279765187
H      -4.192251179     -2.734866721     -2.695638903
H      -1.314550089     -1.875579596     -2.930900622
H      -1.123379687     -3.273981531     -2.854480691
           6
  t=       104.00000    1    1
C      -3.179842854     -2.638696912     -2.278938031
C      -1.948503532     -2.573113941     -2.796092542
H      -3.650576469     -1.310273169     -2.293023729
H      -4.221722675     -2.780817187     -2.723797946
H      -1.266012301     -1.892692635     -2.975854493
H      -1.117779897     -3.277771982     -2.898734768
           6
  t=       104.50000    1    1
C      -3.189205932     -2.651088895     -2.292752507
C      -1.970688638     -2.586595596     -2.801138512
H      -3.653717406     -1.287674468     -2.303932530
H      -4.246602338     -2.833341223     -2.748314967
H      -1.213312066     -1.893620786     -3.021181616
H      -1.116364194     -3.288439154     -2.943069552
           6
  t=       105.00000    1    1
C      -3.199589038     -2.661964670     -2.307240155
C      -1.992163223     -2.600704164     -2.806186092
H      -3.652087195     -1.274031391     -2.312597582
H      -4.265518900     -2.891422558     -2.768620684
H      -1.162331904     -1.884277648     -3.065217964
H      -1.120274667     -3.305461273     -2.987109675
           6
  t=       105.50000    1    1
C      -3.211143238     -2.671362497     -2.322356427
C      -2.012346388     -2.615165205     -2.811442746
H      -3.646407331     -1.269799471     -2.319181155
H      -4.277533486     -2.953876632     -2.784362706
H      -1.117382092     -1.869111705     -3.106501048
H      -1.130540194     -3.327933087     -3.030566509
           6
  t=       106.00000    1    1
C      -3.223989123     -2.679308697     -2.338044903
C      -2.030826394     -2.629839431     -2.817082027
H      -3.637289300     -1.275442462     -2.323837514
H      -4.281983463     -3.019682631     -2.795370554
H      -1.081058416     -1.851102038     -3.143934230
H      -1.148085336     -3.354778660     -3.073157159
           6
  t=       106.50000    1    1
C      -3.238209430     -2.685828834     -2.354247832
C      -2.047340227     -2.644676577     -2.823245329
H      -3.625211229     -1.291244294     -2.326710550
H      -4.278479716     -3.088029370     -2.801587175
H      -1.054707338     -1.832231606     -3.176732824
H      -1.173622777     -3.384836615     -3.114582844
           6
  t=       107.00000    1    1
C      -3.253826491     -2.690962592     -2.370904105
C      -2.061744171     -2.659666038     -2.830051617
H      -3.610634270     -1.317447185     -2.327977386
H      -4.266996077     -3.158040963     -2.803060530
H      -1.038983893     -1.813981003     -3.204359032
H      -1.207508846     -3.416913540     -3.154466854
           6
  t=       107.50000    1    1
C      -3.270793071     -2.694758955     -2.387959467
C      -2.073994311     -2.674813387     -2.837587203
H      -3.594093300     -1.354292759     -2.327866765
H      -4.247876333     -3.228774031     -2.799891986
H      -1.034100038     -1.797478963     -3.226462067
H      -1.249739025     -3.449932372     -3.192447924
           6
  t=       108.00000    1    1
C      -3.289000588     -2.697276972     -2.405364351
C      -2.084125574     -2.690125343     -2.845908819
H      -3.576250813     -1.401928902     -2.326630804
H      -4.221782798     -3.299295445     -2.792240267
H      -1.039951073     -1.783569644     -3.242843096
H      -1.299970875     -3.483050508     -3.228228637
           6
  t=       108.50000    1    1
C      -3.308284694     -2.698594504     -2.423070644
C      -2.092228598     -2.705584830     -2.855058433
H      -3.557930818     -1.460221085     -2.324473640
H      -4.189604389     -3.368744153     -2.780349944
H      -1.056417892     -1.773100157     -3.253364473
H      -1.357488869     -3.515692128     -3.261571151
           6
  t=       109.00000    1    1
C      -3.328439563     -2.698824592     -2.441032864
C      -2.098424831     -2.721141905     -2.865069614
H      -3.540168097     -1.528498006     -2.321470996
H      -4.152292927     -3.436323399     -2.764564501
H      -1.083569935     -1.767067806     -3.257919432
H      -1.421242411     -3.547576146     -3.292304992
           6
  t=       109.50000    1    1
C      -3.349220094     -2.698182179     -2.459218775
C      -2.102845014     -2.736716323     -2.875967956
H      -3.524369875     -1.604797450     -2.317640888
H      -4.110664438     -3.501260738     -2.745152756
H      -1.121651505     -1.766603173     -3.256239856
H      -1.490126574     -3.578701625     -3.320490583
           6
  t=       110.00000    1    1
C      -3.370329696     -2.697084481     -2.477633876
C      -2.105640635     -2.752208590     -2.887758767
H      -3.512430112     -1.684807002     -2.312643431
H      -4.065504833     -3.562757557     -2.722334678
H      -1.170833847     -1.772809098     -3.248088024
H      -1.563019301     -3.609290861     -3.346356795
           6
  t=       110.50000    1    1
C      -3.391372190     -2.696247072     -2.496369645
C      -2.107070475     -2.767490761     -2.900389714
H      -3.506516248     -1.761015925     -2.305464540
H      -4.017848457     -3.620111369     -2.696239159
H      -1.230735650     -1.786560224     -3.233433940
H      -1.638737248     -3.639680450     -3.370352387
           6
  t=       111.00000    1    1
C      -3.411894511     -2.696669180     -2.515623362
C      -2.107472720     -2.782425418     -2.913787497
H      -3.508920748     -1.822855146     -2.293848710
H      -3.969062871     -3.672737050     -2.666942752
H      -1.300307790     -1.808337142     -3.212512677
H      -1.716038426     -3.670274944     -3.392943880
           6
  t=       111.50000    1    1
C      -3.431432035     -2.699433718     -2.535707983
C      -2.107283599     -2.796915308     -2.927835259
H      -3.521756332     -1.858886930     -2.273947509
H      -3.920670963     -3.720160567     -2.634684192
H      -1.377605892     -1.837915217     -3.186219335
H      -1.793569918     -3.701465951     -3.414509285
           6
  t=       112.00000    1    1
C      -3.449673053     -2.705077400     -2.556867709
C      -2.106969225     -2.810929801     -2.942405840
H      -3.545812349     -1.864154751     -2.242416764
H      -3.873882848     -3.761940284     -2.599846756
H      -1.460187314     -1.874470500     -3.155849887
H      -1.869935080     -3.733445247     -3.435318871
           6
  t=       112.50000    1    1
C      -3.466476396     -2.713254427     -2.579066647
C      -2.107041404     -2.824558337     -2.957370756
H      -3.580060607     -1.844244311     -2.199285727
H      -3.829742447     -3.797697781     -2.562755102
H      -1.544993735     -1.916097521     -3.122872816
H      -1.943760121     -3.765965708     -3.455508896
           6
  t=       113.00000    1    1
C      -3.481816135     -2.723124899     -2.601977427
C      -2.108080899     -2.838099722     -2.972587317
H      -3.622538891     -1.810718171     -2.147989119
H      -3.789257627     -3.826905626     -2.523662409
H      -1.627836635     -1.958938454     -3.089083088
H      -2.013576670     -3.798297535     -3.475197602
           6
  t=       113.50000    1    1
C      -3.495699519     -2.733979969     -2.625124028
C      -2.110758047     -2.852102317     -2.987878794
H      -3.671377286     -1.773852151     -2.093193167
H      -3.753420831     -3.848722674     -2.483074973
H      -1.703133462     -1.996477672     -3.056668089
H      -2.077770879     -3.829433977     -3.494803012
           6
  t=       114.00000    1    1
C      -3.508060898     -2.745404461     -2.647981167
C      -2.115794550     -2.867202710     -3.003083437
H      -3.724864135     -1.740542066     -2.039714025
H      -3.723280219     -3.862485198     -2.441899484
H      -1.765257722     -2.021023698     -3.027387712
H      -2.134815433     -3.858196148     -3.515028874
           6
  t=       114.50000    1    1
C      -3.518909719     -2.757139649     -2.670190651
C      -2.123669648     -2.883939003     -3.018194517
H      -3.781006737     -1.714762014     -1.991010181
H      -3.699502786     -3.868771017     -2.400769953
H      -1.810403780     -2.025756136     -3.001478422
H      -2.184018623     -3.883523580     -3.535894508
           6
  t=       115.00000    1    1
C      -3.528423216     -2.769034349     -2.691530526
C      -2.134399657     -2.902346250     -3.033286963
H      -3.837893011     -1.698591735     -1.949188295
H      -3.682285491     -3.868579883     -2.360161095
H      -1.838049287     -2.009467333     -2.978353863
H      -2.225311641     -3.904928190     -3.557156786
           6
  t=       115.50000    1    1
C      -3.536811200     -2.781044000     -2.711851754
C      -2.147705649     -2.921882798     -3.048419847
H      -3.894165707     -1.692781130     -1.915446976
H      -3.671730909     -3.862666578     -2.320416666
H      -1.850216587     -1.977737960     -2.957630301
H      -2.258750421     -3.922309761     -3.578729097
           6
  t=       116.00000    1    1
C      -3.544263745     -2.793189565     -2.731069858
C      -2.163204511     -2.941788828     -3.063590052
H      -3.948819015     -1.697076566     -1.890266099
H      -3.667877261     -3.851702159     -2.281872793
H      -1.849944102     -1.938641347     -2.939485862
H      -2.284564297     -3.935981514     -3.600661061
           6
  t=       116.50000    1    1
C      -3.550954802     -2.805493676     -2.749131597
C      -2.180523188     -2.961406913     -3.078760587
H      -4.000968205     -1.710795166     -1.873811726
H      -3.670625637     -3.836439923     -2.244927611
H      -1.840220184     -1.899072643     -2.924349054
H      -2.303121011     -3.946541891     -3.623035101
           6
  t=       117.00000    1    1
C      -3.557046834     -2.817937586     -2.765976685
C      -2.199333656     -2.980263303     -3.093885830
H      -4.049754841     -1.733264149     -1.866274678
H      -3.679663318     -3.817688221     -2.210134955
H      -1.823824430     -1.864164719     -2.912713955
H      -2.314784910     -3.954590875     -3.645874515
           6
  t=       117.50000    1    1
C      -3.562695866     -2.830472027     -2.781530051
C      -2.219362940     -2.998052021     -3.108925787
H      -4.094372594     -1.763891188     -1.867911788
H      -3.694476318     -3.796242804     -2.178219520
H      -1.803140093     -1.837407428     -2.905032874
H      -2.319886593     -3.960668185     -3.669116494
           6
  t=       118.00000    1    1
C      -3.568072360     -2.843048755     -2.795715576
C      -2.240374938     -3.014595577     -3.123852589
H      -4.134111340     -1.802030591     -1.878919604
H      -3.714391388     -3.772906656     -2.150038930
H      -1.779950555     -1.820814916     -2.901653731
H      -2.318808167     -3.965292149     -3.692598064
           6
  t=       118.50000    1    1
C      -3.573367922     -2.855638211     -2.808452170
C      -2.262145315     -3.029785197     -3.138655266
H      -4.168357513     -1.846870708     -1.899421241
H      -3.738732173     -3.748586539     -2.126538929
H      -1.755519142     -1.815469637     -2.902860782
H      -2.311966238     -3.968933531     -3.716063047
           6
  t=       119.00000    1    1
C      -3.578794426     -2.868217025     -2.819655311
C      -2.284436150     -3.043552660     -3.153344123
H      -4.196553469     -1.897452983     -1.929490019
H      -3.766973843     -3.724359898     -2.108562365
H      -1.730872395     -1.821977271     -2.908904623
H      -2.299727113     -3.971959146     -3.739229029
           6
  t=       119.50000    1    1
C      -3.584575585     -2.880746272     -2.829243318
C      -2.306992930     -3.055873944     -3.167954924
H      -4.218154372     -1.952832048     -1.969201976
H      -3.798820433     -3.701430418     -2.096639950
H      -1.706949454     -1.840585813     -2.919974691
H      -2.282359448     -3.974612714     -3.761846960
           6
  t=       120.00000    1    1
C      -3.590939222     -2.893164266     -2.837144125
C      -2.329548194     -3.066769977     -3.182549422
H      -4.232632477     -2.012137785     -2.018646848
H      -3.834134886     -3.681075250     -2.090957528
H      -1.684647431     -1.871258171     -2.936174511
H      -2.260103255     -3.977009964     -3.783660607
           6
  t=       120.50000    1    1
C      -3.598102089     -2.905405582     -2.843321969
C      -2.351822198     -3.076301702     -3.197207335
H      -4.239606753     -2.074383050     -2.077724388
H      -3.872829456     -3.664620580     -2.091401107
H      -1.664840587     -1.913727966     -2.957526012
H      -2.233303616     -3.979131636     -3.804338558
           6
  t=       121.00000    1    1
C      -3.606237990     -2.917433322     -2.847810066
C      -2.373537557     -3.084565053     -3.212013223
H      -4.239008028     -2.138222457     -2.145852508
H      -3.914820184     -3.653354261     -2.097640938
H      -1.648387478     -1.967488612     -2.983982749
H      -2.202489372     -3.980838403     -3.823435680
           6
  t=       121.50000    1    1
C      -3.615436518     -2.929281111     -2.850727655
C      -2.394443401     -3.091692285     -3.227047443
H      -4.231354849     -2.201607773     -2.221705625
H      -3.959910116     -3.648406351     -2.109343175
H      -1.636107473     -2.031728305     -3.015410608
H      -2.168441265     -3.981883674     -3.840367203
           6
  t=       122.00000    1    1
C      -3.625661676     -2.941099048     -2.852292177
C      -2.414321143     -3.097850390     -3.242387004
H      -4.218263603     -2.261321153     -2.302934523
H      -4.007742421     -3.650648791     -2.126256570
H      -1.628748713     -2.105329574     -3.051563850
H      -2.132185154     -3.981952455     -3.854470764
           6
  t=       122.50000    1    1
C      -3.636695889     -2.953220307     -2.852852335
C      -2.433002606     -3.103232894     -3.258099036
H      -4.203010953     -2.312326321     -2.385798056
H      -4.057847377     -3.660644530     -2.148227330
H      -1.626867598     -2.186700355     -3.092052801
H      -2.094954192     -3.980834153     -3.865076075
           6
  t=       123.00000    1    1
C      -3.648110725     -2.966217959     -2.852871691
C      -2.450355523     -3.108061345     -3.274250906
H      -4.191165255     -2.347100746     -2.465185495
H      -4.109722849     -3.678604041     -2.175167666
H      -1.630749851     -2.273720685     -3.136345500
H      -2.058077518     -3.978492378     -3.871587183
           6
  t=       123.50000    1    1
C      -3.659339723     -2.980819866     -2.852792171
C      -2.466324930     -3.112604363     -3.290904431
H      -4.189855434     -2.356727559     -2.536119163
H      -4.162808690     -3.704188355     -2.207070005
H      -1.640015773     -2.363548942     -3.183786192
H      -2.022770783     -3.975150823     -3.873642682
           6
  t=       124.00000    1    1
C      -3.670040769     -2.997539209     -2.852768361
C      -2.480957459     -3.117177918     -3.308114349
H      -4.203692745     -2.335484359     -2.596877507
H      -4.216439459     -3.736400520     -2.244016441
H      -1.653200416     -2.452648722     -3.233674969
H      -1.990073967     -3.971185370     -3.871087717
           6
  t=       124.50000    1    1
C      -3.680375553     -3.016288113     -2.852626068
C      -2.494443608     -3.122148029     -3.325914266
H      -4.231230094     -2.285450431     -2.649742997
H      -4.269772007     -3.773566827     -2.286096909
H      -1.667409013     -2.536477576     -3.285129729
H      -1.960975527     -3.967418613     -3.864107149
           6
  t=       125.00000    1    1
C      -3.690874502     -3.036415761     -2.852102408
C      -2.507121303     -3.127884066     -3.344290823
H      -4.266271008     -2.215622130     -2.698380797
H      -4.321839831     -3.813806953     -2.333296911
H      -1.678543539     -2.609982842     -3.337281677
H      -1.936389461     -3.965140784     -3.853210746
           6
  t=       125.50000    1    1
C      -3.702064142     -3.057152565     -2.851064322
C      -2.519386434     -3.134686591     -3.363187197
H      -4.302400389     -2.136513955     -2.745105143
H      -4.371580815     -3.855202626     -2.385559778
H      -1.682310631     -2.668823704     -3.389652071
H      -1.917095142     -3.965685284     -3.838882233
           6
  t=       126.00000    1    1
C      -3.714264743     -3.077873757     -2.849544676
C      -2.531563579     -3.142688115     -3.382498410
H      -4.335109703     -2.057018450     -2.790628876
H      -4.418022871     -3.895887095     -2.442644445
H      -1.675992582     -2.710530259     -3.442197444
H      -1.903607068     -3.970361758     -3.821552603
           6
  t=       126.50000    1    1
C      -3.727595034     -3.098194525     -2.847680685
C      -2.543761512     -3.151861567     -3.402108707
H      -4.362102179     -1.982619300     -2.834779032
H      -4.460375272     -3.934654506     -2.504012941
H      -1.659598693     -2.734590184     -3.495084835
H      -1.896292625     -3.980312565     -3.801509996
           6
  t=       127.00000    1    1
C      -3.742053442     -3.117901656     -2.845660680
C      -2.555865175     -3.162073022     -3.421912707
H      -4.382559217     -1.916519484     -2.877034173
H      -4.497944255     -3.970525095     -2.568930610
H      -1.635806779     -2.742138481     -3.548391301
H      -1.895376063     -3.996315894     -3.778945082
           6
  t=       127.50000    1    1
C      -3.757560732     -3.136868533     -2.843692029
C      -2.567616486     -3.173136378     -3.441831707
H      -4.396503159     -1.860742704     -2.916839604
H      -4.530254999     -4.002616763     -2.636483370
H      -1.609050418     -2.735558061     -3.601872226
H      -1.900895668     -4.018573479     -3.754038103
           6
  t=       128.00000    1    1
C      -3.773985396     -3.155023480     -2.841979667
C      -2.578744552     -3.184880297     -3.461814293
H      -4.404429177     -1.816405324     -2.953770171
H      -4.557048282     -4.030248692     -2.705629431
H      -1.583982263     -2.717731310     -3.654925335
H      -1.912757704     -4.046663054     -3.727028977
           6
  t=       128.50000    1    1
C      -3.791168104     -3.172317563     -2.840718705
C      -2.589070499     -3.197185809     -3.481816629
H      -4.406936878     -1.784189393     -2.987547065
H      -4.578195809     -4.052877890     -2.775302030
H      -1.564343815     -2.691371225     -3.706752063
H      -1.930779302     -4.079733251     -3.698259292
           6
  t=       129.00000    1    1
C      -3.808932204     -3.188709549     -2.840085172
C      -2.598529181     -3.209969168     -3.501784327
H      -4.404597102     -1.764577205     -3.018023346
H      -4.593743117     -4.070114528     -2.844513604
H      -1.552795843     -2.659017525     -3.756573063
H      -1.954564469     -4.116641127     -3.668193481
           6
  t=       129.50000    1    1
C      -3.827091306     -3.204147885     -2.840243901
C      -2.607119059     -3.223167154     -3.521640544
H      -4.397918853     -1.757960029     -3.045124390
H      -4.603836041     -4.081796338     -2.912422473
H      -1.551352787     -2.623029888     -3.803684561
H      -1.983683248     -4.156165574     -3.637403134
           6
  t=       130.00000    1    1
C      -3.845469615     -3.218573556     -2.841342597
C      -2.614883028     -3.236729089     -3.541301412
H      -4.387381961     -1.764639363     -3.068708476
H      -4.608823461     -4.087988064     -2.978369783
H      -1.561370128     -2.585695286     -3.847594223
H      -2.017535062     -4.196960434     -3.606420516
           6
  t=       130.50000    1    1
C      -3.863908138     -3.231925738     -2.843505675
C      -2.621896059     -3.250619687     -3.560685466
H      -4.373510092     -1.784798486     -3.088597463
H      -4.609262226     -4.088974045     -3.041815419
H      -1.583366241     -2.548835345     -3.887998420
H      -2.055522170     -4.237881710     -3.575755747
           6
  t=       131.00000    1    1
C      -3.882267005     -3.244138225     -2.846834451
C      -2.628250633     -3.264819451     -3.579717225
H      -4.356870071     -1.818493757     -3.104591424
H      -4.605873469     -4.085276218     -3.102306038
H      -1.617224995     -2.513921524     -3.924710290
H      -2.097037410     -4.277900821     -3.545941086
           6
  t=       131.50000    1    1
C      -3.900416135     -3.255121067     -2.851417762
C      -2.634054748     -3.279331738     -3.598317172
H      -4.338062500     -1.865679810     -3.116425543
H      -4.599532629     -4.077729527     -3.159492886
H      -1.662492651     -2.482443934     -3.957568625
H      -2.141321634     -4.315769930     -3.517640285
           6
  t=       132.00000    1    1
C      -3.918231515     -3.264740662     -2.857348796
C      -2.639441702     -3.294182054     -3.616383854
H      -4.317711450     -1.926294038     -3.123696069
H      -4.591209973     -4.067566410     -3.213125276
H      -1.718324161     -2.455602715     -3.986523578
H      -2.187514925     -4.350407078     -3.491656088
           6
  t=       132.50000    1    1
C      -3.935582689     -3.272841940     -2.864726312
C      -2.644584895     -3.309403306     -3.633786889
H      -4.296483126     -2.000131338     -3.125916070
H      -4.581915336     -4.056370793     -3.263041854
H      -1.783516276     -2.434374683     -4.011629740
H      -2.234632749     -4.380912280     -3.468959034
           6
  t=       133.00000    1    1
C      -3.952272819     -3.279340955     -2.873645960
C      -2.649723565     -3.325001650     -3.650373010
H      -4.275229443     -2.086155749     -3.122731884
H      -4.572837772     -4.045933113     -3.309209012
H      -1.856628638     -2.419610264     -4.032987845
H      -2.281569311     -4.406607563     -3.450522165
           6
  t=       133.50000    1    1
C      -3.968017839     -3.284301741     -2.884205205
C      -2.655160692     -3.340938485     -3.665986220
H      -4.255038667     -2.181948089     -3.113910603
H      -4.565482432     -4.037995544     -3.351753277
H      -1.936163493     -2.412060135     -4.050760819
H      -2.327003550     -4.427116192     -3.436986409
           6
  t=       134.00000    1    1
C      -3.982492307     -3.288014326     -2.896493368
C      -2.661241877     -3.357134648     -3.680475093
H      -4.237104327     -2.283388529     -3.099567601
H      -4.561305715     -4.033743225     -3.390759106
H      -2.020629607     -2.412236604     -4.065183868
H      -2.369536562     -4.442347979     -3.428656745
           6
  t=       134.50000    1    1
C      -3.995333699     -3.291183918     -2.910543348
C      -2.668345454     -3.373490982     -3.693691410
H      -4.223151425     -2.382484474     -3.080709184
H      -4.561301081     -4.033612438     -3.426146231
H      -2.108489160     -2.420218597     -4.076622821
H      -2.407799341     -4.452558775     -3.425615411
           6
  t=       135.00000    1    1
C      -4.006111716     -3.295179423     -2.926279118
C      -2.676800551     -3.389974539     -3.705532074
H      -4.217055106     -2.463834588     -3.059212510
H      -4.565862854     -4.037387552     -3.457675673
H      -2.197785947     -2.435337049     -4.085764184
H      -2.440684115     -4.458115790     -3.427672115
           6
  t=       135.50000    1    1
C      -4.014381876     -3.301778611     -2.943567075
C      -2.686820244     -3.406587377     -3.715991986
H      -4.224510457     -2.507627413     -3.036752469
H      -4.575033707     -4.044489206     -3.484950099
H      -2.286104299     -2.456350986     -4.093464850
H      -2.467626176     -4.459442947     -3.434345148
           6
  t=       136.00000    1    1
C      -4.019947139     -3.312057294     -2.962475945
C      -2.698616680     -3.423271387     -3.725080482
H      -4.248249666     -2.503466291     -3.012760249
H      -4.588698966     -4.054242542     -3.507238249
H      -2.370823840     -2.481535585     -4.100783408
H      -2.488448364     -4.457210012     -3.444945819
           6
  t=       136.50000    1    1
C      -4.023119035     -3.325848009     -2.983028168
C      -2.712294053     -3.439923513     -3.732857005
H      -4.285939740     -2.456229746     -2.986050397
H      -4.606287899     -4.066148582     -3.524045387
H      -2.449516993     -2.508201520     -4.109029535
H      -2.503528341     -4.452950125     -3.458868935
           6
  t=       137.00000    1    1
C      -4.024549119     -3.341816756     -3.005103060
C      -2.727800068     -3.456509026     -3.739382358
H      -4.332263448     -2.383105019     -2.956248450
H      -4.626949987     -4.080043652     -3.535281227
H      -2.520753012     -2.533326631     -4.119425373
H      -2.513324023     -4.448971221     -3.476070657
           6
  t=       137.50000    1    1
C      -4.024864195     -3.358474719     -3.028497853
C      -2.745058417     -3.473035923     -3.744678088
H      -4.382226432     -2.302069194     -2.924255969
H      -4.650002300     -4.095624845     -3.540852741
H      -2.583731447     -2.554453551     -4.133034439
H      -2.517753627     -4.447701464     -3.496838282
           6
  t=       138.00000    1    1
C      -4.024580498     -3.374945941     -3.052937349
C      -2.763967765     -3.489412902     -3.748827906
H      -4.432106171     -2.224166649     -2.891721032
H      -4.674790175     -4.112598455     -3.540739992
H      -2.637975521     -2.570269864     -4.150566128
H      -2.516727300     -4.451228147     -3.521115971
           6
  t=       138.50000    1    1
C      -4.024070873     -3.390812000     -3.078141436
C      -2.784368009     -3.505505275     -3.751971577
H      -4.479848174     -2.154935076     -2.860229489
H      -4.700842457     -4.130641872     -3.535033494
H      -2.683498373     -2.580661635     -4.172108122
H      -2.510222566     -4.461040795     -3.548812010
           6
  t=       139.00000    1    1
C      -4.023637302     -3.405909803     -3.103875822
C      -2.806042008     -3.521175081     -3.754293201
H      -4.524412070     -2.096880826     -2.830943595
H      -4.727780665     -4.149328616     -3.523735147
H      -2.720594397     -2.586571857     -4.197144695
H      -2.498352958     -4.477703787     -3.579876036
           6
  t=       139.50000    1    1
C      -4.023541333     -3.420223011     -3.129948058
C      -2.828714569     -3.536325326     -3.756004607
H      -4.565352648     -2.050899613     -2.804655465
H      -4.755408123     -4.168103964     -3.506761984
H      -2.749678925     -2.589622985     -4.224723698
H      -2.481507618     -4.500604139     -3.614320156
           6
  t=       140.00000    1    1
C      -4.024037461     -3.433802392     -3.156182326
C      -2.852037825     -3.550928390     -3.757339175
H      -4.602445325     -2.017134970     -2.781895490
H      -4.783635842     -4.186394628     -3.484095021
H      -2.771320689     -2.591715285     -4.253666966
H      -2.460543978     -4.527995512     -3.652125200
           6
  t=       140.50000    1    1
C      -4.025422485     -3.446692508     -3.182389412
C      -2.875599369     -3.565036629     -3.758555512
H      -4.635372194     -1.995612394     -2.763100151
H      -4.812177522     -4.203725543     -3.455864886
H      -2.786188106     -2.594655397     -4.282716589
H      -2.436775380     -4.557365965     -3.693155117
           6
  t=       141.00000    1    1
C      -4.028029287     -3.458938708     -3.208364526
C      -2.898948759     -3.578763894     -3.759931751
H      -4.663852402     -1.986076186     -2.748601003
H      -4.840435935     -4.219737013     -3.422363262
H      -2.794937035     -2.599889554     -4.310695280
H      -2.411824829     -4.585987721     -3.737090026
           6
  t=       141.50000    1    1
C      -4.032221188     -3.470613130     -3.233895027
C      -2.921608210     -3.592238670     -3.761757106
H      -4.687799034     -1.987919494     -2.738574202
H      -4.867612424     -4.234030756     -3.383962355
H      -2.798103299     -2.608480069     -4.336658253
H      -2.387406029     -4.611413028     -3.783413948
           6
  t=       142.00000    1    1
C      -4.038393474     -3.481804742     -3.258767048
C      -2.943079973     -3.605574224     -3.764320145
H      -4.707278124     -2.000311066     -2.733040079
H      -4.892830624     -4.246166533     -3.341099742
H      -2.796131974     -2.621183119     -4.359913380
H      -2.365105117     -4.631747438     -3.831470958
           6
  t=       142.50000    1    1
C      -4.046958431     -3.492586132     -3.282767554
C      -2.962871708     -3.618859979     -3.767893688
H      -4.722361560     -2.022513648     -2.731980149
H      -4.915216751     -4.255711228     -3.294305134
H      -2.789447087     -2.638493302     -4.379965736
H      -2.346253867     -4.645736248     -3.880532401
           6
  t=       143.00000    1    1
C      -4.058316984     -3.502996706     -3.305687237
C      -2.980527516     -3.632167725     -3.772720140
H      -4.733030929     -2.054044666     -2.735428775
H      -4.933965622     -4.262262182     -3.244242016
H      -2.778509606     -2.660680849     -4.396470949
H      -2.331869989     -4.652669464     -3.929850422
           6
  t=       143.50000    1    1
C      -4.072808271     -3.513038587     -3.327329374
C      -2.995670637     -3.645557089     -3.778999375
H      -4.739147194     -2.094706083     -2.743539759
H      -4.948423638     -4.265524825     -3.191714589
H      -2.763826984     -2.687777285     -4.409187494
H      -2.322686915     -4.652272401     -3.978670992
           6
  t=       144.00000    1    1
C      -4.090650850     -3.522684285     -3.347524229
C      -3.008050726     -3.659075820     -3.786876344
H      -4.740482619     -2.144481093     -2.756606523
H      -4.958168527     -4.265416373     -3.137638842
H      -2.745937835     -2.719530789     -4.417951980
H      -2.319194829     -4.644655079     -4.026243419
           6
  t=       144.50000    1    1
C      -4.111892001     -3.531895921     -3.366146913
C      -3.017582443     -3.672756155     -3.796430397
H      -4.736821554     -2.203320169     -2.775042137
H      -4.963027292     -4.262148518     -3.082967930
H      -2.725367937     -2.755379717     -4.422650523
H      -2.321710099     -4.630284191     -4.071858001
           6
  t=       145.00000    1    1
C      -4.136372638     -3.540651328     -3.383140629
C      -3.024378473     -3.686614667     -3.807657846
H      -4.728092913     -2.270863278     -2.799235561
H      -4.963048189     -4.256246000     -3.028638408
H      -2.702560916     -2.794402216     -4.423319398
H      -2.330364846     -4.609983525     -4.114873660
           6
  t=       145.50000    1    1
C      -4.163741534     -3.548918555     -3.398515474
C      -3.028758327     -3.700651710     -3.820453417
H      -4.714262583     -2.346716029     -2.829645037
H      -4.958452422     -4.248531497     -2.975509045
H      -2.677855284     -2.835228506     -4.420250785
H      -2.345011359     -4.585071093     -4.154815308
           6
  t=       146.00000    1    1
C      -4.193585631     -3.556619410     -3.412288069
C      -3.031153593     -3.714846998     -3.834647779
H      -4.695090343     -2.430824532     -2.866962465
H      -4.949550024     -4.240076044     -2.924419547
H      -2.651503045     -2.876065542     -4.414028812
H      -2.365107040     -4.557496230     -4.191386854
           6
  t=       146.50000    1    1
C      -4.225399898     -3.563720603     -3.424523759
C      -3.032106534     -3.729134324     -3.850007404
H      -4.670638799     -2.522179218     -2.911633019
H      -4.936792203     -4.232365400     -2.876112589
H      -2.623675827     -2.914957751     -4.405372154
H      -2.389522795     -4.529923865     -4.224685763
           6
  t=       147.00000    1    1
C      -4.258665353     -3.570313013     -3.435329090
C      -3.032150327     -3.743404407     -3.866297720
H      -4.641644928     -2.618483226     -2.963537767
H      -4.920723766     -4.226723340     -2.831130688
H      -2.594403198     -2.950047349     -4.394932633
H      -2.416778121     -4.505404173     -4.255162185
           6
  t=       147.50000    1    1
C      -4.292874213     -3.576726030     -3.444894746
C      -3.031717807     -3.757508350     -3.883312205
H      -4.610075835     -2.714678002     -3.021532012
H      -4.901887647     -4.224338348     -2.789615515
H      -2.563660794     -2.979353110     -4.382927033
H      -2.445280420     -4.487637736     -4.283791062
           6
  t=       148.00000    1    1
C      -4.327476154     -3.583761033     -3.453636009
C      -3.031124905     -3.771262817     -3.900851091
H      -4.579685891     -2.800432037     -3.082138077
H      -4.880792676     -4.225915811     -2.751222196
H      -2.531696130     -3.000998830     -4.368921737
H      -2.473311918     -4.480762505     -4.312260562
           6
  t=       148.50000    1    1
C      -4.361327587     -3.592847150     -3.462457817
C      -3.031057692     -3.784414738     -3.918448336
H      -4.555026997     -2.859120709     -3.136037738
H      -4.859638372     -4.231622164     -2.717020441
H      -2.499862988     -3.014523085     -4.355247338
H      -2.498219047     -4.487684520     -4.341258864
           6
  t=       149.00000    1    1
C      -4.393627114     -3.605450765     -3.472075563
C      -3.031960037     -3.796811366     -3.935832034
H      -4.539862469     -2.873602992     -3.175860486
H      -4.839364029     -4.241368491     -2.687536081
H      -2.468598846     -3.020174399     -4.342551643
H      -2.519121921     -4.509732358     -4.371698411
           6
  t=       149.50000    1    1
C      -4.424145860     -3.622111539     -3.482667110
C      -3.033946251     -3.808422337     -3.952960217
H      -4.533974020     -2.837785439     -3.200108148
H      -4.820424642     -4.254657295     -2.662964573
H      -2.438481118     -3.019060494     -4.330440949
H      -2.536571514     -4.546320637     -4.403656322
           6
  t=       150.00000    1    1
C      -4.452995933     -3.642119633     -3.493905107
C      -3.036985400     -3.819306606     -3.969892965
H      -4.534088005     -2.760629873     -3.213056628
H      -4.803059032     -4.270765543     -2.643531931
H      -2.410358534     -3.012785900     -4.318339890
H      -2.551786690     -4.595361734     -4.436390767
           6
  t=       150.50000    1    1
C      -4.480312241     -3.663824848     -3.505239970
C      -3.040985348     -3.829634725     -3.986743399
H      -4.537226187     -2.662060186     -3.221657287
H      -4.787390878     -4.289032715     -2.629273211
H      -2.384979999     -3.003317397     -4.305748097
H      -2.566363443     -4.653256501     -4.468616442
           6
  t=       151.00000    1    1
C      -4.506103576     -3.685808225     -3.516307336
C      -3.045794629     -3.839634415     -4.003647593
H      -4.542339619     -2.558968020     -3.230479802
H      -4.773623375     -4.308924785     -2.620205132
H      -2.363238914     -2.992596486     -4.292396612
H      -2.581954155     -4.715900213     -4.498736144
           6
  t=       151.50000    1    1
C      -4.530299087     -3.707241001     -3.526975424
C      -3.051281816     -3.849535500     -4.020722094
H      -4.549567614     -2.461226861     -3.241333547
H      -4.761941299     -4.329780172     -2.616234497
H      -2.346007909     -2.982355554     -4.278078808
H      -2.599772447     -4.779485351     -4.525421816
           6
  t=       152.00000    1    1
C      -4.552785185     -3.727683669     -3.537235958
C      -3.057408300     -3.859516492     -4.038021923
H      -4.559373690     -2.373891611     -3.254685461
H      -4.752440321     -4.351121810     -2.617244621
H      -2.333981242     -2.974277025     -4.262762395
H      -2.620378367     -4.840861595     -4.547798531
           6
  t=       152.50000    1    1
C      -4.573512267     -3.746992582     -3.547148688
C      -3.064169278     -3.869698300     -4.055529476
H      -4.571936164     -2.298891532     -3.270286254
H      -4.745144405     -4.372394153     -2.623080587
H      -2.327491695     -2.969734921     -4.246731160
H      -2.643885122     -4.897552126     -4.565484490
           6
  t=       153.00000    1    1
C      -4.592408310     -3.765162449     -3.556809729
C      -3.071591776     -3.880181927     -4.073199938
H      -4.587387847     -2.236746450     -3.287677884
H      -4.740245875     -4.392967178     -2.633373175
H      -2.326717118     -2.969683325     -4.230283158
H      -2.670325949     -4.947572596     -4.578397644
           6
  t=       153.50000    1    1
C      -4.609420137     -3.782247163     -3.566343910
C      -3.079736639     -3.891039416     -4.090960828
H      -4.605698735     -2.187431969     -3.306325649
H      -4.737946871     -4.412250951     -2.647508963
H      -2.331513915     -2.974623825     -4.213801072
H      -2.699580886     -4.989535136     -4.586679639
           6
  t=       154.00000    1    1
C      -4.624482474     -3.798248721     -3.575858508
C      -3.088681625     -3.902339353     -4.108737016
H      -4.626877496     -2.151243920     -3.325915562
H      -4.738517285     -4.429950009     -2.664824524
H      -2.341606285     -2.984824523     -4.197688815
H      -2.731498457     -5.022330233     -4.590520946
           6
  t=       154.50000    1    1
C      -4.637561505     -3.813192016     -3.585460586
C      -3.098501906     -3.914136011     -4.126454506
H      -4.650841496     -2.127884421     -3.346179369
H      -4.742182808     -4.446133923     -2.684557998
H      -2.356586200     -3.000307444     -4.182350745
H      -2.765850842     -5.045220836     -4.590153310
           6
  t=       155.00000    1    1
C      -4.648662679     -3.827142777     -3.595260284
C      -3.109266560     -3.926464108     -4.144041639
H      -4.677415994     -2.116339026     -3.366810121
H      -4.749095160     -4.461134714     -2.705882158
H      -2.375924804     -3.020842320     -4.168180689
H      -2.802301855     -5.057922786     -4.585858538
           6
  t=       155.50000    1    1
C      -4.657799957     -3.840159147     -3.605359512
C      -3.121054557     -3.939344904     -4.161425681
H      -4.706418755     -2.115589378     -3.387528118
H      -4.759390246     -4.475377443     -2.728012279
H      -2.398981439     -3.045980350     -4.155555107
H      -2.840431163     -5.060532001     -4.577976950
           6
  t=       156.00000    1    1
C      -4.664988629     -3.852260650     -3.615844068
C      -3.133961967     -3.952780901     -4.178527198
H      -4.737677909     -2.125054455     -3.408111325
H      -4.773208080     -4.489276491     -2.750279749
H      -2.424999784     -3.075055291     -4.144829741
H      -2.879700028     -5.053618935     -4.566967626
           6
  t=       156.50000    1    1
C      -4.670246303     -3.863423583     -3.626774762
C      -3.148104355     -3.966744415     -4.195256243
H      -4.771022151     -2.144685699     -3.428405047
H      -4.790713321     -4.503165186     -2.772206602
H      -2.453108620     -3.107169036     -4.136322651
H      -2.919399442     -5.038409205     -4.553492337
           6
  t=       157.00000    1    1
C      -4.673605682     -3.873589992     -3.638176151
C      -3.163611937     -3.981156692     -4.211510751
H      -4.806257537     -2.174892378     -3.448327848
H      -4.812098715     -4.517246094     -2.793575387
H      -2.482303759     -3.141163494     -4.130289815
H      -2.958593529     -5.017078073     -4.538517568
           6
  t=       157.50000    1    1
C      -4.675133546     -3.882686652     -3.650031829
C      -3.180617563     -3.995859237     -4.227176066
H      -4.843112426     -2.216339351     -3.467864118
H      -4.837534161     -4.531600989     -2.814475300
H      -2.511463608     -3.175623392     -4.126918428
H      -2.996126873     -4.993055237     -4.523344240
           6
  t=       158.00000    1    1
C      -4.674920488     -3.890627428     -3.662285548
C      -3.199262632     -4.010602385     -4.242127016
H      -4.881227999     -2.269938249     -3.487082901
H      -4.867110400     -4.546204544     -2.835350738
H      -2.539360279     -3.208904069     -4.126305503
H      -3.030731114     -4.971100389     -4.509523614
           6
  t=       158.50000    1    1
C      -4.673074347     -3.897331580     -3.674857546
C      -3.219690736     -4.025063314     -4.256239349
H      -4.920085974     -2.336660908     -3.506131038
H      -4.900717349     -4.560982936     -2.856967602
H      -2.564785038     -3.239245805     -4.128443372
H      -3.061247367     -4.956883918     -4.498581585
           6
  t=       159.00000    1    1
C      -4.669721792     -3.902759862     -3.687655359
C      -3.242014327     -4.038916204     -4.269418414
H      -4.958981614     -2.417140013     -3.525211233
H      -4.938000013     -4.575864398     -2.880332724
H      -2.586779991     -3.265152647     -4.133280726
H      -3.086843995     -4.955690866     -4.491589548
           6
  t=       159.50000    1    1
C      -4.665022286     -3.906914173     -3.700573462
C      -3.266282759     -4.051934230     -4.281630706
H      -4.997026052     -2.511586266     -3.544586204
H      -4.978399151     -4.590823625     -2.906555612
H      -2.604786580     -3.285753766     -4.140795187
H      -3.107039443     -4.970886819     -4.488854268
           6
  t=       160.00000    1    1
C      -4.659205498     -3.909853395     -3.713509470
C      -3.292428329     -4.064103649     -4.292921065
H      -5.033131096     -2.619441882     -3.564479523
H      -5.021140427     -4.605953281     -2.936627401
H      -2.618813558     -3.300976964     -4.151087942
H      -3.121757561     -5.002471237     -4.489745561
           6
  t=       160.50000    1    1
C      -4.652549696     -3.911724915     -3.726383231
C      -3.320244459     -4.075635264     -4.303397279
H      -5.066318099     -2.739154744     -3.584947761
H      -5.065389461     -4.621258945     -2.971206963
H      -2.629367692     -3.311490943     -4.164339482
H      -3.131450376     -5.047053866     -4.493038168
           6
  t=       161.00000    1    1
C      -4.645340547     -3.912801654     -3.739105804
C      -3.349400847     -4.086850352     -4.313192316
H      -5.096051173     -2.867794601     -3.605915317
H      -5.110302370     -4.636606137     -3.010911231
H      -2.637398373     -3.318410034     -4.180822200
H      -3.137080121     -5.099504841     -4.497393779
           6
  t=       161.50000    1    1
C      -4.637814322     -3.913545637     -3.751590658
C      -3.379490875     -4.098067400     -4.322438045
H      -5.122824090     -3.000070279     -3.627112152
H      -5.154953957     -4.651903705     -3.056301189
H      -2.644162102     -3.323022936     -4.200831466
H      -3.139851520     -5.154617487     -4.501685809
           6
  t=       162.00000    1    1
C      -4.630054817     -3.914705934     -3.763802252
C      -3.410087678     -4.109530688     -4.331258086
H      -5.149401170     -3.127096451     -3.647827771
H      -5.198274115     -4.667220420     -3.107650358
H      -2.650876240     -3.326649609     -4.224568667
H      -3.140940902     -5.208051923     -4.505100360
           6
  t=       162.50000    1    1
C      -4.621893210     -3.917310718     -3.775756417
C      -3.440718184     -4.121402175     -4.339780172
H      -5.182251863     -3.236579193     -3.666754249
H      -5.239120707     -4.682716732     -3.164956673
H      -2.658707464     -3.330556547     -4.252166599
H      -3.141502863     -5.256493931     -4.507103942
           6
  t=       163.00000    1    1
C      -4.613038464     -3.922239552     -3.787462428
C      -3.470862638     -4.133779877     -4.348151064
H      -5.230011443     -3.317631164     -3.682522721
H      -5.276365354     -4.698764192     -3.227984157
H      -2.668759555     -3.335762810     -4.283680777
H      -3.142587886     -5.297791721     -4.507386618
           6
  t=       163.50000    1    1
C      -4.603571161     -3.929668794     -3.798827751
C      -3.499967535     -4.146749680     -4.356544489
H      -5.297585872     -3.367179590     -3.694818892
H      -5.308929334     -4.715965789     -3.296222963
H      -2.681974783     -3.343096970     -4.319050645
H      -3.145061637     -5.330461681     -4.505865629
           6
  t=       164.00000    1    1
C      -4.594325738     -3.939006062     -3.809619176
C      -3.527448444     -4.160393575     -4.365182557
H      -5.381445150     -3.390868874     -3.704720662
H      -5.336063564     -4.734950744     -3.368813664
H      -2.699029645     -3.353174689     -4.358006231
H      -3.149547727     -5.353696212     -4.502724703
           6
  t=       164.50000    1    1
C      -4.586636827     -3.949400867     -3.819545001
C      -3.552722052     -4.174786925     -4.374316815
H      -5.472443339     -3.397472449     -3.713645256
H      -5.357325875     -4.756003314     -3.444805484
H      -2.720194914     -3.366410533     -4.400200503
H      -3.156410996     -5.367259163     -4.498322926
           6
  t=       165.00000    1    1
C      -4.581788718     -3.960210923     -3.828344759
C      -3.575226432     -4.189987885     -4.384210717
H      -5.562351419     -3.393699389     -3.722405214
H      -5.372401899     -4.778895308     -3.523224136
H      -2.745294310     -3.383074865     -4.445271308
H      -3.165763690     -5.371359625     -4.493148590
           6
  t=       165.50000    1    1
C      -4.580854503     -3.971042390     -3.835801980
C      -3.594450936     -4.206031614     -4.395121758
H      -5.645320731     -3.383889869     -3.731356613
H      -5.381042345     -4.802973531     -3.602989312
H      -2.773784198     -3.403236985     -4.492861396
H      -3.177545491     -5.366515255     -4.487794360
           6
  t=       166.00000    1    1
C      -4.584698717     -3.981680593     -3.841742782
C      -3.609985113     -4.222915806     -4.407286878
H      -5.717204492     -3.370808505     -3.740888028
H      -5.383023138     -4.827451123     -3.682652256
H      -2.804762886     -3.426693520     -4.542524379
H      -3.191618220     -5.353537138     -4.483015393
           6
  t=       166.50000    1    1
C      -4.593740592     -3.992054767     -3.846107124
C      -3.621695567     -4.240563606     -4.420847007
H      -5.775808564     -3.356044651     -3.751271919
H      -5.378577420     -4.851706936     -3.760726480
H      -2.837123183     -3.452968470     -4.593847755
H      -3.207644152     -5.333692030     -4.479474389
           6
  t=       167.00000    1    1
C      -4.607895525     -4.002191589     -3.848991170
C      -3.629798613     -4.258814108     -4.435765416
H      -5.820442508     -3.340506492     -3.762368689
H      -5.368387234     -4.875290145     -3.836406796
H      -2.869910968     -3.481305628     -4.646799915
H      -3.225016337     -5.308878258     -4.477439544
           6
  t=       167.50000    1    1
C      -4.626779229     -4.012177188     -3.850646438
C      -3.634759677     -4.277409375     -4.451837440
H      -5.851025937     -3.324612277     -3.773754195
H      -5.353092907     -4.898105606     -3.909293161
H      -2.902338921     -3.510735545     -4.701638660
H      -3.242995351     -5.281789333     -4.476918930
           6
  t=       168.00000    1    1
C      -4.649892209     -4.022136234     -3.851411198
C      -3.637182111     -4.295965027     -4.468769098
H      -5.867577467     -3.308549330     -3.785000332
H      -5.333278046     -4.920374864     -3.978941787
H      -2.933541052     -3.540212362     -4.758764020
H      -3.260607453     -5.256156882     -4.477856709
           6
  t=       168.50000    1    1
C      -4.676670809     -4.032187322     -3.851694771
C      -3.637759628     -4.313982297     -4.486260276
H      -5.869786048     -3.292812420     -3.795868470
H      -5.309785148     -4.942580889     -4.044336983
H      -2.962535599     -3.568652437     -4.818192809
H      -3.276753208     -5.236616804     -4.480189100
           6
  t=       169.00000    1    1
C      -4.706416417     -4.042405690     -3.851883742
C      -3.637257776     -4.330934766     -4.504053036
H      -5.857606955     -3.278534978     -3.806494394
H      -5.284170872     -4.965060011     -4.104280789
H      -2.988342827     -3.595048202     -4.879572716
H      -3.290102838     -5.228083050     -4.483797658
           6
  t=       169.50000    1    1
C      -4.738463703     -4.052844080     -3.852308869
C      -3.636356364     -4.346356054     -4.521929301
H      -5.831133490     -3.266921466     -3.817036854
H      -5.258171555     -4.988017659     -4.157837182
H      -3.010310612     -3.618731511     -4.942605561
H      -3.299306302     -5.234742623     -4.488415176
           6
  t=       170.00000    1    1
C      -4.772194531     -4.063550676     -3.853247592
C      -3.635556723     -4.359967286     -4.539710196
H      -5.790866385     -3.258900800     -3.827533739
H      -5.233536104     -5.011556437     -4.204446057
H      -3.028332760     -3.639537075     -5.007029108
H      -3.303611992     -5.258478167     -4.493651645
           6
  t=       170.50000    1    1
C      -4.807003519     -4.074588210     -3.854930759
C      -3.635161483     -4.371765515     -4.557256756
H      -5.738050656     -3.254963261     -3.837965312
H      -5.211872415     -5.035571213     -4.243801141
H      -3.042832526     -3.657853354     -5.072370982
H      -3.303351190     -5.297803668     -4.499210592
           6
  t=       171.00000    1    1
C      -4.842291693     -4.086063044     -3.857547383
C      -3.635313936     -4.381980741     -4.574466057
H      -5.674815501     -3.254928404     -3.848291293
H      -5.194444740     -5.059691308     -4.275728696
H      -3.054553366     -3.674539283     -5.137879575
H      -3.299816779     -5.348403353     -4.505031859
           6
  t=       171.50000    1    1
C      -4.877467182     -4.098134204     -3.861243821
C      -3.636072230     -4.390958992     -4.591263606
H      -5.604101405     -3.257728747     -3.858490084
H      -5.182165687     -5.083400174     -4.300157525
H      -3.064342885     -3.690605667     -5.202620229
H      -3.294667734     -5.404832370     -4.511286550
           6
  t=       172.00000    1    1
C      -4.911949471     -4.111028892     -3.866131397
C      -3.637460971     -4.399061284     -4.607603302
H      -5.529500061     -3.261135734     -3.868551776
H      -5.175695875     -5.106173453     -4.317074354
H      -3.073030852     -3.706929599     -5.265568861
H      -3.289445967     -5.461957527     -4.518244795
           6
  t=       172.50000    1    1
C      -4.945174175     -4.125063907     -3.872283899
C      -3.639512875     -4.406601599     -4.623471873
H      -5.455036094     -3.261446511     -3.878489596
H      -5.175445552     -5.127586726     -4.326571901
H      -3.081333163     -3.724216686     -5.325652297
H      -3.285335950     -5.515684337     -4.526152718
           6
  t=       173.00000    1    1
C      -4.976655028     -4.140600268     -3.879733271
C      -3.642282596     -4.413827868     -4.638880274
H      -5.384286430     -3.254123637     -3.888347142
H      -5.181674056     -5.147282512     -4.328939261
H      -3.089790610     -3.743048306     -5.381873014
H      -3.283103549     -5.563070243     -4.535163953
           6
  t=       173.50000    1    1
C      -5.006070836     -4.157880979     -3.888475372
C      -3.645836126     -4.420936590     -4.653849785
H      -5.319311002     -3.235699887     -3.898136034
H      -5.194592602     -5.164968890     -4.324707073
H      -3.098794574     -3.763938443     -5.433386233
H      -3.283127126     -5.602123475     -4.545376846
           6
  t=       174.00000    1    1
C      -5.033289923     -4.176828944     -3.898473724
C      -3.650238933     -4.428095496     -4.668405012
H      -5.260396780     -3.205980702     -3.907786745
H      -5.214314866     -5.180548712     -4.314674625
H      -3.108651548     -3.787295350     -5.479510274
H      -3.285488490     -5.631647494     -4.556884737
           6
  t=       174.50000    1    1
C      -5.058273834     -4.197032398     -3.909685982
C      -3.655545577     -4.435448463     -4.682568172
H      -5.207006954     -3.168213447     -3.917096228
H      -5.241013361     -5.194339372     -4.299740140
H      -3.119634584     -3.813392147     -5.519683817
H      -3.290086961     -5.650996487     -4.569793617
           6
  t=       175.00000    1    1
C      -5.080997591     -4.217897848     -3.922066186
C      -3.661776599     -4.443113943     -4.696359944
H      -5.158769814     -3.127278795     -3.925774574
H      -5.275062787     -5.207285393     -4.280761307
H      -3.131985945     -3.842334665     -5.553515926
H      -3.296730174     -5.659899858     -4.584227903
           6
  t=       175.50000    1    1
C      -5.101415730     -4.238809737     -3.935573265
C      -3.668929657     -4.451176735     -4.709804750
H      -5.115762819     -3.088113216     -3.933532125
H      -5.317035225     -5.220811100     -4.258348049
H      -3.145826820     -3.873997274     -5.580797748
H      -3.305217022     -5.658446791     -4.600274561
           6
  t=       176.00000    1    1
C      -5.119466053     -4.259236069     -3.950175993
C      -3.677011764     -4.459700339     -4.722923502
H      -5.078443872     -3.054858102     -3.940150240
H      -5.367333605     -5.236263079     -4.232826308
H      -3.161130418     -3.907957758     -5.601547959
H      -3.315371034     -5.647153976     -4.617930492
           6
  t=       176.50000    1    1
C      -5.135068305     -4.278779385     -3.965869893
C      -3.686082620     -4.468750925     -4.735716839
H      -5.047540970     -3.030594118     -3.945467107
H      -5.425791072     -5.254300260     -4.204281717
H      -3.177762837     -3.943508394     -5.615981554
H      -3.327009892     -5.626937064     -4.637102624
           6
  t=       177.00000    1    1
C      -5.148155905     -4.297188168     -3.982680239
C      -3.696238159     -4.478408696     -4.748156516
H      -5.023908221     -3.017434257     -3.949329501
H      -5.491614066     -5.274572762     -4.172588806
H      -3.195552458     -3.979685900     -5.624558983
H      -3.339894920     -5.599037536     -4.657644612
           6
  t=       177.50000    1    1
C      -5.158705969     -4.314350964     -4.000657564
C      -3.707576790     -4.488749087     -4.760188199
H      -5.008374662     -3.016732848     -3.951570403
H      -5.563641259     -5.295778078     -4.137377712
H      -3.214280665     -4.015277217     -5.628047580
H      -3.353677088     -5.565045821     -4.679371289
           6
  t=       178.00000    1    1
C      -5.166795521     -4.330284127     -4.019838022
C      -3.720180355     -4.499797488     -4.771745359
H      -5.001509223     -3.029126544     -3.952084937
H      -5.640285241     -5.315933809     -4.098235911
H      -3.233607292     -4.048722829     -5.627654527
H      -3.367822036     -5.527369793     -4.701954807
           6
  t=       178.50000    1    1
C      -5.172592768     -4.345090208     -4.040224584
C      -3.734153612     -4.511476164     -4.782747874
H      -5.003600408     -3.054740617     -3.950852662
H      -5.719333720     -5.332679234     -4.055018177
H      -3.253061086     -4.078292206     -5.624942453
H      -3.381472263     -5.489679722     -4.724917522
           6
  t=       179.00000    1    1
C      -5.176355815     -4.358926734     -4.061755615
C      -3.749623853     -4.523574151     -4.793116413
H      -5.014598423     -3.093142477     -3.948013982
H      -5.798019199     -5.343778663     -4.008089674
H      -3.272056103     -4.102423413     -5.621583127
H      -3.393438735     -5.456842549     -4.747761798
           6
  t=       179.50000    1    1
C      -5.178399261     -4.371988081     -4.084301598
C      -3.766710366     -4.535795423     -4.802791724
H      -5.034113906     -3.143268763     -3.943908914
H      -5.873526659     -5.347529258     -3.958277205
H      -3.289970506     -4.119784478     -5.619112812
H      -3.402377588     -5.434167693     -4.770033846
           6
  t=       180.00000    1    1
C      -5.179025588     -4.384486876     -4.107704071
C      -3.785505455     -4.547865375     -4.811734788
H      -5.061609858     -3.203545260     -3.938985676
H      -5.943404754     -5.342770808     -3.906660666
H      -3.306361977     -4.129320109     -5.618631164
H      -3.407015371     -5.426183359     -4.791459039
           6
  t=       180.50000    1    1
C      -5.178511124     -4.396662096     -4.131798800
C      -3.806017749     -4.559647982     -4.819941862
H      -5.096394856     -3.271660767     -3.933681929
H      -6.005721858     -5.328949337     -3.854423714
H      -3.321143983     -4.130407425     -5.620534085
H      -3.406666202     -5.435150889     -4.812021700
           6
  t=       181.00000    1    1
C      -5.177105728     -4.408788315     -4.156428285
C      -3.828125135     -4.571218429     -4.827462418
H      -5.137655369     -3.344350547     -3.928275715
H      -6.059039278     -5.306130758     -3.802790974
H      -3.334624889     -4.122995817     -5.624428704
H      -3.401751771     -5.460152086     -4.831899252
           6
  t=       181.50000    1    1
C      -5.175038411     -4.421192783     -4.181449207
C      -3.851578832     -4.582823433     -4.834404745
H      -5.184595426     -3.417226424     -3.922715643
H      -6.102252436     -5.274862427     -3.753032665
H      -3.347437527     -4.107636456     -5.629273424
H      -3.393775350     -5.497637390     -4.851331894
           6
  t=       182.00000    1    1
C      -5.172519222     -4.434256696     -4.206741653
C      -3.876044294     -4.594762335     -4.840927275
H      -5.236561567     -3.484887606     -3.916500295
H      -6.134551773     -5.236109897     -3.706420733
H      -3.360405528     -4.085427005     -5.633652950
H      -3.384859809     -5.542835337     -4.870505413
           6
  t=       182.50000    1    1
C      -5.169735189     -4.448341577     -4.232202258
C      -3.901151784     -4.607294941     -4.847223403
H      -5.293257187     -3.541801508     -3.908777094
H      -6.155370250     -5.191202465     -3.664171135
H      -3.374404846     -4.057775803     -5.636056874
H      -3.377169922     -5.591137290     -4.889494040
           6
  t=       183.00000    1    1
C      -5.166854087     -4.463653189     -4.257706396
C      -3.926531899     -4.620595961     -4.853507289
H      -5.354626899     -3.583904631     -3.898868455
H      -6.164536801     -5.141882708     -3.627328108
H      -3.390251904     -4.026268988     -5.635075290
H      -3.372518257     -5.638744475     -4.908274205
           6
  t=       183.50000    1    1
C      -5.164081393     -4.480103510     -4.283041281
C      -3.951826845     -4.634750830     -4.859999965
H      -5.420363091     -3.610541195     -3.887156540
H      -6.162200371     -5.090024821     -3.596669597
H      -3.408615293     -3.992542728     -5.629506797
H      -3.372209858     -5.682833124     -4.926788918
           6
  t=       184.00000    1    1
C      -5.161736077     -4.497324763     -4.307865978
C      -3.976685038     -4.649773495     -4.866915219
H      -5.489101383     -3.624224411     -3.875571965
H      -6.148786251     -5.037724839     -3.572705402
H      -3.429941934     -3.958169909     -5.618498849
H      -3.377125509     -5.721437206     -4.944965369
           6
  t=       184.50000    1    1
C      -5.160254167     -4.514830269     -4.331750812
C      -4.000755432     -4.665631812     -4.874459959
H      -5.558516359     -3.628849276     -3.866951403
H      -6.124863698     -4.987112365     -3.555799690
H      -3.454459780     -3.924629922     -5.601610573
H      -3.387780798     -5.753234885     -4.962697991
           6
  t=       185.00000    1    1
C      -5.160072018     -4.532185071     -4.354297040
C      -4.023734396     -4.682250221     -4.882810075
H      -5.626134369     -3.628039821     -3.863850671
H      -6.091230540     -4.940045307     -3.546138402
H      -3.482150737     -3.893230896     -5.578909693
H      -3.404288138     -5.777519254     -4.979832753
           6
  t=       185.50000    1    1
C      -5.161576101     -4.549077369     -4.375169902
C      -4.045356932     -4.699543548     -4.892118100
H      -5.689894431     -3.624187180     -3.868018724
H      -6.048750557     -4.898133372     -3.543927798
H      -3.512885656     -3.865054734     -5.550828849
H      -3.426526453     -5.793937742     -4.996153184
           6
  t=       186.00000    1    1
C      -5.165100282     -4.565299331     -4.394093513
C      -4.065378385     -4.717423597     -4.902520388
H      -5.748096021     -3.618661471     -3.880358990
H      -5.998487938     -4.862808579     -3.549482509
H      -3.546542157     -3.841012625     -5.518138650
H      -3.454191445     -5.802304435     -5.011333188
           6
  t=       186.50000    1    1
C      -5.170882471     -4.580713746     -4.410912261
C      -4.083586885     -4.735788158     -4.914106316
H      -5.799671963     -3.612439003     -3.901281850
H      -5.941910113     -4.835163220     -3.562399681
H      -3.582800101     -3.821808838     -5.481747193
H      -3.486892724     -5.802699289     -5.025246394
           6
  t=       187.00000    1    1
C      -5.179036540     -4.595208838     -4.425617551
C      -4.099835722     -4.754527024     -4.926911453
H      -5.844281827     -3.606139405     -3.931113872
H      -5.881011045     -4.816251520     -3.580885704
H      -3.620995653     -3.807816544     -5.442553314
H      -3.524031875     -5.795720390     -5.038139594
           6
  t=       187.50000    1    1
C      -5.189600425     -4.608646204     -4.438288377
C      -4.114045448     -4.773520048     -4.940947209
H      -5.881888390     -3.600004396     -3.970389298
H      -5.818072974     -4.807579453     -3.602023039
H      -3.660314486     -3.799219522     -5.401397596
H      -3.564672845     -5.782517071     -5.050478250
           6
  t=       188.00000    1    1
C      -5.202517927     -4.620866509     -4.449106598
C      -4.126235671     -4.792601627     -4.956196641
H      -5.912409153     -3.594167762     -4.019499506
H      -5.755664131     -4.811021368     -3.622149909
H      -3.700022891     -3.796179245     -5.359232644
H      -3.607499620     -5.764791535     -5.062615106
           6
  t=       188.50000    1    1
C      -5.217596441     -4.631724659     -4.458410649
C      -4.136571369     -4.811517472     -4.972591238
H      -5.935778183     -3.589057771     -4.078367168
H      -5.696582324     -4.828314293     -3.636839494
H      -3.739392677     -3.798852075     -5.317182779
H      -3.650837721     -5.744981084     -5.074713645
           6
  t=       189.00000    1    1
C      -5.234521964     -4.641128802     -4.466689665
C      -4.145392544     -4.829889612     -4.989998936
H      -5.951937626     -3.585489562     -4.146075977
H      -5.643785057     -4.860581780     -3.641303881
H      -3.777608727     -3.807254111     -5.276664250
H      -3.692292808     -5.726729146     -5.086807102
           6
  t=       189.50000    1    1
C      -5.253001698     -4.649024067     -4.474398550
C      -4.153167116     -4.847260210     -5.008252722
H      -5.960827634     -3.584730986     -4.221422313
H      -5.599254056     -4.908174342     -3.631732682
H      -3.813698485     -3.820894136     -5.239080342
H      -3.728828851     -5.715017888     -5.099075783
           6
  t=       190.00000    1    1
C      -5.272867732     -4.655449882     -4.481728331
C      -4.160418427     -4.863185284     -5.027165487
H      -5.962403446     -3.588146050     -4.303125564
H      -5.562820634     -4.970250517     -3.607920687
H      -3.846670049     -3.838612329     -5.205610202
H      -3.757416025     -5.715305071     -5.111779681
           6
  t=       190.50000    1    1
C      -5.294031758     -4.660603275     -4.488558834
C      -4.167628352     -4.877366440     -5.046543896
H      -5.956744780     -3.596851529     -4.389761338
H      -5.532786640     -5.044402416     -3.573909917
H      -3.875548176     -3.858745564     -5.177247170
H      -3.775958372     -5.731752803     -5.125043501
           6
  t=       191.00000    1    1
C      -5.316359585     -4.664827791     -4.494650799
C      -4.175146691     -4.889817806     -5.066204472
H      -5.944244425     -3.611595494     -4.479607578
H      -5.507476384     -5.126803337     -3.535787728
H      -3.899373658     -3.879316888     -5.154797278
H      -3.784128877     -5.765154736     -5.138733088
           6
  t=       191.50000    1    1
C      -5.339608967     -4.668532021     -4.499827828
C      -4.183150108     -4.900911697     -5.086004764
H      -5.925826838     -3.632592106     -4.570765602
H      -5.486039355     -5.213212377     -3.499162815
H      -3.917213770     -3.898379465     -5.138796459
H      -3.783567785     -5.812179468     -5.152401818
           6
  t=       192.00000    1    1
C      -5.363466871     -4.672117508     -4.504049065
C      -4.191702329     -4.911195952     -5.105840628
H      -5.902827611     -3.659452233     -4.661416698
H      -5.468402698     -5.299935667     -3.467852542
H      -3.928169974     -3.914396172     -5.129528254
H      -3.776881537     -5.867134542     -5.165495261
           6
  t=       192.50000    1    1
C      -5.387574619     -4.675966745     -4.507368098
C      -4.200833592     -4.921189383     -5.125612221
H      -5.876901579     -3.691113708     -4.749985376
H      -5.454881983     -5.383949663     -3.444313634
H      -3.931647606     -3.926473207     -5.127081022
H      -3.766607996     -5.924259858     -5.177595004
           6
  t=       193.00000    1    1
C      -5.411574041     -4.680424947     -4.509893082
C      -4.210565655     -4.931258438     -5.145215966
H      -5.849884908     -3.725864826     -4.835431420
H      -5.445851062     -5.463086469     -3.429805278
H      -3.927447260     -3.934548633     -5.131384587
H      -3.754745105     -5.979016997     -5.188497654
           6
  t=       193.50000    1    1
C      -5.435125975     -4.685788878     -4.511764431
C      -4.220913609     -4.941616024     -5.164537165
H      -5.823587200     -3.761740837     -4.917199857
H      -5.441597077     -5.535746297     -3.424810292
H      -3.915841909     -3.939369935     -5.142199603
H      -3.742784703     -6.028149909     -5.198208332
           6
  t=       194.00000    1    1
C      -5.457930434     -4.692288520     -4.513128725
C      -4.231868455     -4.952349863     -5.183463387
H      -5.799674946     -3.797113546     -4.994967473
H      -5.442331591     -5.600469593     -3.429516863
H      -3.897553140     -3.942344299     -5.159063816
H      -3.731808892     -6.069553531     -5.206917394
           6
  t=       194.50000    1    1
C      -5.479728796     -4.700078373     -4.514124319
C      -4.243381306     -4.963482774     -5.201900687
H      -5.779723224     -3.831029089     -5.068355741
H      -5.448330000     -5.655730377     -3.444099047
H      -3.873592465     -3.945096027     -5.181342726
H      -3.722619876     -6.101970525     -5.214934648
           6
  t=       195.00000    1    1
C      -5.500314463     -4.709247898     -4.514880856
C      -4.255338287     -4.975012529     -5.219792915
H      -5.765272830     -3.863199665     -5.136616681
H      -5.460064609     -5.699891564     -3.468800054
H      -3.845172078     -3.949132459     -5.208364940
H      -3.715811024     -6.124778983     -5.222560532
           6
  t=       195.50000    1    1
C      -5.519515863     -4.719813896     -4.515552289
C      -4.267612144     -4.986950975     -5.237096664
H      -5.757543131     -3.893808468     -5.198707140
H      -5.478013595     -5.731603320     -3.503784214
H      -3.813737798     -3.955634110     -5.239496390
H      -3.711799668     -6.137623691     -5.229990692
           6
  t=       196.00000    1    1
C      -5.537218098     -4.731715974     -4.516312107
C      -4.280112239     -4.999282100     -5.253757436
H      -5.757018064     -3.923481153     -5.253666369
H      -5.502456300     -5.750309088     -3.548902768
H      -3.780739307     -3.965492426     -5.274311493
H      -3.710821956     -6.140454506     -5.237342367
           6
  t=       196.50000    1    1
C      -5.553348774     -4.744849106     -4.517343146
C      -4.292775516     -5.011947173     -5.269715868
H      -5.763673021     -3.953025215     -5.300728139
H      -5.533479171     -5.756105478     -3.603690317
H      -3.747613050     -3.979495337     -5.312481707
H      -3.712993593     -6.133530665     -5.244704476
           6
  t=       197.00000    1    1
C      -5.567857616     -4.759088180     -4.518828962
C      -4.305549248     -5.024852579     -5.284913103
H      -5.777279817     -3.983136918     -5.339381595
H      -5.571023099     -5.749575848     -3.667428083
H      -3.715847822     -3.998457183     -5.353679990
H      -3.718340396     -6.117364508     -5.252147819
           6
  t=       197.50000    1    1
C      -5.580714999     -4.774305307     -4.520939822
C      -4.318383401     -5.037883563     -5.299294435
H      -5.797587005     -4.014337686     -5.369313146
H      -5.614964700     -5.731544199     -3.739307064
H      -3.686884610     -4.023202676     -5.397574480
H      -3.726745409     -6.092677135     -5.259749862
           6
  t=       198.00000    1    1
C      -5.591927445     -4.790326208     -4.523854784
C      -4.331229817     -5.050909788     -5.312819870
H      -5.824337597     -4.046889285     -5.390481673
H      -5.665095497     -5.703635764     -3.817994834
H      -3.662002439     -4.054378817     -5.443839615
H      -3.737891189     -6.060564279     -5.267552652
           6
  t=       198.50000    1    1
C      -5.601524191     -4.806838092     -4.527834128
C      -4.344036939     -5.063793346     -5.325477188
H      -5.857386086     -4.080733787     -5.403046103
H      -5.721302863     -5.669325443     -3.900782766
H      -3.642296189     -4.092211142     -5.492104517
H      -3.751206959     -6.022753796     -5.275520997
           6
  t=       199.00000    1    1
C      -5.609511771     -4.823344155     -4.533249532
C      -4.356767321     -5.076371751     -5.337264324
H      -5.896628416     -4.115537973     -5.407323102
H      -5.783840786     -5.634494616     -3.983485613
H      -3.628761564     -4.136482019     -5.542005621
H      -3.765915420     -5.981771043     -5.283482823
           6
  t=       199.50000    1    1
C      -5.615865487     -4.839174417     -4.540539944
C      -4.369425767     -5.088456436     -5.348199106
H      -5.941787585     -4.150956851     -5.403467295
H      -5.853692535     -5.606949063     -4.061185170
H      -3.622183752     -4.186436551     -5.593223405
H      -3.780762151     -5.941140301     -5.291078450
           6
  t=       200.00000    1    1
C      -5.620534591     -4.853580162     -4.550106261
C      -4.382092571     -5.099859592     -5.358342247
H      -5.992188011     -4.186404579     -5.391533009
H      -5.932793416     -5.595358197     -4.129210587
H      -3.623057795     -4.240931866     -5.645481622
H      -3.793640339     -5.905080202     -5.297700259
