           6
  t=         0.00000    2    2
C      -0.663660429     -0.000105783      0.004817772
C       0.653878943      0.004557782     -0.010086589
H      -1.184502612      0.909580101     -0.033230127
H      -1.266404961     -0.940458761      0.004754530
H       1.276788942      0.898074730      0.060420681
H       1.290671642     -0.920244663      0.030836490
           6
  t=         0.50000    2    2
C      -0.664892357     -0.001000494      0.004910181
C       0.652281548      0.004837236     -0.009290950
H      -1.182321931      0.907762873     -0.035756091
H      -1.247185284     -0.924820158      0.003741358
H       1.282695334      0.897585948      0.057481881
H       1.297078791     -0.926245964      0.026733162
           6
  t=         1.00000    2    2
C      -0.667614232     -0.002167843      0.005017345
C       0.652688977      0.004877545     -0.008497600
H      -1.182682747      0.908705223     -0.040243705
H      -1.227676041     -0.908227816      0.004641319
H       1.287390904      0.896792431      0.056422352
H       1.300813587     -0.929557617      0.020650528
           6
  t=         1.50000    2    2
C      -0.671655921     -0.003431577      0.005137120
C       0.655077129      0.004674427     -0.007704358
H      -1.185541927      0.912276016     -0.046846736
H      -1.209310318     -0.892733560      0.007618267
H       1.290740916      0.895576231      0.057361973
H       1.301660649     -0.929927838      0.012458201
           6
  t=         2.00000    1    1
C      -0.676790064     -0.004562240      0.005263032
C       0.659337199      0.004236390     -0.006906733
H      -1.190705903      0.918039469     -0.055767414
H      -1.193703075     -0.880710522      0.012916309
H       1.292727322      0.893929211      0.060481230
H       1.299646753     -0.927375119      0.001957437
           6
  t=         2.50000    1    1
C      -0.677106769     -0.000252645      0.010424112
C       0.669764783      0.008642478     -0.000992924
H      -1.137359243      0.985867077     -0.005049185
H      -1.121817321     -0.814197691      0.079481241
H       1.353613153      0.952536437      0.124466938
H       1.355202239     -0.862024869      0.050875286
           6
  t=         3.00000    1    1
C      -0.676362527      0.005734867      0.015483575
C       0.680887875      0.013339951      0.005148615
H      -1.085124861      1.052136779      0.046498608
H      -1.061637999     -0.765992284      0.146097421
H       1.409389957      1.007386745      0.185941602
H       1.407756118     -0.796517916      0.099920637
           6
  t=         3.50000    1    1
C      -0.673895084      0.014673586      0.020244727
C       0.692785789      0.018712268      0.011634260
H      -1.033829847      1.113407874      0.098414414
H      -1.020124176     -0.748199475      0.215773291
H       1.457834905      1.056169534      0.243739082
H       1.457481095     -0.732739094      0.148669809
           6
  t=         4.00000    1    1
C      -0.669454394      0.027046002      0.024531365
C       0.705480202      0.025045272      0.018548785
H      -0.983664465      1.167131290      0.150059953
H      -0.999112013     -0.764484293      0.291619004
H       1.497523872      1.097413474      0.296803400
H       1.504589948     -0.672158177      0.196796311
           6
  t=         4.50000    1    1
C      -0.663308967      0.042247287      0.028445118
C       0.718922933      0.032491781      0.025956872
H      -0.934888059      1.211961847      0.200644089
H      -0.994092627     -0.806530914      0.373501385
H       1.527865197      1.130475863      0.344498531
H       1.549198398     -0.615717078      0.243878812
           6
  t=         5.00000    1    1
C      -0.655928855      0.059188948      0.032349105
C       0.733067378      0.041084261      0.033922569
H      -0.887697747      1.247151394      0.249539713
H      -0.998562040     -0.860663014      0.457803840
H       1.548829949      1.155463845      0.386416513
H       1.591184816     -0.563867856      0.289478939
           6
  t=         5.50000    1    1
C      -0.647688008      0.077003273      0.036603530
C       0.747893724      0.050797603      0.042519601
H      -0.842188623      1.272313278      0.296462711
H      -1.007550759     -0.916151061      0.540411245
H       1.560641846      1.172808178      0.422088563
H       1.630143033     -0.516745575      0.333294205
           6
  t=         6.00000    1    1
C      -0.638816847      0.095127340      0.041463879
C       0.763372929      0.061567938      0.051812570
H      -0.798421080      1.287134586      0.341379405
H      -1.017859228     -0.966019103      0.618137118
H       1.563825834      1.183163225      0.451139582
H       1.665500621     -0.474199029      0.375105778
           6
  t=         6.50000    1    1
C      -0.629390987      0.113221315      0.047130772
C       0.779462217      0.073323605      0.061838041
H      -0.756771244      1.291656509      0.384095496
H      -1.027591432     -1.006152185      0.688801954
H       1.558848110      1.187336377      0.473446463
H       1.696682184     -0.436288482      0.414584362
           6
  t=         7.00000    1    1
C      -0.619374612      0.131082581      0.053763728
C       0.796139214      0.086027203      0.072632679
H      -0.718111790      1.286537076      0.424189037
H      -1.035693899     -1.034449524      0.751088969
H       1.545816503      1.185978575      0.488984342
H       1.723238952     -0.403563707      0.451155878
           6
  t=         7.50000    1    1
C      -0.608661417      0.148617803      0.061426246
C       0.813361978      0.099661125      0.084233469
H      -0.683460354      1.272891876      0.461353283
H      -1.041740657     -1.050522601      0.804693281
H       1.524772009      1.179530480      0.497767248
H       1.744954666     -0.376647540      0.484220610
           6
  t=         8.00000    1    1
C      -0.597124040      0.165782368      0.070095755
C       0.831011667      0.114205373      0.096668989
H      -0.653435061      1.251975659      0.495600738
H      -1.045616569     -1.055028011      0.849885422
H       1.496158759      1.168550160      0.499766225
H       1.761786635     -0.355926343      0.513452862
           6
  t=         8.50000    1    1
C      -0.584667263      0.182501442      0.079719635
C       0.848933078      0.129620851      0.109945891
H      -0.628333794      1.225229501      0.527186295
H      -1.047231374     -1.048691561      0.886996377
H       1.460804725      1.153952096      0.495082362
H       1.773829282     -0.341672265      0.538713449
           6
  t=         9.00000    1    1
C      -0.571235625      0.198629536      0.090231392
C       0.866948741      0.145831356      0.124039021
H      -0.608268418      1.194581249      0.556653687
H      -1.046452332     -1.032014817      0.916238053
H       1.419909195      1.137125618      0.484073250
H       1.781316267     -0.334059355      0.559981164
           6
  t=         9.50000    1    1
C      -0.556790581      0.213944527      0.101558227
C       0.884870207      0.162696608      0.138890334
H      -0.593375149      1.162740400      0.584889725
H      -1.043107894     -1.005273809      0.937636828
H       1.374911533      1.119988912      0.467396859
H       1.784559104     -0.333120944      0.577243938
           6
  t=        10.00000    1    1
C      -0.541287290      0.228158844      0.113636249
C       0.902488392      0.179981523      0.154401137
H      -0.583928327      1.133176392      0.613064590
H      -1.037006211     -0.968558338      0.950976381
H       1.327518484      1.105206582      0.446097091
H       1.783890615     -0.338673520      0.590441319
           6
  t=        10.50000    1    1
C      -0.524674081      0.240953815      0.126421479
C       0.919526816      0.197290672      0.170413232
H      -0.580341249      1.109597008      0.642424142
H      -1.027984511     -0.921864827      0.955836111
H       1.280303351      1.097098388      0.421852370
H       1.779666740     -0.350239181      0.599478705
           6
  t=        11.00000    1    1
C      -0.506916756      0.252042671      0.139896026
C       0.935664362      0.214099305      0.186744223
H      -0.583074206      1.095092634      0.673995741
H      -1.015916038     -0.865184270      0.951691914
H       1.236585875      1.101490258      0.396634680
H       1.772320139     -0.367073489      0.604267387
           6
  t=        11.50000    1    1
C      -0.488037160      0.261250120      0.154084281
C       0.950644891      0.229911809      0.203251397
H      -0.592454672      1.091348415      0.708229066
H      -1.000655155     -0.798611109      0.938038413
H       1.199329941      1.123902000      0.371892361
H       1.762381097     -0.388292616      0.604824628
           6
  t=        12.00000    1    1
C      -0.468118330      0.268561569      0.169087690
C       0.964359023      0.244479524      0.219870916
H      -0.608481600      1.098382523      0.744621790
H      -0.982038163     -0.722567003      0.914431808
H       1.170142075      1.166966008      0.347932733
H       1.750371163     -0.412988679      0.601341112
           6
  t=        12.50000    1    1
C      -0.447280822      0.274181988      0.185079589
C       0.976847064      0.258007882      0.236613973
H      -0.630559541      1.114571889      0.781429812
H      -0.960201303     -0.638485966      0.880867941
H       1.149074671      1.227845888      0.323999586
H       1.736734927     -0.440158405      0.594122507
           6
  t=        13.00000    1    1
C      -0.425702216      0.278547149      0.202199162
C       0.988243232      0.271053618      0.253495048
H      -0.657254296      1.137007754      0.816110988
H      -0.935866093     -0.549255958      0.838414121
H       1.135602189      1.299179763      0.299343105
H       1.721801965     -0.468469582      0.583562467
           6
  t=        13.50000    1    1
C      -0.403497847      0.282217180      0.220490469
C       0.998658829      0.284198183      0.270493091
H      -0.686787595      1.162991259      0.846113338
H      -0.910612926     -0.459287716      0.789210515
H       1.129222429      1.373390390      0.273821927
H       1.705924629     -0.496838072      0.569939984
           6
  t=        14.00000    1    1
C      -0.380641790      0.285885690      0.239823866
C       1.008223562      0.297848499      0.287557678
H      -0.717736308      1.190435940      0.869585674
H      -0.887555474     -0.374752522      0.736843335
H       1.129524421      1.444653314      0.247740054
H       1.689350003     -0.524295204      0.553361653
           6
  t=        14.50000    1    1
C      -0.356849256      0.290477560      0.259827429
C       1.017089551      0.312220208      0.304631633
H      -0.749166226      1.217740935      0.885422382
H      -0.872858691     -0.304716585      0.687110720
H       1.136340414      1.508992350      0.221564059
H       1.672270506     -0.549787847      0.533781405
           6
  t=        15.00000    1    1
C      -0.331643435      0.297050024      0.280001538
C       1.025453669      0.327400363      0.321667982
H      -0.780291728      1.243621098      0.892946144
H      -0.875553455     -0.259945721      0.646757620
H       1.149673087      1.563752442      0.195881775
H       1.654901312     -0.572244957      0.511056807
           6
  t=        15.50000    1    1
C      -0.304851131      0.306224795      0.300101972
C       1.033565691      0.343400882      0.338628600
H      -0.810043804      1.267032453      0.891939745
H      -0.901610977     -0.246053395      0.618592848
H       1.169184980      1.607169603      0.171456154
H       1.637442113     -0.590795214      0.485197664
           6
  t=        16.00000    1    1
C      -0.276858552      0.317894334      0.320338758
C       1.041622925      0.360228111      0.355425276
H      -0.836908894      1.287165007      0.882738029
H      -0.949733629     -0.260596093      0.599589702
H       1.194352726      1.638047605      0.148984973
H       1.619855949     -0.604670125      0.456746502
           6
  t=        16.50000    1    1
C      -0.248672528      0.331369469      0.341142870
C       1.049826052      0.377816119      0.371979283
H      -0.859583128      1.303620213      0.865958047
H      -1.010838155     -0.294440015      0.583877835
H       1.224362756      1.655895600      0.129006807
H       1.602175087     -0.613116563      0.426220814
           6
  t=        17.00000    1    1
C      -0.221452729      0.345933277      0.362801902
C       1.058437009      0.396054393      0.388218722
H      -0.877069776      1.316117029      0.842160484
H      -1.074568996     -0.338144283      0.567385220
H       1.258363964      1.660818022      0.112032178
H       1.584595413     -0.615539324      0.394051265
           6
  t=        17.50000    1    1
C      -0.196108666      0.361108837      0.385393531
C       1.067736822      0.414816938      0.404064263
H      -0.888717246      1.324447352      0.811987381
H      -1.133645592     -0.385169731      0.548562687
H       1.295572377      1.653329649      0.098492150
H       1.567457606     -0.611600082      0.360733604
           6
  t=        18.00000    1    1
C      -0.173287722      0.376615183      0.408871757
C       1.077985486      0.433975066      0.419434174
H      -0.894227588      1.328593982      0.776216537
H      -1.183481314     -0.431398002      0.527268343
H       1.335282469      1.634126427      0.088737519
H       1.551198572     -0.601214656      0.326803149
           6
  t=        18.50000    1    1
C      -0.153405275      0.392303514      0.433125966
C       1.089398423      0.453410334      0.434251496
H      -0.893558865      1.328596313      0.735770430
H      -1.221651395     -0.474432352      0.504028557
H       1.376958927      1.604149212      0.082988578
H       1.536269552     -0.584575648      0.292825816
           6
  t=        19.00000    1    1
C      -0.136692454      0.408107250      0.458017639
C       1.102130717      0.472999057      0.448453814
H      -0.886887230      1.324538138      0.691709874
H      -1.247203567     -0.512972374      0.479581976
H       1.420253554      1.564702266      0.081271034
H       1.523148723     -0.562104368      0.259370711
           6
  t=        19.50000    1    1
C      -0.123207536      0.424009714      0.483402375
C       1.116250712      0.492579506      0.461997865
H      -0.874689297      1.316785460      0.645401452
H      -1.260150918     -0.546477439      0.454482251
H       1.464948729      1.517684937      0.083205298
H       1.512423491     -0.534480999      0.227133325
           6
  t=        20.00000    1    1
C      -0.112875650      0.439993406      0.509150152
C       1.131722828      0.511947221      0.474866931
H      -0.857704872      1.306042596      0.598183771
H      -1.260707248     -0.574639246      0.429150327
H       1.510978494      1.465545581      0.088135761
H       1.504645228     -0.502521665      0.196758221
           6
  t=        20.50000    1    1
C      -0.105450473      0.455976633      0.535115824
C       1.148351479      0.530852180      0.487111764
H      -0.836995312      1.293298095      0.550957891
H      -1.248934051     -0.596880151      0.404329086
H       1.558646842      1.411555404      0.095296120
H       1.500028211     -0.467111204      0.168492518
           6
  t=        21.00000    1    1
C      -0.100507401      0.471814242      0.561112884
C       1.165763622      0.548976767      0.498859928
H      -0.814082789      1.279995294      0.504481339
H      -1.224903309     -0.612464004      0.381006142
H       1.608926543      1.360095599      0.103525598
H       1.498579457     -0.429296066      0.142454210
           6
  t=        21.50000    1    1
C      -0.097569099      0.487343202      0.586968925
C       1.183510692      0.565989986      0.510267820
H      -0.790831923      1.268064578      0.459512177
H      -1.188829584     -0.620835385      0.359972738
H       1.663414745      1.315968443      0.111193876
H       1.500438180     -0.390477672      0.118915099
           6
  t=        22.00000    1    1
C      -0.096170641      0.502391988      0.612554108
C       1.201150711      0.581656484      0.521471836
H      -0.769200784      1.259690149      0.416550274
H      -1.141107854     -0.621634549      0.341866043
H       1.723942558      1.283458616      0.116805575
H       1.505852864     -0.352636426      0.098155357
           6
  t=        22.50000    1    1
C      -0.095914080      0.516803301      0.637767812
C       1.218350886      0.595915713      0.532534608
H      -0.750859592      1.256896319      0.375788855
H      -1.082178633     -0.614578667      0.327320825
H       1.791581909      1.264682511      0.119794488
H       1.515085996     -0.317600056      0.080365887
           6
  t=        23.00000    1    1
C      -0.096490641      0.530483409      0.662516972
C       1.234955300      0.608894827      0.543414206
H      -0.736755418      1.260968744      0.337314450
H      -1.012408190     -0.599396801      0.316985113
H       1.865683463      1.259170078      0.120929339
H       1.528278831     -0.286853378      0.065651949
           6
  t=        23.50000    1    1
C      -0.097696460      0.543421182      0.686708509
C       1.250984044      0.620836469      0.553989684
H      -0.726876918      1.272127189      0.301292546
H      -0.932067916     -0.575812191      0.311484831
H       1.943954236      1.264711790      0.121969912
H       1.545315813     -0.261442006      0.054012611
           6
  t=        24.00000    1    1
C      -0.099400618      0.555687656      0.710219142
C       1.266554447      0.631996323      0.564110182
H      -0.720420102      1.289617453      0.268299785
H      -0.841476372     -0.543633297      0.311413862
H       2.023243387      1.278482691      0.124972329
H       1.565904317     -0.241871414      0.045487798
           6
  t=        24.50000    1    1
C      -0.101474309      0.567430600      0.732899104
C       1.281817187      0.642585388      0.573629070
H      -0.716148129      1.312057587      0.239362044
H      -0.741545618     -0.503188825      0.317202344
H       2.100315935      1.297809943      0.131779839
H       1.589624309     -0.228033060      0.040310019
           6
  t=        25.00000    1    1
C      -0.103722796      0.578853463      0.754603699
C       1.296901873      0.652753669      0.582427601
H      -0.712816755      1.337738893      0.215701810
H      -0.634033702     -0.455522789      0.328942808
H       2.172442910      1.320525288      0.143743187
H       1.615853745     -0.219217652      0.038952602
           6
  t=        25.50000    1    1
C      -0.105879120      0.590172273      0.775227293
C       1.311899029      0.662603970      0.590426168
H      -0.709506023      1.364951754      0.198347409
H      -0.521217219     -0.402113832      0.346395191
H       2.237507469      1.344954485      0.161741694
H       1.643806475     -0.214361749      0.041955246
           6
  t=        26.00000    1    1
C      -0.107592602      0.601673841      0.794739503
C       1.326863201      0.672218492      0.597596953
H      -0.705635935      1.392232574      0.188022392
H      -0.406027478     -0.345679066      0.368627865
H       2.293782085      1.369755655      0.186238294
H       1.672732793     -0.212339813      0.049756594
           6
  t=        26.50000    1    1
C      -0.108500899      0.613784248      0.813222990
C       1.341822587      0.681675043      0.603959452
H      -0.700813187      1.418423703      0.185211108
H      -0.291604150     -0.291019806      0.393609308
H       2.340076019      1.393883887      0.217291066
H       1.701916259     -0.212152141      0.062628460
           6
  t=        27.00000    1    1
C      -0.108331120      0.627066963      0.830881807
C       1.356779367      0.691052773      0.609540320
H      -0.694683401      1.442363131      0.190225946
H      -0.180566929     -0.244692984      0.418299256
H       2.375862492      1.416500358      0.254797997
H       1.730871300     -0.212898194      0.080651724
           6
  t=        27.50000    1    1
C      -0.106945097      0.642073616      0.847954591
C       1.371752370      0.700463406      0.614365460
H      -0.686864987      1.462870755      0.203247655
H      -0.074980384     -0.213560146      0.439549615
H       2.401028437      1.436903067      0.298668890
H       1.759523253     -0.213738657      0.103731696
           6
  t=        28.00000    1    1
C      -0.104317044      0.659005018      0.864574397
C       1.386808355      0.710081331      0.618523697
H      -0.677153072      1.479343852      0.224061975
H       0.023868712     -0.201521855      0.455625457
H       2.415684716      1.454594989      0.348481358
H       1.787740404     -0.214143951      0.131596157
           6
  t=        28.50000    1    1
C      -0.100371414      0.677545079      0.880665502
C       1.402045501      0.720111954      0.622176516
H      -0.665651216      1.491777910      0.252041721
H       0.114403475     -0.207153605      0.467279528
H       2.419777233      1.469288426      0.403497162
H       1.815187227     -0.213927518      0.163835856
           6
  t=        29.00000    1    1
C      -0.094908711      0.697075901      0.896033481
C       1.417488125      0.730713794      0.625513185
H      -0.652661879      1.500589476      0.286327148
H       0.194189180     -0.225349825      0.476921777
H       2.413298272      1.480909281      0.462773743
H       1.841941758     -0.213063563      0.199904601
           6
  t=        29.50000    1    1
C      -0.087693064      0.716962096      0.910518755
C       1.433081534      0.741980642      0.628729777
H      -0.638628377      1.506599685      0.325876319
H       0.260811829     -0.250673599      0.486885803
H       2.396697107      1.489629732      0.525148511
H       1.868253162     -0.211528819      0.239238449
           6
  t=        30.00000    1    1
C      -0.078540799      0.736673301      0.924069635
C       1.448692044      0.753923213      0.632004134
H      -0.624239721      1.511035351      0.369462006
H       0.312935198     -0.278797232      0.498604216
H       2.371252931      1.495951344      0.589307699
H       1.894271826     -0.209187408      0.281442588
           6
  t=        30.50000    1    1
C      -0.067303822      0.755774926      0.936700492
C       1.464129547      0.766484113      0.635491009
H      -0.610489868      1.515441697      0.415783576
H       0.349938362     -0.306554204      0.512896600
H       2.338996579      1.500821387      0.654023107
H       1.920082419     -0.205836005      0.326211076
           6
  t=        31.00000    1    1
C      -0.053848461      0.773907427      0.948460442
C       1.479168289      0.779540774      0.639322327
H      -0.598685708      1.521585653      0.463520866
H       0.371675863     -0.331695260      0.530206912
H       2.302508639      1.505723668      0.718320914
H       1.945653930     -0.201229949      0.373236675
           6
  t=        31.50000    1    1
C      -0.038049443      0.790787490      0.959405130
C       1.493565202      0.792923739      0.643599842
H      -0.590300976      1.531219958      0.511519381
H       0.378369830     -0.352751978      0.550725299
H       2.264614120      1.512545426      0.781620237
H       1.970816546     -0.195082520      0.422189126
           6
  t=        32.00000    1    1
C      -0.019798642      0.806206245      0.969561108
C       1.507079989      0.806446109      0.648391332
H      -0.586666816      1.545711169      0.559049638
H       0.370385374     -0.368784120      0.574549954
H       2.228118508      1.523359589      0.843790627
H       1.995305729     -0.187057635      0.472706149
           6
  t=        32.50000    1    1
C       0.000970268      0.820032245      0.978902636
C       1.519509996      0.819941884      0.653739554
H      -0.588589539      1.565647874      0.605976804
H       0.348045506     -0.379125883      0.601793151
H       2.195438368      1.540078010      0.905066612
H       2.018812651     -0.176777217      0.524373012
           6
  t=        33.00000    1    1
C       0.024249856      0.832216485      0.987350292
C       1.530735272      0.833315231      0.659689703
H      -0.596019582      1.590563266      0.652753128
H       0.311642384     -0.383173289      0.632601391
H       2.168116766      1.563915263      0.965745931
H       2.040970364     -0.163867190      0.576701044
           6
  t=        33.50000    1    1
C       0.049911648      0.842805317      0.994809639
C       1.540739281      0.846557991      0.666312177
H      -0.607889437      1.618873939      0.700170285
H       0.261875053     -0.380108835      0.667054229
H       2.146515499      1.594891708      1.025796780
H       2.061378422     -0.148037101      0.629137304
           6
  t=        34.00000    1    1
C       0.077706620      0.851919028      1.001215844
C       1.549601318      0.859745164      0.673720527
H      -0.622330882      1.648267438      0.749011910
H       0.199824671     -0.368910733      0.705022970
H       2.129918115      1.631814460      1.084534492
H       2.079826315     -0.129130379      0.681130983
           6
  t=        34.50000    1    1
C       0.107307068      0.859687560      1.006529859
C       1.557477582      0.873052233      0.682081330
H      -0.637132668      1.676365658      0.799850443
H       0.126543251     -0.348796517      0.746337152
H       2.117140504      1.672680291      1.140644156
H       2.096278528     -0.107187483      0.732075403
           6
  t=        35.00000    1    1
C       0.138298121      0.866273555      1.010790658
C       1.564578706      0.886659419      0.691541414
H      -0.650089090      1.701216232      0.852919647
H       0.043407793     -0.319528045      0.790559730
H       2.106802972      1.715346341      1.192606498
H       2.110965629     -0.082436796      0.781479182
           6
  t=        35.50000    1    1
C       0.170175185      0.871893133      1.014110078
C       1.571123442      0.900690546      0.702177090
H      -0.659051501      1.721494991      0.908227490
H      -0.047216208     -0.281558521      0.837007655
H       2.097632983      1.757968702      1.239140440
H       2.124052042     -0.055307691      0.829056585
           6
  t=        36.00000    1    1
C       0.202394325      0.876776943      1.016630111
C       1.577312504      0.915213849      0.714008795
H      -0.662036324      1.736482461      0.965613607
H      -0.142252924     -0.235792093      0.884974914
H       2.088670348      1.799123286      1.279350551
H       2.135528258     -0.026313848      0.874633958
           6
  t=        36.50000    1    1
C       0.234409808      0.881122117      1.018504443
C       1.583345592      0.930273052      0.727041148
H      -0.657315368      1.745934699      1.024741414
H      -0.238699006     -0.183252942      0.933779273
H       2.079205524      1.837722582      1.312536955
H       2.145495500      0.004030383      0.918043657
           6
  t=        37.00000    1    1
C       0.265680398      0.885089329      1.019904156
C       1.589427138      0.945892836      0.741263441
H      -0.643508292      1.750005926      1.085086080
H      -0.333710731     -0.124937314      0.982730216
H       2.068692193      1.872941131      1.338191985
H       2.154289253      0.035183866      0.959097772
           6
  t=        37.50000    1    1
C       0.295668277      0.888805083      1.021015869
C       1.595774050      0.962077897      0.756644791
H      -0.619684841      1.749183216      1.145966609
H      -0.424510901     -0.061749659      1.031137078
H       2.056748794      1.904205679      1.356056554
H       2.162407516      0.066573912      0.997571335
           6
  t=        38.00000    1    1
C       0.323846069      0.892371862      1.022036781
C       1.602622880      0.978813773      0.773126402
H      -0.585464782      1.744282493      1.206629584
H      -0.508446517      0.005354972      1.078295615
H       2.043183682      1.931242035      1.366162648
H       2.170474034      0.097564976      1.033240853
           6
  t=        38.50000    1    1
C       0.349649217      0.895888818      1.023167073
C       1.610249929      0.996074729      0.790634464
H      -0.540808078      1.736225638      1.266187662
H      -0.583021798      0.075300820      1.123593996
H       2.028070332      1.954064799      1.368846919
H       2.179314288      0.127421548      1.065763048
           6
  t=        39.00000    1    1
C       0.372674626      0.899462688      1.024602734
C       1.618858230      1.013804088      0.809049551
H      -0.486290941      1.725981052      1.323569384
H      -0.646372127      0.146825108      1.166593498
H       2.011733288      1.972981480      1.365017355
H       2.189699222      0.155533981      1.094827842
           6
  t=        39.50000    1    1
C       0.392728831      0.903138567      1.026498397
C       1.628538665      1.031942417      0.828237110
H      -0.422728947      1.714950200      1.378323054
H      -0.697290649      0.218462740      1.206504993
H       1.994656903      1.988600409      1.355455549
H       2.201975526      0.181528430      1.120655157
           6
  t=        40.00000    1    1
C       0.409756767      0.906931230      1.028984146
C       1.639289981      1.050421791      0.848079245
H      -0.351011275      1.704379543      1.430337492
H      -0.735325529      0.288948513      1.242341642
H       1.977568509      2.001774751      1.340786269
H       2.216524274      0.205203784      1.143573034
           6
  t=        40.50000    1    1
C       0.423735888      0.910843809      1.032182219
C       1.651101778      1.069126946      0.868476632
H      -0.272147990      1.695454504      1.479353878
H      -0.760293024      0.357248801      1.273310610
H       1.961267090      2.013622934      1.321881027
H       2.233765398      0.226625955      1.163488598
           6
  t=        41.00000    1    1
C       0.434736100      0.914849400      1.036182856
C       1.663927826      1.087875369      0.889320306
H      -0.187591010      1.689646554      1.525242423
H      -0.772254177      0.422502365      1.298820664
H       1.946630628      2.025735211      1.299997609
H       2.254051756      0.246089804      1.180088186
           6
  t=        41.50000    1    1
C       0.442918486      0.918895175      1.041026607
C       1.677676989      1.106419941      0.910487299
H      -0.099167917      1.688725616      1.568266747
H      -0.771537219      0.483932783      1.318414843
H       1.934710027      2.040268869      1.276640459
H       2.277654786      0.264018597      1.193042756
           6
  t=        42.00000    1    1
C       0.448516915      0.922930172      1.046705479
C       1.692223948      1.124478169      0.931852977
H      -0.008822326      1.694477081      1.609031023
H      -0.758711567      0.540889153      1.331822308
H       1.926514906      2.059560514      1.253320951
H       2.304784463      0.280914610      1.202087960
           6
  t=        42.50000    1    1
C       0.451810547      0.926941595      1.053183020
C       1.707438239      1.141780884      0.953307007
H       0.081616060      1.708294479      1.648252535
H      -0.734558643      0.592869107      1.339003047
H       1.922791708      2.085497919      1.231269435
H       2.335533645      0.297358686      1.207065209
           6
  t=        43.00000    1    1
C       0.453114716      0.930980030      1.060428882
C       1.723193047      1.158126407      0.974775551
H       0.170333190      1.730785138      1.686527211
H      -0.700077390      0.639497749      1.340079406
H       1.924204282      2.118986818      1.211106987
H       2.369805161      0.314013031      1.207876587
           6
  t=        43.50000    1    1
C       0.452798976      0.935173871      1.068438205
C       1.739359556      1.173425384      0.996232831
H       0.255694812      1.761482249      1.724100587
H      -0.656737397      0.680488297      1.335327989
H       1.931276857      2.159645782      1.192734429
H       2.407310044      0.331547491      1.204464220
           6
  t=        44.00000    1    1
C       0.451325015      0.939727916      1.077229740
C       1.755800737      1.187719297      1.017696734
H       0.336662164      1.798838079      1.760610632
H      -0.606944394      0.715563126      1.325273950
H       1.944044869      2.205776582      1.175570740
H       2.447588843      0.350551061      1.196809437
           6
  t=        44.50000    1    1
C       0.449291434      0.944898437      1.086824075
C       1.772389131      1.201160900      1.039199829
H       0.412595925      1.840600484      1.795207174
H      -0.554570631      0.744324603      1.310802724
H       1.962069925      2.254686464      1.158898464
H       2.489977539      0.371492446      1.184961039
           6
  t=        45.00000    1    1
C       0.447457598      0.950956783      1.097208460
C       1.789010325      1.213952483      1.060751527
H       0.482991344      1.884415662      1.826975040
H      -0.505372737      0.766064759      1.293200333
H       1.984774203      2.303409732      1.142178009
H       2.533630277      0.394755388      1.169127535
           6
  t=        45.50000    1    1
C       0.446733099      0.958181878      1.108337102
C       1.805558388      1.226284832      1.082312655
H       0.547200064      1.928039825      1.855053319
H      -0.466756754      0.779809662      1.274101403
H       2.011579870      2.349289851      1.125237212
H       2.577603161      0.420617223      1.149719819
           6
  t=        46.00000    1    1
C       0.448052296      0.966855747      1.120162227
C       1.821938109      1.238306097      1.103801273
H       0.604299626      1.969308394      1.878658549
H      -0.446315676      0.784566718      1.255118578
H       2.041907122      2.390222288      1.108199502
H       2.620992408      0.449213846      1.127330897
           6
  t=        46.50000    1    1
C       0.452086415      0.977195199      1.132676522
C       1.838072879      1.250130730      1.125116741
H       0.653308887      2.006321854      1.897205708
H      -0.448672020      0.779887356      1.237148719
H       2.075087581      2.424653016      1.091347601
H       2.662984798      0.480500150      1.102652536
           6
  t=        47.00000    1    1
C       0.458952400      0.989264977      1.145923395
C       1.853912396      1.261851664      1.146154868
H       0.693530536      2.037806261      1.910485123
H      -0.472487545      0.766427467      1.220027474
H       2.110361077      2.451564963      1.075058133
H       2.702905485      0.514232467      1.076406426
           6
  t=        47.50000    1    1
C       0.468262389      1.002987288      1.159970010
C       1.869454159      1.273526668      1.166806853
H       0.724467849      2.063201068      1.918638405
H      -0.511266799      0.745871655      1.203015744
H       2.146955851      2.470419344      1.059769392
H       2.740178936      0.550064121      1.049247880
           6
  t=        48.00000    1    1
C       0.479412422      1.018206947      1.174858475
C       1.884748933      1.285172479      1.186959727
H       0.745634750      2.082403982      1.921977023
H      -0.556547931      0.720523056      1.185579076
H       2.184047532      2.481070375      1.045967794
H       2.774245457      0.587589713      1.021757838
           6
  t=        48.50000    1    1
C       0.491842617      1.034765832      1.190588584
C       1.899877486      1.296770852      1.206508678
H       0.756670911      2.095591349      1.920823101
H      -0.600848820      0.692593746      1.167624691
H       2.220738289      2.483701790      1.034174774
H       2.804590043      0.626338679      0.994436858
           6
  t=        49.00000    1    1
C       0.505149492      1.052541957      1.207126347
C       1.914928450      1.308280720      1.225359481
H       0.757279784      2.102996180      1.915370310
H      -0.638792557      0.663897501      1.149470650
H       2.256114916      2.478722760      1.024968912
H       2.830797179      0.665797920      0.967722405
           6
  t=        49.50000    1    1
C       0.519060906      1.071438032      1.224411887
C       1.929992346      1.319648251      1.243425797
H       0.747227664      2.104985800      1.905763394
H      -0.666893556      0.635804152      1.131681275
H       2.289354542      2.466756245      1.018998956
H       2.852601993      0.705408050      0.941998938
           6
  t=        50.00000    1    1
C       0.533401294      1.091369544      1.242368897
C       1.945157300      1.330806550      1.260635218
H       0.726290193      2.102166583      1.892252705
H      -0.683175592      0.609231972      1.114872292
H       2.319841959      2.448707634      1.016885973
H       2.869909704      0.744543142      0.917551327
           6
  t=        50.50000    1    1
C       0.548052521      1.112235980      1.260902855
C       1.960493813      1.341679966      1.276935194
H       0.694317729      2.095470114      1.875376846
H      -0.686612586      0.584813038      1.099589591
H       2.347199467      2.425824701      1.019093810
H       2.882789189      0.782490883      0.894583728
           6
  t=        51.00000    1    1
C       0.562918381      1.133877515      1.279885492
C       1.976045295      1.352192276      1.292285775
H       0.651386944      2.086419454      1.856158829
H      -0.676629278      0.563065761      1.086294377
H       2.371243277      2.399640549      1.025924477
H       2.891401398      0.818489381      0.873314332
           6
  t=        51.50000    1    1
C       0.577908968      1.156025424      1.299133533
C       1.991825577      1.362274189      1.306654076
H       0.597900395      2.077603069      1.836313551
H      -0.652876349      0.544466293      1.075369801
H       2.391940130      2.371837369      1.037566993
H       2.895934185      0.851819491      0.854031772
           6
  t=        52.00000    1    1
C       0.592953774      1.178328298      1.318421424
C       2.007829477      1.371843884      1.320011976
H       0.534153435      2.072590391      1.817987845
H      -0.615018224      0.529442230      1.067214352
H       2.409347479      2.344359963      1.054233445
H       2.896601082      0.881701638      0.837001347
           6
  t=        52.50000    1    1
C       0.608025274      1.200413906      1.337522581
C       2.023977371      1.380815330      1.332379975
H       0.460589526      2.074915281      1.802971688
H      -0.562809103      0.518334954      1.062257770
H       2.423786061      2.319681327      1.076126800
H       2.893668829      0.907248060      0.822256001
           6
  t=        53.00000    1    1
C       0.623135094      1.221998101      1.356275597
C       2.040089636      1.389105629      1.343852758
H       0.378158868      2.086592147      1.791974541
H      -0.496427273      0.511274587      1.060864092
H       2.436165911      2.300989139      1.103262404
H       2.887457285      0.927500158      0.809501924
           6
  t=        53.50000    1    1
C       0.638284879      1.242986870      1.374631078
C       2.055900019      1.396662545      1.354587101
H       0.289015561      2.107013643      1.784334450
H      -0.416759779      0.508036696      1.063191071
H       2.447938340      2.291730448      1.135413473
H       2.878401078      0.941585301      0.798190587
           6
  t=        54.00000    1    1
C       0.653429570      1.263479688      1.392636542
C       2.071124481      1.403481525      1.364717209
H       0.196234020      2.133378865      1.778581817
H      -0.324813530      0.508308875      1.069246331
H       2.460478409      2.294635894      1.172412075
H       2.866979036      0.948755117      0.787786528
           6
  t=        54.50000    1    1
C       0.668458265      1.283674650      1.410384560
C       2.085599809      1.409621566      1.374320577
H       0.102689256      2.162182051      1.773234200
H      -0.221524545      0.511879184      1.078942839
H       2.474689266      2.310830269      1.214303026
H       2.853615310      0.948539072      0.777787968
           6
  t=        55.00000    1    1
C       0.683279221      1.303794184      1.427961759
C       2.099235628      1.415262752      1.383447442
H       0.011484289      2.190197988      1.767155423
H      -0.108504987      0.518111125      1.091989592
H       2.490895564      2.339277197      1.261260620
H       2.838664440      0.941039057      0.767816950
           6
  t=        55.50000    1    1
C       0.697908540      1.324054419      1.445430808
C       2.111971185      1.420691052      1.392129040
H      -0.074378192      2.214992548      1.759821138
H       0.011708782      0.525637781      1.107758044
H       2.508911607      2.377235607      1.313326002
H       2.822377837      0.926814370      0.757866305
           6
  t=        56.00000    1    1
C       0.712479771      1.344684484      1.462851018
C       2.123795540      1.426245456      1.400403955
H      -0.152396407      2.234792433      1.751291949
H       0.135604743      0.532262767      1.125035351
H       2.528154010      2.420949109      1.369961646
H       2.804888167      0.906821536      0.748459274
           6
  t=        56.50000    1    1
C       0.727129495      1.365952472      1.480283192
C       2.134803964      1.432275810      1.408331310
H      -0.220427352      2.248178202      1.741897301
H       0.259311338      0.534913987      1.142144426
H       2.547812548      2.466413487      1.430204736
H       2.785971527      0.882193170      0.740477373
           6
  t=        57.00000    1    1
C       0.741900714      1.388117806      1.497773316
C       2.145178732      1.439103685      1.415997620
H      -0.276691505      2.254052980      1.731951658
H       0.379488894      0.530237135      1.157465853
H       2.567157481      2.509969086      1.492962737
H       2.765233478      0.854117155      0.734739194
           6
  t=        57.50000    1    1
C       0.756716688      1.411300207      1.515332979
C       2.155090492      1.446988142      1.423510100
H      -0.319817482      2.251744308      1.721585547
H       0.494156427      0.516082388      1.170080562
H       2.585846028      2.548629299      1.557101892
H       2.742507435      0.823888948      0.731751435
           6
  t=        58.00000    1    1
C       0.771451487      1.435367874      1.532904065
C       2.164653473      1.456129941      1.430979032
H      -0.348785904      2.240984758      1.710838232
H       0.602570625      0.492813151      1.180081180
H       2.603811008      2.580203683      1.621475443
H       2.717723930      0.792781314      0.731907376
           6
  t=        58.50000    1    1
C       0.785981949      1.459954018      1.550345860
C       2.173984007      1.466729184      1.438504841
H      -0.362623850      2.221684147      1.699806637
H       0.703789243      0.462961807      1.188419917
H       2.621113327      2.603002544      1.684967868
H       2.690872765      0.762027924      0.735753450
           6
  t=        59.00000    1    1
C       0.800255522      1.484563106      1.567479433
C       2.183168165      1.478935085      1.446167347
H      -0.360859000      2.194086337      1.688686038
H       0.796397179      0.430343118      1.196549639
H       2.637939169      2.615922806      1.746575827
H       2.662311122      0.732799883      0.743825855
           6
  t=        59.50000    1    1
C       0.814302534      1.508710372      1.584147967
C       2.192252983      1.492789673      1.454020351
H      -0.343997600      2.159059245      1.677790970
H       0.878837501      0.398635103      1.205863997
H       2.654563241      2.618651852      1.805496413
H       2.632905655      0.706139368      0.756446804
           6
  t=        60.00000    1    1
C       0.828205349      1.532023294      1.600246265
C       2.201249690      1.508232505      1.462097060
H      -0.313268237      2.117945077      1.667426771
H       0.950093034      0.370383503      1.217359333
H       2.671291489      2.611413806      1.861132106
H       2.603480948      0.683093375      0.773769951
           6
  t=        60.50000    1    1
C       0.842073255      1.554231130      1.615697111
C       2.210149717      1.525135957      1.470426773
H      -0.270296688      2.072206217      1.657935698
H       1.009623278      0.347353711      1.231700004
H       2.688362742      2.594717764      1.912979449
H       2.574764310      0.664671844      0.795863108
           6
  t=        61.00000    1    1
C       0.856055697      1.575125519      1.630441831
C       2.218918167      1.543327782      1.479053356
H      -0.217235599      2.023432342      1.649729763
H       1.056870423      0.330834356      1.249332613
H       2.705957720      2.569303264      1.960517599
H       2.547920563      0.651792131      0.822564935
           6
  t=        61.50000    1    1
C       0.870361524      1.594537223      1.644452426
C       2.227515283      1.562612464      1.488019835
H      -0.157370708      1.973564445      1.643171734
H       1.091448219      0.321530801      1.270503756
H       2.724340807      2.536140694      2.003349181
H       2.524342453      0.645183765      0.853484401
           6
  t=        62.00000    1    1
C       0.885303429      1.612298686      1.657735101
C       2.235920039      1.582796919      1.497352097
H      -0.095576654      1.924915317      1.638457192
H       1.113042906      0.319750889      1.295297866
H       2.743847050      2.496423319      2.041300673
H       2.505407938      0.645330124      0.888132594
           6
  t=        62.50000    1    1
C       0.901340103      1.628232213      1.670333295
C       2.244125951      1.603695406      1.507052784
H      -0.038599198      1.880016068      1.635508769
H       1.121474897      0.325644374      1.323619965
H       2.764883403      2.451632121      2.074480632
H       2.492247068      0.652399939      0.926024237
           6
  t=        63.00000    1    1
C       0.919009783      1.642185489      1.682321550
C       2.252131952      1.625124198      1.517102388
H       0.005678890      1.841115646      1.633974318
H       1.116782442      0.339336597      1.355209863
H       2.788035283      2.403642889      2.103359776
H       2.485718177      0.666147319      0.966645197
           6
  t=        63.50000    1    1
C       0.938707462      1.654096098      1.693792413
C       2.259956559      1.646901489      1.527460737
H       0.030492092      1.809601414      1.633373552
H       1.099415240      0.360846070      1.389682970
H       2.814095454      2.354641403      2.128795392
H       2.486417080      0.685890669      1.009378948
           6
  t=        64.00000    1    1
C       0.960414911      1.664016725      1.704831373
C       2.267659553      1.668854898      1.538072577
H       0.033047736      1.785809029      1.633416007
H       1.070332818      0.390030046      1.426557258
H       2.844007108      2.306868670      2.151899137
H       2.494738624      0.710622326      1.053526066
           6
  t=        64.50000    1    1
C       0.983568034      1.672107178      1.715501406
C       2.275343762      1.690840275      1.548878206
H       0.016115275      1.769354066      1.634248385
H       1.031096689      0.426385420      1.465217092
H       2.878755931      2.262347984      2.173865629
H       2.510862453      0.739019938      1.098321859
           6
  t=        65.00000    1    1
C       1.007227737      1.678591023      1.725856451
C       2.283161372      1.712780263      1.559832433
H      -0.013639138      1.759811143      1.636361710
H       0.983836415      0.468828693      1.504892451
H       2.919030804      2.222578178      2.195703046
H       2.534680555      0.769351406      1.142932894
           6
  t=        65.50000    1    1
C       1.030412167      1.683673815      1.735945493
C       2.291323302      1.734680713      1.570932425
H      -0.049098241      1.757195796      1.640409705
H       0.930819943      0.515920962      1.544700830
H       2.964893050      2.188443484      2.217865628
H       2.565932535      0.799636805      1.186583800
           6
  t=        66.00000    1    1
C       1.052269301      1.687545985      1.745813171
C       2.300094850      1.756600724      1.582224642
H      -0.084281864      1.761734957      1.647074916
H       0.874354411      0.566063646      1.583668685
H       3.015641296      2.160447673      2.240230230
H       2.604023735      0.827770692      1.228603201
           6
  t=        66.50000    1    1
C       1.072145306      1.690406974      1.755503452
C       2.309776057      1.778593188      1.593792033
H      -0.114765944      1.773604394      1.656937230
H       0.816731362      0.617516741      1.620787865
H       3.069870707      2.138867934      2.262143879
H       2.647859016      0.852033400      1.268560051
           6
  t=        67.00000    1    1
C       1.089615296      1.692484270      1.765067125
C       2.320660244      1.800653967      1.605725977
H      -0.137716909      1.792956370      1.670357346
H       0.760090372      0.668145926      1.655108325
H       3.125722071      2.123849149      2.282608207
H       2.695892147      0.871600734      1.306348022
           6
  t=        67.50000    1    1
C       1.104487974      1.694033247      1.774553900
C       2.332984117      1.822707138      1.618102155
H      -0.151630952      1.820011311      1.687499734
H       0.706050056      0.715350020      1.685891438
H       3.181173030      2.115528453      2.300629631
H       2.746481991      0.886578049      1.342040762
           6
  t=        68.00000    1    1
C       1.116762681      1.695304928      1.783998166
C       2.346907516      1.844621842      1.630973291
H      -0.155811463      1.855029077      1.708358265
H       0.655429589      0.756462597      1.712802585
H       3.234233529      2.113990747      2.315420612
H       2.798206056      0.897855142      1.375728523
           6
  t=        68.50000    1    1
C       1.126564693      1.696497730      1.793413326
C       2.362510887      1.866238882      1.644376592
H      -0.149953099      1.898229832      1.732799801
H       0.608784761      0.789432448      1.735814244
H       3.283118105      2.119260748      2.326410543
H       2.849537352      0.906771050      1.407539539
           6
  t=        69.00000    1    1
C       1.134075832      1.697737298      1.802800582
C       2.379797040      1.887398125      1.658339515
H      -0.133862736      1.949662298      1.760602809
H       0.566603139      0.813247824      1.755078433
H       3.326362131      2.131322106      2.333217210
H       2.899059803      0.914716063      1.437584027
           6
  t=        69.50000    1    1
C       1.139489369      1.699090247      1.812158197
C       2.398691302      1.907950742      1.672878375
H      -0.107312060      2.009103525      1.791497371
H       0.529467834      0.827948905      1.770800510
H       3.362900952      2.150136793      2.335652549
H       2.945613483      0.922890618      1.465940920
           6
  t=        70.00000    1    1
C       1.143000148      1.700594796      1.821485996
C       2.419043918      1.927759573      1.687991897
H      -0.070060315      2.075990001      1.825178222
H       0.498114061      0.834384434      1.783193982
H       3.392120772      2.175628134      2.333761312
H       2.988298925      0.932265125      1.492674508
           6
  t=        70.50000    1    1
C       1.144811039      1.702288865      1.830787969
C       2.440645364      1.946694344      1.703657577
H      -0.021962377      2.149411194      1.861294701
H       0.473296813      0.833888215      1.792496770
H       3.413840970      2.207691373      2.327843405
H       3.026475947      0.943621534      1.517818212
           6
  t=        71.00000    1    1
C       1.145151735      1.704222643      1.840075022
C       2.463244763      1.964633434      1.719829041
H       0.036799075      2.228135689      1.899450707
H       0.455584887      0.828056207      1.798971378
H       3.428298214      2.246214565      2.318442920
H       3.059774148      0.957558381      1.541384178
           6
  t=        71.50000    1    1
C       1.144261331      1.706461152      1.849368907
C       2.486587735      1.981457971      1.736441602
H       0.105718748      2.310778784      1.939251883
H       0.445325753      0.818505562      1.802838029
H       3.435984912      2.291190863      2.306242918
H       3.088041103      0.974491735      1.563375055
           6
  t=        72.00000    1    1
C       1.142388304      1.709082632      1.858703228
C       2.510423458      1.997053204      1.753414697
H       0.183993152      2.395811403      1.980350561
H       0.442652124      0.806873925      1.804218890
H       3.437551063      2.342741281      2.291956932
H       3.111325513      0.994627066      1.583862393
           6
  t=        72.50000    1    1
C       1.139794040      1.712183181      1.868123276
C       2.534503185      2.011308245      1.770653858
H       0.270491957      2.481468718      2.022400124
H       0.447506441      0.794892547      1.803196979
H       3.433768174      2.401074624      2.276293826
H       3.129893188      1.017965370      1.602986875
           6
  t=        73.00000    1    1
C       1.136783274      1.715884090      1.877684753
C       2.558553276      2.024122982      1.788056152
H       0.363680594      2.565943615      2.065012736
H       0.459667246      0.784140989      1.799856206
H       3.425514827      2.466376797      2.259921828
H       3.144251037      1.044295950      1.620947005
           6
  t=        73.50000    1    1
C       1.133695752      1.720332401      1.887449802
C       2.582285762      2.035410068      1.805527744
H       0.461722267      2.647397727      2.107729477
H       0.478737250      0.776007205      1.794309777
H       3.413670904      2.538802123      2.243375866
H       3.155136299      1.073203584      1.637931207
           6
  t=        74.00000    1    1
C       1.130933075      1.725696964      1.897483135
C       2.605372263      2.045124131      1.823017568
H       0.562695824      2.724022908      2.149940633
H       0.503970112      0.771557225      1.786717305
H       3.398936853      2.618312747      2.226891349
H       3.163643538      1.103996898      1.653991550
           6
  t=        74.50000    1    1
C       1.128924395      1.732166741      1.907852756
C       2.627488646      2.053291506      1.840550633
H       0.664710737      2.794192719      2.190750818
H       0.534292226      0.771295923      1.777350231
H       3.381571572      2.704403534      2.210353492
H       3.171226622      1.135737214      1.668758462
           6
  t=        75.00000    1    1
C       1.128069003      1.739946419      1.918620493
C       2.648377103      2.060029369      1.858226476
H       0.765821236      2.856294457      2.229037342
H       0.568486463      0.775359000      1.766639715
H       3.361328563      2.795919808      2.193374207
H       3.179609099      1.167220987      1.681388775
           6
  t=        75.50000    1    1
C       1.128722677      1.749270955      1.929829840
C       2.667850668      2.065518978      1.876166257
H       0.863772682      2.908710536      2.263781829
H       0.605429417      0.783616829      1.755121365
H       3.337649198      2.891143740      2.175494121
H       3.190716112      1.196953759      1.690862707
           6
  t=        76.00000    1    1
C       1.131213933      1.760387208      1.941497613
C       2.685767072      2.070012532      1.894440021
H       0.955922386      2.949913410      2.294422292
H       0.644037116      0.795650277      1.743347803
H       3.310046109      2.987703328      2.156323856
H       3.206542449      1.223307627      1.696543947
           6
  t=        76.50000    1    1
C       1.135861743      1.773497350      1.953622332
C       2.702011692      2.073841438      1.913043428
H       1.039420241      2.978586754      2.320840991
H       0.683110227      0.810880761      1.731831040
H       3.278383013      3.082419957      2.135573824
H       3.228838875      1.244998124      1.698397186
           6
  t=        77.00000    1    1
C       1.142949999      1.788704019      1.966183212
C       2.716522984      2.077370782      1.931875901
H       1.111661376      2.994144361      2.343449730
H       0.721343294      0.828564875      1.720994081
H       3.242740705      3.171568719      2.113182813
H       3.258785485      1.261506564      1.697094917
           6
  t=        77.50000    1    1
C       1.152695939      1.805968410      1.979150485
C       2.729307245      2.080915594      1.950785561
H       1.171158101      2.997163224      2.363000176
H       0.757361408      0.847794921      1.710986889
H       3.203111554      3.251543510      2.089279416
H       3.296588922      1.273478320      1.693771408
           6
  t=        78.00000    1    1
C       1.165262889      1.825176421      1.992505771
C       2.740405528      2.084641641      1.969640224
H       1.217410655      2.988667827      2.380059855
H       0.789947241      0.867756611      1.701711884
H       3.159707335      3.319699222      2.064096396
H       3.341319235      1.282732688      1.689517965
           6
  t=        78.50000    1    1
C       1.180753162      1.846172141      2.006235394
C       2.749879249      2.088594344      1.988316185
H       1.250360253      2.969767326      2.395050369
H       0.818240495      0.887989295      1.693009216
H       3.113068856      3.374419967      2.037956946
H       3.391403703      1.291553607      1.685386668
           6
  t=        79.00000    1    1
C       1.199208878      1.868746117      2.020314425
C       2.757796902      2.092760889      2.006682608
H       1.269917540      2.941796506      2.408475317
H       0.841801906      0.908509208      1.684814807
H       3.064114967      3.414919889      2.011251137
H       3.445134107      1.302024394      1.682403954
           6
  t=        79.50000    1    1
C       1.220599525      1.892579648      2.034683156
C       2.764247317      2.097123753      2.024595863
H       1.275913752      2.906728863      2.421160758
H       0.860523542      0.929878986      1.677265661
H       3.014064367      3.441152840      1.984435406
H       3.500873503      1.315661369      1.681573237
           6
  t=        80.00000    1    1
C       1.244770629      1.917134574      2.049200099
C       2.769391254      2.101712017      2.041910909
H       1.268353591      2.868035551      2.434541937
H       0.874501521      0.953126527      1.670835256
H       2.964413347      3.453973797      1.958128307
H       3.556949878      1.333176555      1.683781435
           6
  t=        80.50000    1    1
C       1.271339333      1.941523278      2.063582184
C       2.773503820      2.106673922      2.058561097
H       1.248408087      2.832071945      2.450755882
H       0.884388790      0.979482645      1.666395762
H       2.916596661      3.454667416      1.933230275
H       3.611388454      1.354509259      1.689286038
           6
  t=        81.00000    1    1
C       1.299933036      1.964769790      2.077473527
C       2.776862060      2.112157752      2.074505818
H       1.217257086      2.806798968      2.472791799
H       0.891098096      1.009857207      1.664687507
H       2.871690999      3.444228234      1.910576137
H       3.662158537      1.379656605      1.698247183
           6
  t=        81.50000    1    1
C       1.330342447      1.986085370      2.090532420
C       2.779669207      2.118278207      2.089718095
H       1.175231192      2.799118530      2.503707771
H       0.895545376      1.044569069      1.666202038
H       2.830555471      3.423231983      1.890868582
H       3.707226647      1.408853699      1.710805672
           6
  t=        82.00000    1    1
C       1.362481465      2.005273225      2.102629927
C       2.782062365      2.125109305      2.104197528
H       1.121903159      2.810125281      2.544208076
H       0.898425184      1.083385093      1.671291662
H       2.794024050      3.391995498      1.874713697
H       3.744883809      1.442385177      1.726839948
           6
  t=        82.50000    1    1
C       1.396048286      2.022727406      2.113962671
C       2.784232276      2.132694691      2.117954295
H       1.058518627      2.834546028      2.591526632
H       0.900184720      1.125483004      1.679960316
H       2.762813529      3.351560738      1.862671407
H       3.774043737      1.480089091      1.746088081
           6
  t=        83.00000    1    1
C       1.430498618      2.039020673      2.124883863
C       2.786428255      2.141045594      2.130994899
H       0.988259199      2.865365469      2.641360427
H       0.901204865      1.169795630      1.691994381
H       2.737472163      3.303487631      1.855273942
H       3.794110542      1.521529365      1.768248214
           6
  t=        83.50000    1    1
C       1.465157228      2.054623898      2.135732843
C       2.788923140      2.150109311      2.143343913
H       0.915375621      2.896728409      2.689663373
H       0.901744801      1.215168042      1.707116498
H       2.718520208      3.250460763      1.852817807
H       3.804848868      1.566048769      1.793011036
           6
  t=        84.00000    1    1
C       1.499345513      2.069841143      2.146758203
C       2.792011209      2.159766322      2.155075235
H       0.844030053      2.924794391      2.733550608
H       0.901837238      1.260411939      1.724927377
H       2.706303550      3.196089411      1.855091000
H       3.806297436      1.612867857      1.820030003
           6
  t=        84.50000    1    1
C       1.532408705      2.084778098      2.158102048
C       2.796019092      2.169815786      2.166313491
H       0.777475525      2.947850826      2.771434728
H       0.901450787      1.304535697      1.745031565
H       2.701070817      3.145059444      1.861334454
H       3.798895957      1.661138741      1.848868760
           6
  t=        85.00000    1    1
C       1.563677718      2.099401715      2.169850093
C       2.801313077      2.179916707      2.177237103
H       0.718160993      2.965524590      2.802446329
H       0.900628803      1.346767046      1.767111463
H       2.702713728      3.104214472      1.870146725
H       3.783868459      1.709620195      1.878968395
           6
  t=        85.50000    1    1
C       1.592514190      2.113627869      2.182069960
C       2.808237880      2.189634867      2.188059435
H       0.667520643      2.978194600      2.826253549
H       0.899588974      1.386493441      1.790867636
H       2.710726291      3.081740206      1.879526712
H       3.763568042      1.756536543      1.909613171
           6
  t=        86.00000    1    1
C       1.618315625      2.127354017      2.194798964
C       2.817053114      2.198682834      2.198966224
H       0.626145870      2.986636755      2.843011222
H       0.898660834      1.423208965      1.816095059
H       2.724866609      3.083995551      1.887733684
H       3.741401358      1.799905741      1.939936174
           6
  t=        86.50000    1    1
C       1.640630724      2.140516529      2.208033751
C       2.827788199      2.207160508      2.210052650
H       0.594182072      2.991731801      2.853187692
H       0.898237063      1.456541149      1.842661069
H       2.744980338      3.112238056      1.894426081
H       3.722011646      1.837529733      1.968849139
           6
  t=        87.00000    1    1
C       1.659194728      2.153101626      2.221747675
C       2.840241223      2.215562295      2.221307414
H       0.571625095      2.994296081      2.857346612
H       0.898717069      1.486159988      1.870427971
H       2.770831725      3.162669978      1.900841621
H       3.710800071      1.866992979      1.995140508
           6
  t=        87.50000    1    1
C       1.673930467      2.165132512      2.235903310
C       2.854087387      2.224564008      2.232659894
H       0.558358240      2.995067855      2.856106162
H       0.900399622      1.511626936      1.899192831
H       2.802168248      3.228815986      1.908928732
H       3.712626872      1.886141791      2.017734095
           6
  t=        88.00000    1    1
C       1.684902206      2.176646975      2.250473747
C       2.869045141      2.234782610      2.244021017
H       0.554238757      2.994627667      2.850044286
H       0.903296449      1.532288079      1.928664686
H       2.838973353      3.304224419      1.920380254
H       3.730228702      1.893699425      2.036032052
           6
  t=        88.50000    1    1
C       1.692299782      2.187691527      2.265440171
C       2.885003901      2.246626869      2.255293813
H       0.559189097      2.993374262      2.839618300
H       0.907050045      1.547316320      1.958547887
H       2.881348369      3.383814726      1.936273043
H       3.762994924      1.889749805      2.050175544
           6
  t=        89.00000    1    1
C       1.696484660      2.198383181      2.280769585
C       2.902021559      2.260273847      2.266375613
H       0.573231414      2.991489665      2.825183599
H       0.911113550      1.555953539      1.988588872
H       2.928733632      3.462964133      1.957279437
H       3.807013001      1.875987721      2.061006919
           6
  t=        89.50000    1    1
C       1.697897245      2.208912663      2.296435319
C       2.920214225      2.275732619      2.277170244
H       0.596706902      2.988886817      2.806996757
H       0.915154560      1.557664501      2.018478003
H       2.979836671      3.537286736      1.983718971
H       3.856935348      1.855040576      2.069723499
           6
  t=        90.00000    1    1
C       1.696933604      2.219437092      2.312440428
C       2.939628704      2.292899418      2.287606706
H       0.630227071      2.985323208      2.785204634
H       0.919309048      1.552190123      2.047906417
H       3.033640347      3.604006968      2.015411794
H       3.907754522      1.829549824      2.077476719
           6
  t=        90.50000    1    1
C       1.693959046      2.230054418      2.328782259
C       2.960201606      2.311618148      2.297649584
H       0.674297454      2.980669137      2.759950308
H       0.924185262      1.539537886      2.076730362
H       3.089503301      3.661544697      2.051950526
H       3.955400520      1.801910661      2.085128267
           6
  t=        91.00000    1    1
C       1.689319969      2.240810145      2.345431920
C       2.981790567      2.331738072      2.307295104
H       0.729027695      2.975068116      2.731511848
H       0.930743184      1.519989609      2.104960147
H       3.146849429      3.708807948      2.092871969
H       3.996948606      1.774043661      2.093242176
           6
  t=        91.50000    1    1
C       1.683350408      2.251688913      2.362334983
C       3.004215232      2.353137414      2.316562505
H       0.793968747      2.968977162      2.700368297
H       0.940049712      1.494154618      2.132693661
H       3.205143651      3.744854715      2.137657924
H       4.030484819      1.747458533      2.102179018
           6
  t=        92.00000    1    1
C       1.676439822      2.262571676      2.379389653
C       3.027284965      2.375727683      2.325485569
H       0.867541286      2.963642885      2.667333776
H       0.953079040      1.462976853      2.160195622
H       3.263846208      3.768748407      2.185817510
H       4.054784939      1.723374273      2.112161266
           6
  t=        92.50000    1    1
C       1.669117827      2.273170400      2.396425198
C       3.050824077      2.399431261      2.334107930
H       0.946159507      2.961810580      2.633786214
H       0.970508411      1.427882152      2.187924824
H       3.322318131      3.779696274      2.236853724
H       4.069179219      1.702769511      2.123363646
           6
  t=        93.00000    1    1
C       1.662069115      2.282997205      2.413222183
C       3.074698584      2.424162684      2.342470711
H       1.023971312      2.968271460      2.601398926
H       0.992683444      1.390695885      2.216609302
H       3.379812090      3.777112873      2.290398368
H       4.073359415      1.686444861      2.135877729
           6
  t=        93.50000    1    1
C       1.656025394      2.291394319      2.429566827
C       3.098831578      2.449786635      2.350592745
H       1.093566412      2.989802892      2.571353557
H       1.019781661      1.353506748      2.247459161
H       3.435650419      3.760895077      2.346502542
H       4.067433553      1.675087574      2.149583593
           6
  t=        94.00000    1    1
C       1.651744070      2.297716942      2.445337088
C       3.123010150      2.476014210      2.358487482
H       1.148353704      3.033300850      2.544422006
H       1.051767787      1.318674875      2.281140656
H       3.489403791      3.732262520      2.404864269
H       4.051969317      1.669347633      2.164639001
           6
  t=        94.50000    1    1
C       1.649587604      2.301756863      2.460570288
C       3.146963928      2.502553649      2.366223487
H       1.186973952      3.100972188      2.520763795
H       1.088295226      1.288076706      2.317047123
H       3.540672103      3.692898371      2.464216706
H       4.027975319      1.669416074      2.181496232
           6
  t=        95.00000    1    1
C       1.649410590      2.304003767      2.475389692
C       3.170468146      2.529171418      2.373902120
H       1.213444666      3.187299236      2.499621061
H       1.128737831      1.262776807      2.354364042
H       3.589108310      3.644465002      2.523231923
H       3.996818112      1.675031386      2.200379053
           6
  t=        95.50000    1    1
C       1.650965385      2.305291732      2.489898649
C       3.193336041      2.555633185      2.381625848
H       1.232589921      3.282705909      2.480278150
H       1.172313827      1.243711456      2.392417926
H       3.634509995      3.588792335      2.580888664
H       3.959834023      1.685857122      2.221245396
           6
  t=        96.00000    1    1
C       1.654102170      2.306460058      2.504147052
C       3.215314548      2.581606464      2.389467390
H       1.247811146      3.378179454      2.462488380
H       1.218185614      1.231232309      2.430673094
H       3.677456625      3.529140103      2.636815424
H       3.918680414      1.701255572      2.243788133
           6
  t=        96.50000    1    1
C       1.658831621      2.308183888      2.518138194
C       3.236023628      2.606652384      2.397456818
H       1.260765610      3.467124715      2.446356465
H       1.265629002      1.225449571      2.468709430
H       3.719492182      3.470197782      2.691449582
H       3.875281441      1.720206905      2.267487727
           6
  t=        97.00000    1    1
C       1.665271706      2.310960794      2.531864991
C       3.254984362      2.630320166      2.405581638
H       1.271799989      3.545451432      2.431968970
H       1.313968273      1.226259942      2.506177733
H       3.762993588      3.417393749      2.746160440
H       3.831890177      1.740918714      2.291470804
           6
  t=        97.50000    1    1
C       1.673616113      2.315174437      2.545330773
C       3.271703017      2.652303239      2.413808081
H       1.280472646      3.610694845      2.419278855
H       1.362427268      1.233325687      2.542714464
H       3.810471358      3.374988024      2.802786742
H       3.790789153      1.761014887      2.314671897
           6
  t=        98.00000    1    1
C       1.684029813      2.321159903      2.558557999
C       3.285845783      2.672586803      2.422138903
H       1.286382732      3.661129344      2.408186778
H       1.410006088      1.245730830      2.577879649
H       3.863275714      3.344599132      2.862624589
H       3.754040724      1.777702079      2.336033750
           6
  t=        98.50000    1    1
C       1.696539016      2.329170001      2.571578617
C       3.297412644      2.691464837      2.430649198
H       1.289672715      3.695802397      2.398705595
H       1.455683843      1.261895370      2.611272067
H       3.920532775      3.324936955      2.925521960
H       3.723085065      1.788287590      2.354821288
           6
  t=        99.00000    1    1
C       1.711132339      2.339414160      2.584410573
C       3.306598003      2.709284095      2.439502556
H       1.290678671      3.714228656      2.390991178
H       1.498587166      1.280085955      2.642572429
H       3.979774414      3.313334997      2.989898265
H       3.698746799      1.791029305      2.370615398
           6
  t=        99.50000    1    1
C       1.727749337      2.352040499      2.597056028
C       3.313721364      2.726295794      2.448897928
H       1.289839679      3.716267164      2.385279138
H       1.538081722      1.298738555      2.671586604
H       4.037987778      3.307031992      3.053452201
H       3.681147151      1.785635143      2.383279497
           6
  t=       100.00000    1    1
C       1.746286510      2.367130484      2.609504491
C       3.319147858      2.742593446      2.459016128
H       1.287615168      3.701963399      2.381849640
H       1.573763279      1.316724653      2.698222813
H       4.092455243      3.303902869      3.113905427
H       3.669831074      1.773228220      2.392874046
           6
  t=       100.50000    1    1
C       1.766604500      2.384690026      2.621732143
C       3.323233350      2.758137821      2.469992599
H       1.284450326      3.671572866      2.381054559
H       1.605476268      1.333499717      2.722456392
H       4.141046918      3.302458158      3.169311340
H       3.664059000      1.755984049      2.399688360
           6
  t=       101.00000    1    1
C       1.788541253      2.404629275      2.633704355
C       3.326299754      2.772817385      2.481912522
H       1.280722796      3.625770694      2.383300914
H       1.633284027      1.349143579      2.744315799
H       4.182175044      3.301593857      3.218094993
H       3.663072847      1.736651310      2.404259525
           6
  t=       101.50000    1    1
C       1.811915895      2.426740989      2.645387871
C       3.328634184      2.786507005      2.494803586
H       1.276714038      3.565871932      2.388981275
H       1.657436318      1.364271491      2.763842533
H       4.214797649      3.300544595      3.259152722
H       3.666117450      1.718025530      2.407323507
           6
  t=       102.00000    1    1
C       1.836551127      2.450740113      2.656762826
C       3.330486044      2.799099921      2.508661664
H       1.272580302      3.493615975      2.398387516
H       1.678281565      1.379870709      2.781031899
H       4.238262751      3.298874317      3.291780122
H       3.672480959      1.702484860      2.409583398
           6
  t=       102.50000    1    1
C       1.862300152      2.476255176      2.667837617
C       3.332069556      2.810519575      2.523473664
H       1.268142802      3.411520970      2.411538833
H       1.696251686      1.397075594      2.795803369
H       4.252199421      3.296440106      3.315534926
H       3.681477748      1.691858267      2.411598724
           6
  t=       103.00000    1    1
C       1.889085728      2.502758898      2.678668517
C       3.333572025      2.820746313      2.539205981
H       1.262313655      3.323806601      2.427903000
H       1.711851611      1.416832786      2.808064096
H       4.256629279      3.293355488      3.330295717
H       3.692357655      1.687383009      2.413845888
           6
  t=       103.50000    1    1
C       1.916946071      2.529612301      2.689360145
C       3.335161792      2.829801014      2.555814382
H       1.252482307      3.236219562      2.446352756
H       1.725579141      1.439725308      2.817731291
H       4.251852562      3.289942730      3.336150372
H       3.704471955      1.689772161      2.416727524
           6
  t=       104.00000    1    1
C       1.946045312      2.556166520      2.700056246
C       3.336997083      2.837727537      2.573250712
H       1.234406242      3.154966690      2.465303358
H       1.737917166      1.465977756      2.824743205
H       4.238255216      3.286638267      3.333295266
H       3.717353211      1.699366892      2.420554730
           6
  t=       104.50000    1    1
C       1.976538925      2.581933813      2.710886659
C       3.339223064      2.844593118      2.591455340
H       1.203660897      3.084800183      2.483299921
H       1.749489264      1.495285980      2.829104827
H       4.216405490      3.283970568      3.322085360
H       3.730651834      1.716201334      2.425585840
           6
  t=       105.00000    1    1
C       2.008303350      2.606756355      2.721878135
C       3.341959007      2.850472105      2.610354480
H       1.158746946      3.027081701      2.499981963
H       1.761173239      1.526830411      2.830917846
H       4.187255571      3.282627280      3.303146563
H       3.744088257      1.740040409      2.432014222
           6
  t=       105.50000    1    1
C       2.040770486      2.630754310      2.732941518
C       3.345296866      2.855428897      2.629837694
H       1.102973473      2.979977180      2.516349500
H       1.773871195      1.559757464      2.830295791
H       4.152482076      3.283681222      3.277704576
H       3.757448294      1.770299743      2.439878915
           6
  t=       106.00000    1    1
C       2.073077644      2.654104388      2.743957980
C       3.349304951      2.859506450      2.649733807
H       1.042453945      2.941197810      2.533841563
H       1.788380586      1.593024709      2.827336635
H       4.114764547      3.288914376      3.247840866
H       3.770607031      1.805911136      2.449017040
           6
  t=       106.50000    1    1
C       2.104309787      2.676912633      2.754850160
C       3.354014869      2.862723368      2.669804282
H       0.983209252      2.909409442      2.553584393
H       1.805308936      1.625467669      2.822033208
H       4.077920510      3.300923971      3.216456262
H       3.783645193      1.845290729      2.459172803
           6
  t=       107.00000    1    1
C       2.133617827      2.699194189      2.765586765
C       3.359417377      2.865077530      2.689777267
H       0.929894686      2.884154258      2.576275083
H       1.824967555      1.656032906      2.814228172
H       4.046783396      3.323034053      3.186857951
H       3.796990333      1.886470560      2.470111486
           6
  t=       107.50000    1    1
C       2.160223683      2.720883783      2.776157842
C       3.365525964      2.866582133      2.709419329
H       0.885898543      2.865439857      2.602300928
H       1.847325030      1.683939637      2.803748200
H       4.026326666      3.358879661      3.162017213
H       3.811422767      1.927209276      2.481547915
           6
  t=       108.00000    1    1
C       2.183497368      2.741864490      2.786566683
C       3.372487911      2.867341310      2.728623490
H       0.853049959      2.853453448      2.631749953
H       1.872123647      1.708744359      2.790533715
H       4.019804872      3.411181836      3.143502988
H       3.827868264      1.965194551      2.493120201
           6
  t=       108.50000    1    1
C       2.202971946      2.762007492      2.796826219
C       3.380678626      2.867654612      2.747475915
H       0.832032683      2.848323817      2.664475017
H       1.899058255      1.730375586      2.774672425
H       4.026977731      3.480008037      3.130623236
H       3.847279122      1.998267253      2.504399025
           6
  t=       109.00000    1    1
C       2.218283044      2.781185945      2.806947449
C       3.390635771      2.868020621      2.766202629
H       0.823236258      2.850130868      2.700256143
H       1.927857697      1.749022647      2.756298945
H       4.044720463      3.562505024      3.121081904
H       3.870596904      2.024581852      2.514941499
           6
  t=       109.50000    1    1
C       2.229237067      2.799308216      2.816936613
C       3.402853727      2.869033128      2.785053701
H       0.827020841      2.858837909      2.738845383
H       1.958196369      1.764969682      2.735574556
H       4.068585567      3.653630398      3.112250899
H       3.898650479      2.042949771      2.524408284
           6
  t=       110.00000    1    1
C       2.235878729      2.816351008      2.826799939
C       3.417617770      2.871216196      2.804200700
H       0.843742398      2.874237355      2.779901488
H       1.989555309      1.778363503      2.712801756
H       4.094292542      3.747576462      3.102219127
H       3.931951274      2.053272502      2.532630652
           6
  t=       110.50000    1    1
C       2.238492435      2.832354297      2.836545368
C       3.434960104      2.874901068      2.823695973
H       0.873569273      2.895994623      2.822903043
H       2.021289806      1.789145504      2.688566961
H       4.118646246      3.839207447      3.090226364
H       3.970398199      2.056655672      2.539585473
           6
  t=       111.00000    1    1
C       2.237548878      2.847358558      2.846176280
C       3.454710193      2.880229090      2.843500179
H       0.916374681      2.923833645      2.867261786
H       2.052852569      1.797296230      2.663591971
H       4.139632951      3.924804465      3.076407777
H       4.013102489      2.054947200      2.545432522
           6
  t=       111.50000    1    1
C       2.233621271      2.861355256      2.855685813
C       3.476590711      2.887236667      2.863519083
H       0.971621787      2.957599377      2.912333712
H       2.084068066      1.803182029      2.638808610
H       4.156040750      4.001583345      3.061400116
H       4.058462728      2.050387830      2.550451866
           6
  t=       112.00000    1    1
C       2.227344202      2.874232070      2.865064874
C       3.500291450      2.895923546      2.883704544
H       1.038273363      2.997345415      2.958230917
H       2.114526686      1.807843102      2.613731540
H       4.167145522      4.067783312      3.045173047
H       4.104784655      2.044985950      2.555729084
           6
  t=       112.50000    1    1
C       2.219432211      2.885817390      2.874281957
C       3.525515669      2.906302299      2.904004980
H       1.114107733      3.043283482      3.005344176
H       2.143332124      1.812392170      2.587740707
H       4.172703760      4.122276255      3.027792783
H       4.150451434      2.040440273      2.562417262
           6
  t=       113.00000    1    1
C       2.210848861      2.896036778      2.883264575
C       3.551841669      2.918295745      2.924310938
H       1.194698340      3.095497448      3.053941236
H       2.169212591      1.817385467      2.561374033
H       4.173048257      4.164605489      3.010104010
H       4.194371900      2.038374027      2.571034002
           6
  t=       113.50000    1    1
C       2.202656426      2.904774550      2.891889654
C       3.578860030      2.931799112      2.944530689
H       1.273820534      3.154512595      3.104762943
H       2.191109453      1.823719144      2.535397149
H       4.168700571      4.194567680      2.992874925
H       4.235528590      2.040195993      2.581864162
           6
  t=       114.00000    1    1
C       2.195966238      2.911837090      2.899971396
C       3.606210099      2.946703338      2.964578951
H       1.343762213      3.221661799      3.159347970
H       2.208022505      1.832621356      2.510661231
H       4.160290967      4.212227637      2.976777122
H       4.273058746      2.046886931      2.595076383
           6
  t=       114.50000    1    1
C       2.191718110      2.916986735      2.907290803
C       3.633580125      2.962914677      2.984367718
H       1.398026732      3.298910719      3.219749015
H       2.218908871      1.845330492      2.488042605
H       4.148476498      4.217710501      2.962432147
H       4.306360994      2.059066621      2.610778250
           6
  t=       115.00000    1    1
C       2.190292921      2.920132627      2.913739147
C       3.660713090      2.980349782      3.003810330
H       1.435651818      3.387141786      3.286986345
H       2.222842346      1.862473179      2.468190793
H       4.133980881      4.211230397      2.950428037
H       4.335124232      2.077087648      2.629040138
           6
  t=       115.50000    1    1
C       2.191489247      2.921528915      2.919463821
C       3.687380554      2.998913979      3.022820475
H       1.461671684      3.484090365      3.359435255
H       2.219201992      1.883865789      2.451409307
H       4.117592328      4.193225535      2.941334066
H       4.359269109      2.101059818      2.649886143
           6
  t=       116.00000    1    1
C       2.194893824      2.921713253      2.924804659
C       3.713371975      3.018483397      3.041318602
H       1.482872484      3.584774524      3.433416559
H       2.207591607      1.908876221      2.437800841
H       4.100164129      4.164643499      2.935692956
H       4.378985427      2.130719083      2.673248561
           6
  t=       116.50000    1    1
C       2.200190100      2.921277093      2.930125659
C       3.738473325      3.038878451      3.059247657
H       1.504201733      3.684108572      3.505201380
H       2.187930175      1.936520434      2.427217936
H       4.082659292      4.127310370      2.933930983
H       4.394765925      2.165401403      2.698920030
           6
  t=       117.00000    1    1
C       2.207202830      2.920750714      2.935734771
C       3.762445129      3.059808984      3.076583370
H       1.528348160      3.778147712      3.571968138
H       2.160435472      1.965563210      2.419260617
H       4.066331707      4.084550226      2.936210213
H       4.407391838      2.204101512      2.726579802
           6
  t=       117.50000    1    1
C       2.215871940      2.920587167      2.941880072
C       3.784989700      3.080831219      3.093338062
H       1.556463652      3.864042802      3.631794612
H       2.125495245      1.994700503      2.413383031
H       4.052899462      4.041666312      2.942271954
H       4.417868437      2.245558856      2.755851811
           6
  t=       118.00000    1    1
C       2.226197365      2.921145859      2.948734276
C       3.805756600      3.101310631      3.109575133
H       1.588712024      3.939966046      3.683619796
H       2.083620828      2.022784349      2.409097837
H       4.044561602      4.006682933      2.951293481
H       4.427498007      2.288003078      2.786293663
           6
  t=       118.50000    1    1
C       2.238216837      2.922711430      2.956415474
C       3.824372623      3.120505573      3.125417561
H       1.624753219      4.004593457      3.726822513
H       2.035278876      2.049130285      2.406128425
H       4.043572757      3.989190360      2.961818975
H       4.437896706      2.329297930      2.817386496
           6
  t=       119.00000    1    1
C       2.251941764      2.925469778      2.964981815
C       3.840563690      3.137840267      3.141013797
H       1.663772874      4.057219095      3.761156045
H       1.981146967      2.073673005      2.404522979
H       4.051486456      3.996663782      2.972274391
H       4.450777693      2.367385152      2.848441085
           6
  t=       119.50000    1    1
C       2.267353555      2.929539959      2.974454497
C       3.854187436      3.153154475      3.156444054
H       1.704793220      4.097481256      3.786484755
H       1.922276152      2.096812267      2.404703428
H       4.068561233      4.031426749      2.981952630
H       4.467727063      2.400393827      2.878669881
           6
  t=       120.00000    1    1
C       2.284375776      2.934960059      2.984800991
C       3.865292173      3.166839930      3.171673228
H       1.747011896      4.125303614      3.802827336
H       1.860087524      2.119367532      2.407426599
H       4.093359588      4.089170645      2.991522563
H       4.489898671      2.426767886      2.907434355
           6
  t=       120.50000    1    1
C       2.302879063      2.941712309      2.995944220
C       3.874076831      3.179575001      3.186597607
H       1.789927301      4.140709800      3.810247838
H       1.796222689      2.142426468      2.413689970
H       4.123403736      4.161710854      3.002425908
H       4.517801359      2.445709128      2.934385487
           6
  t=       121.00000    1    1
C       2.322688531      2.949762404      3.007791865
C       3.880837347      3.191987626      3.201101106
H       1.833281881      4.143660292      3.808720324
H       1.732509008      2.167180907      2.424586484
H       4.156040655      4.240376532      3.016066204
H       4.551075953      2.457662552      2.959536046
           6
  t=       121.50000    1    1
C       2.343582815      2.959073811      3.020265429
C       3.885930366      3.204484995      3.215080912
H       1.877017800      4.134187873      3.798177417
H       1.671020330      2.194730741      2.441030291
H       4.188933954      4.317755384      3.033394759
H       4.588430859      2.464491146      2.983248340
           6
  t=       122.00000    1    1
C       2.365322836      2.969616665      3.033319615
C       3.889702222      3.217228963      3.228457921
H       1.921249409      4.112405571      3.778532530
H       1.613928006      2.225928863      2.463601778
H       4.220330285      4.388944927      3.054850156
H       4.628055707      2.468558733      3.006072332
           6
  t=       122.50000    1    1
C       2.387677521      2.981350217      3.046926385
C       3.892465680      3.230241964      3.241179287
H       1.966174834      4.078871955      3.749945894
H       1.563266442      2.261159533      2.492444312
H       4.248932285      4.451048324      3.080555471
H       4.668041912      2.472037549      3.028545103
           6
  t=       123.00000    1    1
C       2.410451149      2.994210001      3.061050236
C       3.894500279      3.243491251      3.253217773
H       2.011823355      4.034883112      3.713097448
H       1.520725387      2.300264003      2.527284443
H       4.273798314      4.502228895      3.110419253
H       4.706613355      2.476785297      3.051099250
           6
  t=       123.50000    1    1
C       2.433491689      3.008105777      3.075636763
C       3.896057392      3.256931360      3.264569758
H       2.057909934      3.982295405      3.669073704
H       1.487607092      2.342782584      2.567663253
H       4.294252317      4.541249989      3.144211533
H       4.742245114      2.484258966      3.074028525
           6
  t=       124.00000    1    1
C       2.456690707      3.022876365      3.090587297
C       3.897363391      3.270502043      3.275254853
H       2.103665968      3.923817651      3.619446988
H       1.464911046      2.388177931      2.613115170
H       4.309870382      4.567558854      3.181620047
H       4.773724960      2.495478283      3.097480499
           6
  t=       124.50000    1    1
C       2.480029881      3.038160102      3.105697321
C       3.898639553      3.284122989      3.285313095
H       2.147100076      3.864547902      3.567038886
H       1.453440927      2.435917149      2.663167117
H       4.320405103      4.581182064      3.222262641
H       4.800069595      2.511117945      3.121448680
           6
  t=       125.00000    1    1
C       2.503641870      3.053246045      3.120586839
C       3.900115789      3.297713356      3.294799782
H       2.184254155      3.814105090      3.516999575
H       1.453794293      2.485174832      2.717115221
H       4.325663159      4.582406458      3.265659295
H       4.820512661      2.531532253      3.145835811
           6
  t=       125.50000    1    1
C       2.527856409      3.067057365      3.134729166
C       3.902002279      3.311210827      3.303776761
H       2.208927331      3.786608412      3.476300363
H       1.466287782      2.534898543      2.774157716
H       4.325621224      4.571698589      3.311283420
H       4.834528256      2.556761564      3.170537769
           6
  t=       126.00000    1    1
C       2.553028036      3.078571387      3.147728792
C       3.904467731      3.324597053      3.312323657
H       2.214966880      3.795082055      3.450010231
H       1.490837364      2.584048366      2.833613461
H       4.320505986      4.549684162      3.358686502
H       4.841891610      2.586600405      3.195379236
           6
  t=       126.50000    1    1
C       2.579170790      3.087625541      3.159672979
C       3.907640868      3.337886390      3.320538387
H       2.201207676      3.842451975      3.437320456
H       1.526614638      2.631095849      2.894697294
H       4.310582616      4.517152299      3.407559388
H       4.842629985      2.620628237      3.220056678
           6
  t=       127.00000    1    1
C       2.605823890      3.095073482      3.171034637
C       3.911635336      3.351095373      3.328523502
H       2.172841504      3.919737480      3.432992988
H       1.571781991      2.674023181      2.956388852
H       4.296241406      4.475460592      3.457572486
H       4.837135250      2.658117066      3.244301143
           6
  t=       127.50000    1    1
C       2.632306417      3.102197886      3.182323692
C       3.916524324      3.364220234      3.336378517
H       2.138021139      4.012408337      3.431334911
H       1.623656481      2.710919986      3.017677541
H       4.278317225      4.426891024      3.508389767
H       4.826344238      2.697986459      3.267890239
           6
  t=       128.00000    1    1
C       2.658013545      3.109991324      3.193839439
C       3.922398280      3.377203033      3.344199695
H       2.103471566      4.109272352      3.428948308
H       1.679242306      2.739927014      3.077700829
H       4.257744159      4.374920705      3.559897802
H       4.811722805      2.738674008      3.290484518
           6
  t=       128.50000    1    1
C       2.682623336      3.119102185      3.205688266
C       3.929259483      3.389896897      3.352017634
H       2.073048855      4.203398318      3.425294730
H       1.735317089      2.759283894      3.135393408
H       4.235685381      4.324782527      3.611867977
H       4.795283086      2.777662476      3.312284057
           6
  t=       129.00000    1    1
C       2.706355666      3.129768518      3.217841957
C       3.936754359      3.402070698      3.359815784
H       2.047805234      4.291939733      3.419924300
H       1.788097677      2.768297123      3.191004805
H       4.213826601      4.282250592      3.665498601
H       4.779663364      2.812635311      3.332824307
           6
  t=       129.50000    1    1
C       2.729320275      3.142176353      3.230253548
C       3.944626099      3.413464958      3.367538493
H       2.028384484      4.373258005      3.412281447
H       1.833725778      2.765678751      3.244949727
H       4.194044417      4.253162074      3.723007126
H       4.767953983      2.841557051      3.351251461
           6
  t=       130.00000    1    1
C       2.751418184      3.156399647      3.242854075
C       3.952811707      3.423964691      3.375082173
H       2.014813870      4.446335090      3.402852185
H       1.869785656      2.750628622      3.297171930
H       4.177653544      4.241884581      3.786039565
H       4.763158745      2.862367187      3.367545765
           6
  t=       130.50000    1    1
C       2.772388225      3.172290833      3.255565299
C       3.961407853      3.433720782      3.382426490
H       2.006429724      4.511279074      3.392136052
H       1.896258583      2.723598067      3.347667035
H       4.165056269      4.249223544      3.855301401
H       4.767517868      2.873661331      3.381681152
           6
  t=       131.00000    1    1
C       2.791801082      3.189575337      3.268332496
C       3.970681615      3.443129760      3.389722535
H       2.002485022      4.567946873      3.380520797
H       1.915283608      2.686630971      3.396181213
H       4.155936721      4.272230525      3.929560012
H       4.781888353      2.875033941      3.393608054
           6
  t=       131.50000    1    1
C       2.809147182      3.207963719      3.281141178
C       3.981014886      3.452647520      3.397261326
H       2.002559473      4.615791764      3.368210748
H       1.930140234      2.642556296      3.442159766
H       4.149723571      4.305770124      4.005957996
H       4.805503750      2.867354769      3.403239189
           6
  t=       132.00000    1    1
C       2.823930215      3.227181421      3.294010328
C       3.992840998      3.462637695      3.405365940
H       2.006559160      4.654416421      3.355341875
H       1.944388806      2.594218761      3.484864056
H       4.145987377      4.344129323      4.080876006
H       4.836077463      2.852828038      3.410720723
           6
  t=       132.50000    1    1
C       2.835774227      3.246986607      3.306977012
C       4.006554569      3.473287822      3.414281018
H       2.014500965      4.683358105      3.342077889
H       1.961068561      2.544475671      3.523534908
H       4.144694284      4.382523880      4.151060709
H       4.870364847      2.834490422      3.416544702
           6
  t=       133.00000    1    1
C       2.844504336      3.267193059      3.320073246
C       4.022414329      3.484612894      3.424130048
H       2.026425687      4.702103562      3.328635204
H       1.982219858      2.495883280      3.557587280
H       4.145836932      4.418476087      4.214650979
H       4.905293002      2.814816928      3.421087947
           6
  t=       133.50000    1    1
C       2.850151409      3.287680521      3.333309858
C       4.040503099      3.496545395      3.434963302
H       2.042438465      4.710135515      3.315332926
H       2.008945161      2.450480844      3.586677125
H       4.149336332      4.450925038      4.270677352
H       4.938378633      2.795583867      3.424616815
           6
  t=       134.00000    1    1
C       2.852912970      3.308381222      3.346679571
C       4.060737637      3.508998956      3.446795743
H       2.062660700      4.706971013      3.302585388
H       2.041694568      2.409852353      3.610647715
H       4.155201675      4.479140041      4.318422935
H       4.967679319      2.778257602      3.427499000
           6
  t=       134.50000    1    1
C       2.853105799      3.329253462      3.360170427
C       4.082907384      3.521896356      3.459624426
H       2.087139819      4.692269120      3.290854455
H       2.080506689      2.375239801      3.629424934
H       4.163524151      4.502449530      4.357229410
H       4.991752121      2.764025669      3.430182685
           6
  t=       135.00000    1    1
C       2.851116996      3.350267701      3.373774326
C       4.106712411      3.535180638      3.473435998
H       2.115881789      4.665804780      3.280599599
H       2.125154132      2.347638276      3.642957580
H       4.174426225      4.520249144      4.386499925
H       5.009657308      2.753753045      3.433112045
           6
  t=       135.50000    1    1
C       2.847344834      3.371420185      3.387482768
C       4.131796997      3.548811847      3.488207600
H       2.149083520      4.627203733      3.272278332
H       2.175239117      2.327824209      3.651223509
H       4.188038044      4.532092842      4.405783238
H       5.020958554      2.748004444      3.436676618
           6
  t=       136.00000    1    1
C       2.842169243      3.392719723      3.401280011
C       4.157784842      3.562761086      3.503908832
H       2.187060493      4.576088181      3.266375321
H       2.230254091      2.316353502      3.654236573
H       4.204498187      4.537743168      4.414793849
H       5.025666114      2.747078569      3.441213228
           6
  t=       136.50000    1    1
C       2.836009883      3.414105910      3.415150540
C       4.184295912      3.577004493      3.520494156
H       2.229487674      4.513135830      3.263292505
H       2.289490874      2.313496465      3.652052985
H       4.223992533      4.537247830      4.413499074
H       5.024155149      2.750983787      3.447023870
           6
  t=       137.00000    1    1
C       2.829348022      3.435415136      3.429083797
C       4.210952406      3.591521438      3.537905005
H       2.275145993      4.440323185      3.263204162
H       2.352009023      2.319331081      3.644788184
H       4.246816819      4.530990594      4.402224267
H       5.017056556      2.759477207      3.454317162
           6
  t=       137.50000    1    1
C       2.822761375      3.456328793      3.443084235
C       4.237359503      3.606307567      3.556063640
H       2.321747076      4.361542548      3.265893748
H       2.416613233      2.333657882      3.632692918
H       4.273310868      4.519744072      4.381728775
H       5.005334881      2.771941678      3.463172782
           6
  t=       138.00000    1    1
C       2.816995318      3.476198382      3.457213872
C       4.263128378      3.621392244      3.574891493
H       2.364864250      4.284518728      3.270216537
H       2.481853699      2.356114888      3.616164663
H       4.303870166      4.504432773      4.353012815
H       4.990222568      2.787467284      3.473534976
           6
  t=       138.50000    1    1
C       2.813053672      3.493909152      3.471694912
C       4.287861440      3.636803507      3.594281377
H       2.396820419      4.222859785      3.273105533
H       2.546084312      2.385828818      3.595598289
H       4.339004386      4.486602461      4.317567495
H       4.973309513      2.804722387      3.485214263
           6
  t=       139.00000    1    1
C       2.812161264      3.508022949      3.486950385
C       4.311165041      3.652498877      3.614062867
H       2.406932178      4.194703858      3.269067364
H       2.607491356      2.421247685      3.571363389
H       4.379455933      4.468907988      4.277739996
H       4.956446388      2.822108733      3.497977280
           6
  t=       139.50000    1    1
C       2.815058359      3.517984231      3.503296629
C       4.332726538      3.668310841      3.634005805
H       2.389280249      4.208649975      3.253814706
H       2.664423078      2.460019447      3.543811777
H       4.426081363      4.455372735      4.236764510
H       4.941252250      2.837971647      3.511498454
           6
  t=       140.00000    1    1
C       2.821682386      3.524647793      3.520683409
C       4.352288778      3.683908895      3.653809013
H       2.346749445      4.257969325      3.227640497
H       2.715642398      2.498818079      3.513194547
H       4.479681893      4.451559948      4.198700907
H       4.929087872      2.850555425      3.525361211
           6
  t=       140.50000    1    1
C       2.831320073      3.529811268      3.538684082
C       4.369644118      3.698856485      3.673160422
H       2.289175695      4.326008942      3.195657247
H       2.760410324      2.533460531      3.479579686
H       4.541032657      4.463766500      4.167525718
H       4.921054508      2.858181045      3.539210736
           6
  t=       141.00000    1    1
C       2.843182746      3.535107249      3.556844271
C       4.384654788      3.712828626      3.691890819
H       2.226082355      4.398412998      3.163531198
H       2.798653652      2.559754615      3.442834551
H       4.610951550      4.495887097      4.145126349
H       4.917923342      2.859920800      3.553056578
           6
  t=       141.50000    1    1
C       2.856696154      3.541535898      3.574882322
C       4.397281342      3.725852201      3.710047051
H       2.163938879      4.466677249      3.135134871
H       2.830837935      2.575144880      3.402658234
H       4.689558315      4.546684901      4.130309229
H       4.919952195      2.855833247      3.567318546
           6
  t=       142.00000    1    1
C       2.871515453      3.549513862      3.592640723
C       4.407673594      3.738298664      3.727818228
H       2.106715490      4.526459232      3.112647128
H       2.857361486      2.579459232      3.359041023
H       4.775299178      4.610226063      4.119995921
H       4.926650252      2.846976078      3.582529412
           6
  t=       142.50000    1    1
C       2.887477773      3.559060704      3.610020304
C       4.416154697      3.750642549      3.745410570
H       2.056648774      4.575808386      3.097092019
H       2.878322692      2.574661897      3.312432100
H       4.864980104      4.678816497      4.110981789
H       4.936966680      2.835142196      3.599145017
           6
  t=       143.00000    1    1
C       2.904482142      3.569976667      3.626916022
C       4.423096748      3.763248382      3.762959182
H       2.015258487      4.613695724      3.088938005
H       2.893729721      2.564267100      3.263835922
H       4.955110474      4.745993197      4.101164924
H       4.949633540      2.822346031      3.617436145
           6
  t=       143.50000    1    1
C       2.922431966      3.581950371      3.643208508
C       4.428842529      3.776314353      3.780507255
H       1.983561879      4.639802131      3.088284460
H       2.903791298      2.552402190      3.214805500
H       5.042715600      4.807431465      4.089642690
H       4.963466037      2.810452801      3.637560759
           6
  t=       144.00000    1    1
C       2.941222366      3.594684725      3.658777854
C       4.433688872      3.789925494      3.798044199
H       1.962194398      4.654245889      3.095057897
H       2.909023874      2.542803527      3.167115625
H       5.125267726      4.860202537      4.076139800
H       4.977552803      2.801063432      3.659647806
           6
  t=       144.50000    1    1
C       2.960741035      3.607950486      3.673525294
C       4.437877485      3.804078124      3.815531953
H       1.951393099      4.657454518      3.109055588
H       2.910217536      2.538281527      3.122406729
H       5.200866260      4.902610676      4.060766313
H       4.991225360      2.795411192      3.683779903
           6
  t=       145.00000    1    1
C       2.980858879      3.621585512      3.687377660
C       4.441618367      3.818710338      3.832919867
H       1.951102091      4.650065351      3.129991228
H       2.908305087      2.540700262      3.082069658
H       5.268183709      4.933875413      4.043861292
H       5.003970282      2.794444785      3.709988843
           6
  t=       145.50000    1    1
C       3.001439872      3.635487796      3.700267630
C       4.445096411      3.833732881      3.850162516
H       1.961278942      4.632690933      3.157652292
H       2.904153598      2.551193126      3.047277071
H       5.326220820      4.953747769      4.025835864
H       5.015379869      2.798946324      3.738246811
           6
  t=       146.00000    1    1
C       3.022338577      3.649598991      3.712131119
C       4.448485004      3.849041065      3.867231144
H       1.981895623      4.605988842      3.191888422
H       2.898550211      2.570250860      3.018983555
H       5.374238127      4.962444340      4.007114629
H       5.025101455      2.809493500      3.768431242
           6
  t=       146.50000    1    1
C       3.043401838      3.663887611      3.722906152
C       4.451949350      3.864527138      3.884113221
H       2.012919007      4.570731616      3.232589637
H       2.892241065      2.597829534      2.997978808
H       5.411718414      4.960560214      3.988136699
H       5.032795659      2.826421770      3.800311074
           6
  t=       147.00000    1    1
C       3.064462838      3.678333685      3.732528444
C       4.455652258      3.880097530      3.900807799
H       2.054385282      4.527784646      3.279697091
H       2.885964687      2.633537464      2.984972367
H       5.438258371      4.948867789      3.969353863
H       5.038138844      2.849837955      3.833561139
           6
  t=       147.50000    1    1
C       3.085345218      3.692905302      3.740942272
C       4.459759282      3.895694711      3.917318593
H       2.106318019      4.478225345      3.333107821
H       2.880441590      2.676747971      2.980605390
H       5.453473368      4.928131032      3.951245766
H       5.040900322      2.879593068      3.867783300
           6
  t=       148.00000    1    1
C       3.105912367      3.707530232      3.748123252
C       4.464428531      3.911311106      3.933649681
H       2.168250657      4.423714691      3.392472667
H       2.876342206      2.726576097      2.985392855
H       5.456950705      4.899024399      3.934343682
H       5.041032740      2.915187577      3.902522410
           6
  t=       148.50000    1    1
C       3.126132580      3.722103026      3.754127529
C       4.469781464      3.926975893      3.949810415
H       2.238414458      4.366744634      3.456940405
H       2.874208488      2.781707187      2.999350042
H       5.448554825      4.862405057      3.919170068
H       5.038828975      2.955495876      3.937311535
           6
  t=       149.00000    1    1
C       3.146128346      3.736468231      3.759090840
C       4.475892920      3.942733993      3.965804611
H       2.313218401      4.311016573      3.525224949
H       2.874542677      2.840345511      3.021995770
H       5.428377520      4.819330694      3.906229404
H       5.034934701      2.998871610      3.971750597
           6
  t=       149.50000    1    1
C       3.166297036      3.750334056      3.763253194
C       4.482786885      3.958643485      3.981623052
H       2.385942624      4.262317025      3.595468468
H       2.877630892      2.900130203      3.052228043
H       5.396937388      4.771241482      3.896037794
H       5.030244318      3.043233842      4.005533249
           6
  t=       150.00000    1    1
C       3.187405892      3.763244126      3.766918063
C       4.490389280      3.974760785      3.997265514
H       2.445811845      4.228596499      3.665561713
H       2.883392734      2.958409626      3.088434197
H       5.355588651      4.720342434      3.888999804
H       5.025999779      3.085844443      4.038363454
           6
  t=       150.50000    1    1
C       3.210376469      3.774768015      3.770308470
C       4.498475451      3.991057130      4.012762200
H       2.480420920      4.218178774      3.734774729
H       2.891384512      3.011951314      3.128468407
H       5.307214615      4.670253146      3.885229641
H       5.023862579      3.123464060      4.069985444
           6
  t=       151.00000    1    1
C       3.235572124      3.784933554      3.773520680
C       4.506681847      4.007333038      4.028180108
H       2.484194394      4.234673573      3.804741421
H       2.900626246      3.056651394      3.169328559
H       5.256919470      4.626373332      3.884358836
H       5.025286249      3.153232477      4.100190467
           6
  t=       151.50000    1    1
C       3.262503122      3.794322259      3.776670623
C       4.514507075      4.023168064      4.043635091
H       2.461820511      4.275038383      3.877276837
H       2.909555812      3.088318570      3.207668723
H       5.212400724      4.595964122      3.885283014
H       5.031257147      3.173203059      4.128851960
           6
  t=       152.00000    1    1
C       3.290079430      3.803818040      3.779984385
C       4.521392599      4.037954050      4.059294126
H       2.425018542      4.331638076      3.952112067
H       2.916409824      3.103701398      3.240948526
H       5.182968488      4.587434450      3.886179540
H       5.042153072      3.182567726      4.155918218
           6
  t=       152.50000    1    1
C       3.317223449      3.814123379      3.783679814
C       4.527030705      4.051120946      4.075337361
H       2.384742556      4.396950995      4.027186942
H       2.919852584      3.101548809      3.268374274
H       5.175779773      4.607270351      3.885208723
H       5.057705577      3.182035128      4.181340407
           6
  t=       153.00000    1    1
C       3.343088776      3.825539888      3.787827205
C       4.531741571      4.062493775      4.091857883
H       2.348103333      4.465606119      4.100152507
H       2.919632077      3.083129737      3.290942651
H       5.191090456      4.655947173      3.881866857
H       5.077070370      3.173723058      4.205027692
           6
  t=       153.50000    1    1
C       3.367030238      3.837987045      3.792331537
C       4.536434568      4.072397163      4.108805897
H       2.318808789      4.534310409      4.169177554
H       2.916806860      3.052038497      3.310921082
H       5.222239523      4.727515157      3.877577224
H       5.098993866      3.160371355      4.226846168
           6
  t=       154.00000    1    1
C       3.388545172      3.851157217      3.797004931
C       4.542197940      4.081413421      4.126050462
H       2.298358557      4.601045366      4.233027832
H       2.913181543      3.013250534      3.330993588
H       5.260246276      4.813110190      3.874755565
H       5.122174952      3.144614194      4.246729258
           6
  t=       154.50000    1    1
C       3.407285584      3.864690509      3.801660235
C       4.549905746      4.090059473      4.143481916
H       2.286829375      4.664755703      4.291019528
H       2.910474487      2.971522897      3.353304806
H       5.298067919      4.904628163      3.875535686
H       5.145592906      3.128982825      4.264619107
           6
  t=       155.00000    1    1
C       3.423055013      3.878278992      3.806167052
C       4.560126750      4.098701027      4.161041686
H       2.283726992      4.724971360      4.342811167
H       2.909943295      2.930632988      3.379112305
H       5.331179633      4.995916350      3.881294484
H       5.168572927      3.115634135      4.280474380
           6
  t=       155.50000    1    1
C       3.435836876      3.891696437      3.810458718
C       4.573105076      4.107551079      4.178709701
H       2.288465383      4.781341949      4.388287087
H       2.912391350      2.893530134      3.408997357
H       5.357222554      5.083151711      3.892499394
H       5.190545247      3.105949935      4.294395574
           6
  t=       156.00000    1    1
C       3.445738260      3.904811452      3.814536449
C       4.588853888      4.116697731      4.196470225
H       2.300561529      4.833427221      4.427359282
H       2.918267494      2.862343496      3.443121092
H       5.375338258      5.163917962      3.909177951
H       5.210969567      3.101173419      4.306455042
           6
  t=       156.50000    1    1
C       3.452992191      3.917585711      3.818470037
C       4.607204327      4.126162932      4.214277801
H       2.319591784      4.880764231      4.459948297
H       2.927689202      2.838388854      3.481322318
H       5.385412896      5.236551662      3.931193244
H       5.229501333      3.102310317      4.316740371
           6
  t=       157.00000    1    1
C       3.457917045      3.930051608      3.822387158
C       4.627857403      4.135938916      4.232052993
H       2.345276959      4.922842841      4.485936778
H       2.940607519      2.822450421      3.523221936
H       5.387633466      5.299843008      3.958303199
H       5.246050685      3.110002937      4.325415259
           6
  t=       157.50000    1    1
C       3.460883939      3.942285363      3.826458305
C       4.650420037      4.146011369      4.249691116
H       2.377530743      4.959075227      4.505132218
H       2.956910187      2.815033015      3.568326291
H       5.382307286      5.352851043      3.990194143
H       5.260770572      3.124537543      4.332695418
           6
  t=       158.00000    1    1
C       3.462274044      3.954383976      3.830875630
C       4.674455499      4.156382347      4.267078132
H       2.416450739      4.988764246      4.517258394
H       2.976446625      2.816508492      3.616089464
H       5.369786915      5.394788678      4.026510296
H       5.274023437      3.145846230      4.338827974
           6
  t=       158.50000    1    1
C       3.462439539      3.966450181      3.835831987
C       4.699531832      4.167086700      4.284107046
H       2.462237760      5.011136851      4.521972755
H       2.999014247      2.827118959      3.665946963
H       5.350472533      5.424990417      4.066889102
H       5.286361474      3.173486003      4.344059448
           6
  t=       159.00000    1    1
C       3.461683088      3.978588611      3.841503980
C       4.725254697      4.178199933      4.300688686
H       2.515033244      5.025430933      4.518929036
H       3.024321422      2.846869022      3.717319750
H       5.324860316      5.442923878      4.110977036
H       5.298531059      3.206600282      4.348626902
           6
  t=       159.50000    1    1
C       3.460256582      3.990916797      3.848047691
C       4.751276699      4.189837703      4.316751066
H       2.574788918      5.030940896      4.507803722
H       3.051954924      2.875380178      3.769620708
H       5.293584147      5.448168696      4.158449145
H       5.311497853      3.243914952      4.352763807
           6
  t=       160.00000    1    1
C       3.458380947      4.003593483      3.855608932
C       4.777274366      4.202140279      4.332233087
H       2.641284421      5.027007324      4.488256768
H       3.081315855      2.911646024      3.822243851
H       5.257450460      5.440482320      4.209005337
H       5.326496521      3.283775437      4.356706902
           6
  t=       160.50000    1    1
C       3.456305212      4.016815031      3.864314228
C       4.802897937      4.215211506      4.347081005
H       2.713928341      5.013407085      4.460135670
H       3.111537063      2.953718370      3.874563148
H       5.217620035      5.420432200      4.262312743
H       5.345025176      3.324208443      4.360700356
           6
  t=       161.00000    1    1
C       3.454362633      4.030793233      3.874293705
C       4.827727216      4.229098026      4.361226647
H       2.791622662      4.990319052      4.423388892
H       3.141505537      2.999151968      3.926013047
H       5.175542666      5.389235715      4.318053181
H       5.368880987      3.363183546      4.364941210
           6
  t=       161.50000    1    1
C       3.453000922      4.045716136      3.885633170
C       4.851268314      4.243746853      4.374618339
H       2.872575136      4.958686991      4.378466180
H       3.169937837      3.044999781      3.976109746
H       5.133054289      5.349108918      4.375744183
H       5.399853933      3.398878631      4.369539295
           6
  t=       162.00000    1    1
C       3.452817351      4.061678400      3.898364349
C       4.872969633      4.258963501      4.387214854
H       2.953958714      4.921071961      4.326654942
H       3.195419234      3.087596478      4.024277146
H       5.092462130      5.303635672      4.434755248
H       5.439334346      3.430003586      4.374527000
           6
  t=       162.50000    1    1
C       3.454523911      4.078464540      3.912348549
C       4.892389980      4.274361879      4.398961988
H       3.031174383      4.883219231      4.270757663
H       3.216217142      3.123030296      4.070117542
H       5.056520122      5.258559354      4.494914562
H       5.487673144      3.456149719      4.379969845
           6
  t=       163.00000    1    1
C       3.458904865      4.095276013      3.927197130
C       4.909288020      4.289252237      4.409765715
H       3.097465838      4.856275685      4.215503407
H       3.230889690      3.148673127      4.113686084
H       5.027831982      5.221985283      4.557114052
H       5.543995408      3.478426953      4.385943003
           6
  t=       163.50000    1    1
C       3.466763837      4.110747656      3.942441411
C       4.923606087      4.302798606      4.419494668
H       3.144842075      4.856627698      4.166121962
H       3.238717337      3.163753658      4.155120866
H       5.008116043      5.202129484      4.623160557
H       5.606404779      3.499232171      4.392421718
           6
  t=       164.00000    1    1
C       3.478442515      4.123730616      3.957875284
C       4.935549715      4.314449269      4.428090170
H       3.168523143      4.896150538      4.124126994
H       3.239769168      3.169548762      4.194376484
H       4.998039609      5.203692653      4.694919405
H       5.672424308      3.520975958      4.399227513
           6
  t=       164.50000    1    1
C       3.493671969      4.134018636      3.973631929
C       4.945433252      4.324207199      4.435608995
H       3.170400500      4.974309773      4.086976774
H       3.234378616      3.168154845      4.231118934
H       4.997087139      5.226253959      4.773150207
H       5.739803430      3.544939473      4.406213043
           6
  t=       165.00000    1    1
C       3.511644854      4.142500309      3.989930967
C       4.953689191      4.332601267      4.442295549
H       3.158240694      5.076884936      4.051344143
H       3.223325883      3.162146777      4.264830466
H       5.003566112      5.264128596      4.856183927
H       5.806154560      3.571563049      4.413363068
           6
  t=       165.50000    1    1
C       3.531540684      4.150407381      4.006880962
C       4.960825103      4.340310252      4.448478770
H       3.139414150      5.186282601      4.015760470
H       3.207821216      3.154286290      4.294979859
H       5.015398654      5.308998407      4.940499477
H       5.868703483      3.601231352      4.420985412
           6
  t=       166.00000    1    1
C       3.552833147      4.158494455      4.024499916
C       4.967214054      4.347840232      4.454461507
H       3.118016002      5.291530080      3.980224671
H       3.189132014      3.146984897      4.320978014
H       5.031081436      5.354195664      5.022643416
H       5.925417021      3.634151419      4.429300548
           6
  t=       166.50000    1    1
C       3.575140233      4.167096468      4.042729432
C       4.973129196      4.355499606      4.460488617
H       3.096523409      5.386921921      3.945454056
H       3.168540160      3.142279145      4.342402413
H       5.049500723      5.395752141      5.100049721
H       5.974946994      3.670294615      4.438357881
           6
  t=       167.00000    1    1
C       3.598175619      4.176356337      4.061495215
C       4.978789670      4.363480551      4.466761525
H       3.076572136      5.469053409      3.912290317
H       3.147196963      3.142042765      4.358899444
H       5.069822187      5.431277931      5.170825182
H       6.016141168      3.709588927      4.448047725
           6
  t=       167.50000    1    1
C       3.621696104      4.186317166      4.080704873
C       4.984382892      4.371893130      4.473442354
H       3.059205885      5.536239145      3.881421645
H       3.126111874      3.147505042      4.370335445
H       5.091453831      5.459641510      5.233836544
H       6.048203088      3.751796938      4.458117916
           6
  t=       168.00000    1    1
C       3.645538464      4.196904195      4.100274282
C       4.990053905      4.380796793      4.480652315
H       3.044705799      5.588778664      3.853240031
H       3.106136104      3.159256107      4.376747280
H       5.114042359      5.480428097      5.288467174
H       6.070570370      3.796626159      4.468314282
           6
  t=       168.50000    1    1
C       3.669571434      4.207984276      4.120132541
C       4.995920944      4.390226196      4.488474018
H       3.032889431      5.628085735      3.827943782
H       3.088032061      3.177468040      4.378242196
H       5.137309451      5.493726997      5.334415388
H       6.083096593      3.843575071      4.478493470
           6
  t=       169.00000    1    1
C       3.693650330      4.219448865      4.140208170
C       5.002078779      4.400216905      4.496966490
H       3.023740665      5.655428201      3.805803175
H       3.072504331      3.202138322      4.374984335
H       5.160851863      5.499867626      5.371469788
H       6.086091338      3.891918481      4.488580835
           6
  t=       169.50000    1    1
C       3.717597443      4.231228647      4.160420832
C       5.008609241      4.410823964      4.506183031
H       3.017540771      5.671603587      3.787251063
H       3.060177208      3.233182152      4.367163482
H       5.184116818      5.499258180      5.399380960
H       6.080344217      3.940705546      4.498525309
           6
  t=       170.00000    1    1
C       3.741211208      4.243276105      4.180682945
C       5.015577001      4.422122628      4.516176110
H       3.014671780      5.677165071      3.772775155
H       3.051559769      3.270420372      4.354993737
H       5.206517723      5.492335902      5.417911526
H       6.067181942      3.988794478      4.508280877
           6
  t=       170.50000    1    1
C       3.764279134      4.255560109      4.200902421
C       5.023016116      4.434203610      4.526998023
H       3.015485601      5.672550548      3.762825640
H       3.047020358      3.313552372      4.338716782
H       5.227529960      5.479547123      5.426899212
H       6.048535011      4.034891672      4.517792048
           6
  t=       171.00000    1    1
C       3.786587973      4.268074843      4.220983891
C       5.030914346      4.447170181      4.538699984
H       3.020303568      5.658075224      3.757815664
H       3.046774083      3.362092397      4.318593358
H       5.246699320      5.461383749      5.426284353
H       6.027008062      4.077514557      4.526970784
           6
  t=       171.50000    1    1
C       3.807925039      4.280851953      4.240825028
C       5.039207253      4.461136682      4.551331957
H       3.029447777      5.633985123      3.758130044
H       3.050838290      3.415177190      4.294918583
H       5.263597735      5.438540587      5.416214734
H       6.005991796      4.114846001      4.535613273
           6
  t=       172.00000    1    1
C       3.828080220      4.293961944      4.260312853
C       5.047798630      4.476219634      4.564939925
H       3.043209294      5.600668613      3.764113155
H       3.058980346      3.471329899      4.268040651
H       5.277860215      5.411994394      5.397104351
H       5.989442813      4.144769208      4.543411261
           6
  t=       172.50000    1    1
C       3.846855042      4.307491587      4.279327259
C       5.056616888      4.492512014      4.579558548
H       3.061752331      5.558767558      3.776076185
H       3.070732146      3.528609724      4.238305880
H       5.289321431      5.382902325      5.369566736
H       5.981048294      4.165284134      4.550111884
           6
  t=       173.00000    1    1
C       3.864078651      4.321519876      4.297756205
C       5.065677803      4.510033322      4.595188848
H       3.085084092      5.509047497      3.794343674
H       3.085457140      3.585052344      4.205931056
H       5.298001131      5.352847471      5.334578456
H       5.983265696      4.174832851      4.555520098
           6
  t=       173.50000    1    1
C       3.879615736      4.336126009      4.315504685
C       5.075117168      4.528637632      4.611739582
H       3.113232899      5.452346526      3.819240262
H       3.102389940      3.638686060      4.171028377
H       5.304247863      5.324421777      5.294055005
H       5.996477809      4.172752108      4.559502865
           6
  t=       174.00000    1    1
C       3.893365644      4.351413297      4.332489275
C       5.085145925      4.547932302      4.628960600
H       3.146522298      5.389666170      3.851157449
H       3.120700805      3.687183344      4.133683544
H       5.309087151      5.301924080      5.251432248
H       6.018851120      4.159516672      4.562121861
           6
  t=       174.50000    1    1
C       3.905273533      4.367473653      4.348653921
C       5.095967977      4.567283204      4.646449474
H       3.185404528      5.322147682      3.890477313
H       3.139659680      3.728323550      4.093876269
H       5.314344693      5.291405590      5.211561883
H       6.047061588      4.136615554      4.563626732
           6
  t=       175.00000    1    1
C       3.915358732      4.384296860      4.363982115
C       5.107735402      4.585906399      4.663740976
H       3.229653226      5.251768575      3.937224423
H       3.158896984      3.760410176      4.051567530
H       5.322457978      5.299862071      5.179734608
H       6.077225225      4.106234911      4.564481446
           6
  t=       175.50000    1    1
C       3.923751998      4.401716173      4.378501984
C       5.120531262      4.603078930      4.680464107
H       3.277795400      5.182008706      3.990835523
H       3.178620360      3.782286645      4.006899715
H       5.335739759      5.333097384      5.159805438
H       6.105746861      4.070848989      4.565337393
           6
  t=       176.00000    1    1
C       3.930765785      4.419329728      4.392330954
C       5.134411066      4.618467210      4.696521174
H       3.326494695      5.118610128      4.049782786
H       3.199653290      3.793458871      3.960273606
H       5.355077143      5.392200933      5.151977202
H       6.129867718      4.032883813      4.566883668
           6
  t=       176.50000    1    1
C       3.936984800      4.436397448      4.405705842
C       5.149477997      4.632238339      4.712096928
H       3.369035536      5.070772745      4.111072552
H       3.223425304      3.794131756      3.912362488
H       5.379552747      5.472420474      5.152912749
H       6.147594529      3.994514231      4.569754538
           6
  t=       177.00000    1    1
C       3.943287616      4.451837857      4.418948025
C       5.165866759      4.644895078      4.727488370
H       3.394723632      5.050818254      4.170296720
H       3.251640948      3.785450053      3.864232000
H       5.407321046      5.565236978      5.158094585
H       6.157688723      3.957688582      4.574441554
           6
  t=       177.50000    1    1
C       3.950415238      4.464740468      4.432184010
C       5.183673795      4.656993880      4.742932891
H       3.394411274      5.067956385      4.224965219
H       3.285791971      3.769343864      3.817243128
H       5.436686784      5.662121841      5.163972922
H       6.159522745      3.924014235      4.581287498
           6
  t=       178.00000    1    1
C       3.958414373      4.474937340      4.445157613
C       5.203004284      4.668965894      4.758575677
H       3.366886466      5.121819878      4.277014987
H       3.327072878      3.748276536      3.772765248
H       5.466330773      5.756561245      5.168231978
H       6.152623426      3.894772597      4.590624468
           6
  t=       178.50000    1    1
C       3.966674697      4.483174245      4.457476728
C       5.223859001      4.681055860      4.774418370
H       3.319988659      5.200928989      4.330843215
H       3.375895223      3.725237848      3.731761050
H       5.495249242      5.844462027      5.169568350
H       6.137006758      3.870744160      4.603048607
           6
  t=       179.00000    1    1
C       3.974552742      4.490362461      4.468893683
C       5.245945124      4.693447651      4.790408312
H       3.265429697      5.291976090      4.386526162
H       3.431340977      3.702767077      3.697605029
H       5.522725491      5.922295799      5.169222073
H       6.113752130      3.853176226      4.617447789
           6
  t=       179.50000    1    1
C       3.981593299      4.497191139      4.479346731
C       5.268934300      4.706275635      4.806540493
H       3.211697474      5.385028396      4.444175229
H       3.492976519      3.682927760      3.671704074
H       5.548435331      5.987604491      5.166965755
H       6.084466130      3.842583311      4.633326539
           6
  t=       180.00000    1    1
C       3.987712491      4.504142146      4.488914242
C       5.292471733      4.719614235      4.822760606
H       3.163157452      5.473540977      4.503406117
H       3.560132226      3.667230281      3.654450145
H       5.572412414      6.038762268      5.162423578
H       6.050646361      3.838997233      4.650766319
           6
  t=       180.50000    1    1
C       3.993034457      4.511489367      4.497712499
C       5.316195366      4.733541997      4.839017674
H       3.121813993      5.553781850      4.563304422
H       3.631790919      3.656757290      3.646119798
H       5.594791012      6.074660043      5.155517513
H       6.014006313      3.841976962      4.669704804
           6
  t=       181.00000    1    1
C       3.997755045      4.519399185      4.505855086
C       5.339741440      4.748170127      4.855269252
H       3.088772565      5.623296352      4.622920232
H       3.706708528      3.652376945      3.646871147
H       5.615777551      6.094626422      5.146318248
H       5.976478932      3.850472727      4.690015475
           6
  t=       181.50000    1    1
C       4.002114984      4.527966660      4.513467821
C       5.362762358      4.763632911      4.871479601
H       3.064559657      5.680462313      4.681295367
H       3.783364151      3.654706790      3.656557645
H       5.635674217      6.098569487      5.135047612
H       5.940029849      3.862848264      4.711507836
           6
  t=       182.00000    1    1
C       4.006365011      4.537247230      4.520680604
C       5.384970604      4.780067641      4.887627053
H       3.049114854      5.724587022      4.737592028
H       3.860042315      3.663799341      3.674631149
H       5.654750503      6.086933699      5.122077206
H       5.906603725      3.877002811      4.733906605
           6
  t=       182.50000    1    1
C       4.010739851      4.547293342      4.527623632
C       5.406141337      4.797583382      4.903692578
H       3.042024508      5.755636511      4.791163447
H       3.935044692      3.679095555      3.700203080
H       5.673223808      6.060746310      5.107932365
H       5.877977338      3.890577581      4.756897152
           6
  t=       183.00000    1    1
C       4.015457928      4.558174561      4.534441042
C       5.426088366      4.816229576      4.919645414
H       3.042794220      5.773744616      4.841424409
H       4.006840279      3.699683510      3.732184533
H       5.691405527      6.021459607      5.093231319
H       5.855480625      3.901480336      4.780184433
           6
  t=       183.50000    1    1
C       4.020718935      4.569987261      4.541301337
C       5.444667260      4.835966575      4.935444547
H       3.050996770      5.778865527      4.887746606
H       4.073946251      3.724438063      3.769217418
H       5.709813237      5.970865915      5.078585506
H       5.839847582      3.908413763      4.803624278
           6
  t=       184.00000    1    1
C       4.026692404      4.582849361      4.548404979
C       5.461776226      4.856576648      4.951031271
H       3.066349824      5.770694126      4.929407621
H       4.134761107      3.752037341      3.809501820
H       5.729370027      5.911940021      5.064659904
H       5.831231786      3.911219419      4.827384930
           6
  t=       184.50000    1    1
C       4.033496471      4.596900323      4.555985075
C       5.477320405      4.877571879      4.966311345
H       3.088786799      5.748742971      4.965548335
H       4.187723152      3.781008405      3.850917292
H       5.751622503      5.849843784      5.052307320
H       5.829437540      3.910847874      4.851938471
           6
  t=       185.00000    1    1
C       4.041171699      4.612321538      4.564299976
C       5.491152101      4.898101466      4.981156284
H       3.118539125      5.712417278      4.995116230
H       4.231726066      3.809692637      3.891401042
H       5.779065086      5.793275138      5.042667235
H       5.834121901      3.908831072      4.877713280
           6
  t=       185.50000    1    1
C       4.049701452      4.629323526      4.573618313
C       5.503007777      4.916967447      4.995428918
H       3.155943882      5.661530300      5.016987084
H       4.266396502      3.836051215      3.929166318
H       5.815372777      5.754737887      5.037034841
H       5.844984555      3.906656833      4.904758698
           6
  t=       186.00000    1    1
C       4.059084662      4.648021446      4.584147302
C       5.512550365      4.933112786      5.009057448
H       3.200765564      5.597365839      5.030605448
H       4.292338345      3.857838522      3.962876228
H       5.864525061      5.745035994      5.036097861
H       5.861706769      3.905706106      4.932665767
           6
  t=       186.50000    1    1
C       4.069350517      4.668343864      4.595960843
C       5.519710515      4.946307538      5.022058111
H       3.251993575      5.522403445      5.036162832
H       4.310409234      3.873377233      3.991862148
H       5.927895381      5.765538586      5.039743527
H       5.883546645      3.907398655      4.960950296
           6
  t=       187.00000    1    1
C       4.080591740      4.690121360      4.609010463
C       5.524762957      4.957105964      5.034452402
H       3.308330740      5.439114146      5.034254916
H       4.320951190      3.881983332      4.016353281
H       6.002835908      5.808721347      5.047699000
H       5.909728650      3.912886155      4.989381724
           6
  t=       187.50000    1    1
C       4.093047875      4.713009315      4.623082069
C       5.528198657      4.966414224      5.046269889
H       3.366827636      5.350993701      5.026549500
H       4.324188272      3.884179799      4.037457595
H       6.083994529      5.863307543      5.059508897
H       5.939625815      3.922735465      5.017838416
           6
  t=       188.00000    1    1
C       4.107184452      4.736351394      4.637763138
C       5.530620694      4.975020555      5.057554189
H       3.421090073      5.264217049      5.016451144
H       4.320252406      3.881269612      4.056771650
H       6.165718459      5.919989910      5.074911556
H       5.972419930      3.937204246      5.045976658
           6
  t=       188.50000    1    1
C       4.123895398      4.759208536      4.652405678
C       5.532483312      4.983437194      5.068359215
H       3.459562966      5.188102445      5.010234144
H       4.309672426      3.874859090      4.075952291
H       6.243720497      5.972936515      5.093596430
H       6.007360118      3.956285719      5.073254714
           6
  t=       189.00000    1    1
C       4.144358789      4.780646006      4.666214269
C       5.534126427      4.991971310      5.078756223
H       3.467204672      5.131760656      5.015966512
H       4.293052031      3.866698719      4.096451260
H       6.314983801      6.018894073      5.115172073
H       6.043813247      3.979849823      5.099173185
           6
  t=       189.50000    1    1
C       4.169093257      4.800374910      4.678782814
C       5.535823642      5.000787167      5.088831218
H       3.436244141      5.096886216      5.037447754
H       4.271218397      3.858159020      4.119153687
H       6.377665254      6.056448987      5.139214424
H       6.081126313      4.007730109      5.123285597
           6
  t=       190.00000    1    1
C       4.197396826      4.818741146      4.690316467
C       5.537821490      5.009977167      5.098686007
H       3.372711971      5.078051582      5.071540266
H       4.245296105      3.850059427      4.144358420
H       6.430765487      6.085165202      5.165269282
H       6.118570396      4.039748151      5.145227260
           6
  t=       190.50000    1    1
C       4.227721489      4.836250458      4.701384167
C       5.540333495      5.019577523      5.108405754
H       3.292413569      5.068340559      5.110977633
H       4.216649133      3.842966093      4.172192008
H       6.473753966      6.105201284      5.192986116
H       6.155407921      4.075637590      5.164694510
           6
  t=       191.00000    1    1
C       4.258687937      4.853177851      4.712438524
C       5.543536868      5.029592989      5.118050199
H       3.209156810      5.063686481      5.149949235
H       4.186586539      3.837498331      4.202800494
H       6.506459539      6.117136624      5.222129780
H       6.191016898      4.114932915      5.181482047
           6
  t=       191.50000    1    1
C       4.289340225      4.869578343      4.723703146
C       5.547615823      5.040053225      5.127682628
H       3.131559279      5.062411138      5.185290027
H       4.156220038      3.834426567      4.236232112
H       6.528781804      6.121528169      5.252452083
H       6.224964163      4.156975926      5.195536373
           6
  t=       192.00000    1    1
C       4.319069845      4.885398665      4.735233621
C       5.552762089      5.051011950      5.137376844
H       3.063838179      5.064138413      5.215811368
H       4.126570145      3.834412652      4.272379711
H       6.540673721      6.118918597      5.283705050
H       6.257025215      4.200932887      5.206859440
           6
  t=       192.50000    1    1
C       4.347443109      4.900535540      4.746995478
C       5.559199926      5.062548628      5.147221009
H       3.007615110      5.068996575      5.241314412
H       4.098585652      3.838098069      4.311023535
H       6.542069372      6.109787286      5.315621704
H       6.287191049      4.245838401      5.215497075
           6
  t=       193.00000    1    1
C       4.374118518      4.914865116      4.758923441
C       5.567166069      5.074770339      5.157302035
H       2.963112225      5.077248612      5.261982116
H       4.073088212      3.846118770      4.351880018
H       6.532895975      6.094624239      5.347964103
H       6.315738986      4.290503362      5.221530029
           6
  t=       193.50000    1    1
C       4.398819472      4.928273914      4.770942207
C       5.576889613      5.087802639      5.167702922
H       2.929774520      5.089079225      5.278184328
H       4.050750225      3.858995340      4.394590210
H       6.513139803      6.074102299      5.380512591
H       6.343131423      4.333405747      5.225075331
           6
  t=       194.00000    1    1
C       4.421332858      4.940682004      4.782980680
C       5.588561251      5.101766751      5.178501921
H       2.906855864      5.104505686      5.290364252
H       4.032081787      3.877091611      4.438726335
H       6.482767132      6.048998502      5.413014924
H       6.369905231      4.372895400      5.226284551
           6
  t=       194.50000    1    1
C       4.441544361      4.952059353      4.794982052
C       5.602286175      5.116741070      5.189764402
H       2.893483930      5.123412413      5.299023311
H       4.017406855      3.900510811      4.483809480
H       6.441848253      6.019965710      5.445181842
H       6.396647237      4.407755517      5.225322418
           6
  t=       195.00000    1    1
C       4.459436823      4.962424674      4.806922899
C       5.618049853      5.132725828      5.201528159
H       2.888803027      5.145656311      5.304630514
H       4.006892179      3.929007321      4.529294386
H       6.390889445      5.987928429      5.476807555
H       6.423917709      4.437224577      5.222299730
           6
  t=       195.50000    1    1
C       4.475060215      4.971837029      4.818820839
C       5.635682971      5.149579484      5.213775202
H       2.892156500      5.171161899      5.307586106
H       4.000627975      3.961916790      4.574532004
H       6.331528876      5.955021852      5.508115284
H       6.452066944      4.460890022      5.217246521
           6
  t=       196.00000    1    1
C       4.488502226      4.980397505      4.830724728
C       5.654837370      5.166944961      5.226396974
H       2.903219381      5.199934393      5.308250070
H       3.998652342      3.998086204      4.618748692
H       6.267176196      5.925330606      5.540202880
H       6.481075843      4.478865287      5.210189960
           6
  t=       196.50000    1    1
C       4.499879694      4.988255921      4.842709276
C       5.674989173      5.184228242      5.239161341
H       2.922155406      5.231987398      5.306908778
H       4.000780091      4.035774934      4.661037870
H       6.203091031      5.905169154      5.575466971
H       6.510556396      4.491855881      5.201229470
           6
  t=       197.00000    1    1
C       4.509347736      4.995609635      4.854877587
C       5.695533307      5.200676792      5.251707718
H       2.949743226      5.267291980      5.303739086
H       4.006431755      4.072685727      4.700371032
H       6.145114576      5.902293835      5.617614419
H       6.539829734      4.501046953      5.190577860
           6
  t=       197.50000    1    1
C       4.517114342      5.002697046      4.867344639
C       5.716011704      5.215611347      5.263637516
H       2.987050680      5.305746378      5.298848358
H       4.014621691      4.106165748      4.735770897
H       6.097066132      5.923133201      5.670567402
H       6.567974202      4.508017737      5.178562296
           6
  t=       198.00000    1    1
C       4.523379405      5.009757012      4.880217720
C       5.736322006      5.228809025      5.274742019
H       3.035169576      5.347247444      5.292263358
H       4.024277872      4.133484610      4.766411313
H       6.058708218      5.968699534      5.735961446
H       6.594045326      4.514399146      5.165555241
           6
  t=       198.50000    1    1
C       4.528297027      5.017004748      4.893578922
C       5.756652697      5.240649429      5.285165933
H       3.094970073      5.391686815      5.283936978
H       4.034560488      4.152149847      4.791726559
H       6.026672009      6.033161091      5.811349553
H       6.617299427      4.521536064      5.151914049
           6
  t=       199.00000    1    1
C       4.531949432      5.024603669      4.907482539
C       5.777222671      5.251813465      5.295293411
H       3.167171534      5.438873639      5.273704681
H       4.045064388      4.160368258      4.811470509
H       5.997517133      6.107533254      5.891662308
H       6.637274650      4.530336539      5.137894428
           6
  t=       199.50000    1    1
C       4.534348799      5.032638698      4.921975927
C       5.798104954      5.262931034      5.305521048
H       3.252698792      5.488312079      5.261369643
H       4.055869218      4.157569884      4.825465651
H       5.969468229      6.183836167      5.971671860
H       6.653726582      4.541328585      5.123808567
           6
  t=       200.00000    1    1
C       4.535531856      5.041112065      4.937087173
C       5.819204135      5.274439922      5.316126411
H       3.352038372      5.539162226      5.247042635
H       4.067453704      4.144580884      4.833492732
H       5.942320975      6.256641983      6.047294009
H       6.666593561      4.554710732      5.110207091
