           6
  t=         0.00000    2    2
C      -0.667583558     -0.006381549      0.002717478
C       0.660658168      0.003790639      0.005697550
H      -1.169829311      0.989192839     -0.037949960
H      -1.236721411     -0.948878092     -0.009376697
H       1.232787291      0.882841909     -0.007483629
H       1.256284209     -0.892284219     -0.045460498
           6
  t=         0.50000    2    2
C      -0.669578874     -0.005509126      0.002382556
C       0.659531646      0.003701330      0.006795028
H      -1.165639397      0.973520495     -0.038426463
H      -1.231184276     -0.941415129     -0.008499598
H       1.247091379      0.890561539     -0.011058134
H       1.269451544     -0.901125827     -0.051372708
           6
  t=         1.00000    2    2
C      -0.673064815     -0.004555451      0.002055677
C       0.659996329      0.003401359      0.007921439
H      -1.162137294      0.955779228     -0.040491998
H      -1.225881191     -0.932495031     -0.006307738
H       1.261976391      0.900029516     -0.013155670
H       1.281761348     -0.909561980     -0.058928213
           6
  t=         1.50000    2    2
C      -0.677866453     -0.003580588      0.001740029
C       0.662114833      0.002923597      0.009076624
H      -1.160062731      0.937557720     -0.044380247
H      -1.221333307     -0.923025814     -0.002653761
H       1.276558807      0.910022789     -0.013641103
H       1.292527501     -0.916726281     -0.068211906
           6
  t=         2.00000    2    2
C      -0.683741364     -0.002654326      0.001441975
C       0.665876871      0.002308242      0.010260504
H      -1.160277903      0.920681793     -0.050409783
H      -1.218138384     -0.914043566      0.002662218
H       1.290053460      0.919439880     -0.012332853
H       1.301229074     -0.921954376     -0.079361567
           6
  t=         2.50000    2    2
C      -0.690397877     -0.001847679      0.001171552
C       0.671200376      0.001599452      0.011472185
H      -1.163677313      0.907013890     -0.058967001
H      -1.216924102     -0.906616346      0.009879824
H       1.301822531      0.927346816     -0.009024565
H       1.307528497     -0.924786686     -0.092545724
           6
  t=         3.00000    2    2
C      -0.697527801     -0.001217639      0.000941713
C       0.677936037      0.000843463      0.012709669
H      -1.171010386      0.898125497     -0.070469381
H      -1.218259071     -0.901703026      0.019258906
H       1.311421304      0.933021053     -0.003510529
H       1.311295344     -0.924985113     -0.107942984
           6
  t=         3.50000    2    2
C      -0.704848443     -0.000790490      0.000766011
C       0.685878266      0.000086128      0.013970552
H      -1.182669281      0.894919883     -0.085309065
H      -1.222537165     -0.899974352      0.031053816
H       1.318629990      0.935996659      0.004390398
H       1.312616672     -0.922549412     -0.125729548
           6
  t=         4.00000    1    1
C      -0.712125958     -0.000554392      0.000655762
C       0.694777101     -0.000630087      0.015252507
H      -1.198579313      0.897421530     -0.103789966
H      -1.229907907     -0.901682499      0.045484233
H       1.323441938      0.936067701      0.014821322
H       1.311766049     -0.917693056     -0.146071428
           6
  t=         4.50000    1    1
C      -0.723514377     -0.005181105     -0.004168369
C       0.699193391     -0.006045217      0.011700990
H      -1.274607365      0.848196888     -0.180152799
H      -1.296477561     -0.963368182      0.004240943
H       1.269006051      0.876905794     -0.030359470
H       1.252235796     -0.967606653     -0.223123904
           6
  t=         5.00000    1    1
C      -0.734114578     -0.010376070     -0.009047940
C       0.702954319     -0.012012534      0.007870732
H      -1.353220607      0.804025760     -0.254978168
H      -1.361016249     -1.022874299     -0.037599100
H       1.215598310      0.820656551     -0.075926918
H       1.190648533     -1.014315205     -0.296748456
           6
  t=         5.50000    1    1
C      -0.744199700     -0.016307459     -0.014099851
C       0.705447362     -0.019327828      0.003730734
H      -1.432583629      0.763642243     -0.327593720
H      -1.420580845     -1.076840765     -0.079325629
H       1.168515263      0.775079624     -0.122433463
H       1.127482473     -1.056186299     -0.366012925
           6
  t=         6.00000    1    1
C      -0.754026046     -0.022975655     -0.019476106
C       0.706074855     -0.028798045     -0.000670330
H      -1.510187632      0.725276297     -0.397012766
H      -1.473261313     -1.123438240     -0.120039366
H       1.132837444      0.748395953     -0.171311815
H       1.063413829     -1.091880292     -0.430139338
           6
  t=         6.50000    1    1
C      -0.763859671     -0.030357645     -0.025353120
C       0.704451916     -0.040941448     -0.005258369
H      -1.583409163      0.687496333     -0.461974784
H      -1.517726617     -1.161587098     -0.158774000
H       1.111544145      0.745846603     -0.224307380
H       0.999265172     -1.120385067     -0.488389840
           6
  t=         7.00000    1    1
C      -0.773934093     -0.038430055     -0.031892659
C       0.700564628     -0.055654558     -0.010046669
H      -1.649942780      0.649369142     -0.521253043
H      -1.553214456     -1.190795069     -0.194682751
H       1.103643130      0.765894045     -0.281951670
H       0.935909373     -1.141233648     -0.540220596
           6
  t=         7.50000    1    1
C      -0.784430271     -0.047166409     -0.039213348
C       0.694683256     -0.072319105     -0.015198624
H      -1.707971305      0.610407607     -0.573876882
H      -1.579332450     -1.210965746     -0.227162016
H       1.105073224      0.801215497     -0.342781066
H       0.874133884     -1.154395179     -0.585309013
           6
  t=         8.00000    1    1
C      -0.795469835     -0.056536975     -0.047394870
C       0.687133908     -0.090199796     -0.020942691
H      -1.756214330      0.570549903     -0.619175564
H      -1.595896243     -1.222325153     -0.255816798
H       1.111279644      0.843309452     -0.404285328
H       0.814592235     -1.160196073     -0.623559399
           6
  t=         8.50000    1    1
C      -0.807115598     -0.066519427     -0.056494783
C       0.678153296     -0.108697669     -0.027476715
H      -1.793908631      0.530114342     -0.656747660
H      -1.602795674     -1.225324909     -0.280311821
H       1.118786880      0.885509834     -0.464043908
H       0.757814426     -1.159240014     -0.655085689
           6
  t=         9.00000    1    1
C      -0.819390838     -0.077101492     -0.066560090
C       0.667855370     -0.127391028     -0.034946748
H      -1.820627107      0.489704272     -0.686327259
H      -1.599889309     -1.220555797     -0.300290800
H       1.125403588      0.923346048     -0.520172635
H       0.704342848     -1.152239993     -0.680093869
           6
  t=         9.50000    1    1
C      -0.832274924     -0.088279075     -0.077616405
C       0.656268366     -0.145960074     -0.043461826
H      -1.836293588      0.450123738     -0.707830338
H      -1.587065445     -1.208693138     -0.315392125
H       1.129731940      0.953722688     -0.571181023
H       0.654805181     -1.140088757     -0.698915626
           6
  t=        10.00000    1    1
C      -0.845696481     -0.100054783     -0.089664603
C       0.643362432     -0.164159592     -0.053083043
H      -1.841170249      0.412193843     -0.721362816
H      -1.564393436     -1.190359223     -0.325302246
H       1.130909801      0.974710173     -0.616008625
H       0.609900300     -1.123946383     -0.712080607
           6
  t=        10.50000    1    1
C      -0.859527699     -0.112425024     -0.102680568
C       0.629123012     -0.181784930     -0.063791737
H      -1.835940840      0.376614557     -0.727215964
H      -1.532565223     -1.166338991     -0.329952662
H       1.128439452      0.985325301     -0.654128525
H       0.570152141     -1.105226048     -0.720402729
           6
  t=        11.00000    1    1
C      -0.873603594     -0.125362431     -0.116620888
C       0.613580322     -0.198640083     -0.075504792
H      -1.821592391      0.344201323     -0.725816665
H      -1.492999549     -1.138087781     -0.329508987
H       1.122098112      0.985235996     -0.685397115
H       0.535863309     -1.085617425     -0.724940729
           6
  t=        11.50000    1    1
C      -0.887719594     -0.138784904     -0.131404140
C       0.596800569     -0.214495620     -0.088105225
H      -1.799440622      0.316008349     -0.717787237
H      -1.447758819     -1.108070471     -0.324369108
H       1.111836896      0.974346835     -0.709771375
H       0.507234280     -1.067326521     -0.727081589
           6
  t=        12.00000    1    1
C      -0.901614376     -0.152534395     -0.146888256
C       0.578856638     -0.229072140     -0.101464686
H      -1.771255319      0.293272816     -0.704062743
H      -1.399207637     -1.079731117     -0.315174774
H       1.097670808      0.952481328     -0.727113727
H       0.484402150     -1.053182452     -0.728608279
           6
  t=        12.50000    1    1
C      -0.914909656     -0.166320235     -0.162844526
C       0.559788129     -0.242076607     -0.115477514
H      -1.739498701      0.277454389     -0.686043491
H      -1.350128306     -1.058093864     -0.302898329
H       1.079677073      0.919392474     -0.737146760
H       0.467554837     -1.046329000     -0.731409819
           6
  t=        13.00000    1    1
C      -0.927089489     -0.179727553     -0.178969735
C       0.539600973     -0.253260780     -0.130078318
H      -1.707550177      0.270342922     -0.665695046
H      -1.303930262     -1.049912466     -0.288688796
H       1.058002951      0.874904972     -0.739567321
H       0.457115422     -1.049528368     -0.737066945
           6
  t=        13.50000    1    1
C      -0.937617918     -0.192390820     -0.194963549
C       0.518303445     -0.262488202     -0.145241539
H      -1.679424796      0.274026955     -0.645363797
H      -1.263728681     -1.061775433     -0.273358154
H       1.032830034      0.819137373     -0.734240467
H       0.453547643     -1.064380677     -0.746439489
           6
  t=        14.00000    1    1
C      -0.946105523     -0.204206829     -0.210611426
C       0.495915208     -0.269789120     -0.161005031
H      -1.658892442      0.290437876     -0.627134939
H      -1.231318269     -1.097206601     -0.257102648
H       1.004504145      0.752826846     -0.721305978
H       0.457195786     -1.090899970     -0.759211590
           6
  t=        14.50000    1    1
C      -0.952446557     -0.215492193     -0.225818462
C       0.472471369     -0.275394315     -0.177478377
H      -1.648550809      0.320761676     -0.612188133
H      -1.206749099     -1.154111721     -0.239660881
H       0.973775165      0.677684233     -0.701263515
H       0.468279338     -1.127554800     -0.773790389
           6
  t=        15.00000    1    1
C      -0.956906208     -0.226845190     -0.240616554
C       0.448064242     -0.279787662     -0.194757976
H      -1.648695747      0.364509211     -0.600238341
H      -1.188818809     -1.225271011     -0.220919333
H       0.942062549      0.597026566     -0.675436542
H       0.486532254     -1.171498238     -0.787722264
           6
  t=        15.50000    1    1
C      -0.959995116     -0.238789140     -0.255114003
C       0.422799496     -0.283624512     -0.212858275
H      -1.657152799      0.419213758     -0.589763971
H      -1.176268367     -1.302230338     -0.201217219
H       0.911504450      0.515600599     -0.645982817
H       0.511208406     -1.219419773     -0.798569214
           6
  t=        16.00000    1    1
C      -0.962281030     -0.251596917     -0.269443800
C       0.396692334     -0.287703841     -0.231661853
H      -1.670227423      0.480585491     -0.578695274
H      -1.168529705     -1.377753375     -0.181214909
H       0.885581168      0.440032314     -0.616072738
H       0.541148819     -1.268120077     -0.804384674
           6
  t=        16.50000    1    1
C      -0.964298345     -0.265299826     -0.283708472
C       0.369605305     -0.292964805     -0.250908947
H      -1.684170482      0.543877405     -0.565291067
H      -1.165592253     -1.447126989     -0.161590014
H       0.869913428      0.379044935     -0.589962927
H       0.574978592     -1.314724809     -0.803849182
           6
  t=        17.00000    1    1
C      -0.966562651     -0.279826398     -0.297947306
C       0.341370634     -0.300301255     -0.270327339
H      -1.696173931      0.604789493     -0.548519120
H      -1.167735758     -1.507155631     -0.142934709
H       0.871318584      0.341239590     -0.571535566
H       0.611494794     -1.356931434     -0.796296139
           6
  t=        17.50000    1    1
C      -0.969555267     -0.295068235     -0.312145384
C       0.312125358     -0.310106213     -0.289837612
H      -1.704408623      0.660025345     -0.528171188
H      -1.175016971     -1.555833996     -0.125673416
H       0.893358104      0.329741207     -0.561580135
H       0.649465934     -1.393182223     -0.781843950
           6
  t=        18.00000    1    1
C      -0.973700215     -0.310890355     -0.326264537
C       0.282536571     -0.322109769     -0.309619723
H      -1.707747808      0.707124692     -0.504473158
H      -1.187269104     -1.592138031     -0.110139645
H       0.933151536      0.340095316     -0.557401000
H       0.687582550     -1.422411102     -0.760939346
           6
  t=        18.50000    1    1
C      -0.979406672     -0.327150101     -0.340259375
C       0.253712256     -0.335674464     -0.329931847
H      -1.705687992      0.744251112     -0.477841098
H      -1.204084928     -1.615577962     -0.096676796
H       0.982891897      0.363387230     -0.555214332
H       0.724414168     -1.443652338     -0.734071220
           6
  t=        19.00000    1    1
C      -0.987112440     -0.343719002     -0.354064616
C       0.226808451     -0.350227955     -0.350936239
H      -1.698121301      0.770105230     -0.448831626
H      -1.224987124     -1.626034381     -0.085628189
H       1.034828909      0.391710649     -0.552432540
H       0.758567575     -1.456170321     -0.701771723
           6
  t=        19.50000    1    1
C      -0.997290142     -0.360485639     -0.367596249
C       0.202831452     -0.365385438     -0.372689376
H      -1.685129425      0.783749025     -0.418127300
H      -1.249619427     -1.623646100     -0.077183456
H       1.083472837      0.419925334     -0.547762157
H       0.788898901     -1.459660816     -0.664790221
           6
  t=        20.00000    1    1
C      -1.010366085     -0.377344116     -0.380769461
C       0.182574686     -0.380901651     -0.395168865
H      -1.666997238      0.784497856     -0.386534450
H      -1.277739517     -1.608691400     -0.071256713
H       1.125290388      0.445004332     -0.540626908
H       0.814609488     -1.454318236     -0.624259967
           6
  t=        20.50000    1    1
C      -1.026583266     -0.394190689     -0.393498688
C       0.166533186     -0.396623413     -0.418298208
H      -1.644254335      0.772165772     -0.354834945
H      -1.308974655     -1.581679093     -0.067849323
H       1.157956537      0.465268115     -0.531061541
H       0.835178050     -1.440829715     -0.581294079
           6
  t=        21.00000    1    1
C      -1.045910845     -0.410908594     -0.405704466
C       0.154864017     -0.412441444     -0.441966999
H      -1.617621483      0.746966808     -0.323810468
H      -1.342952832     -1.543568797     -0.066980429
H       1.179903346      0.479814839     -0.519440490
H       0.850282244     -1.420241309     -0.536979705
           6
  t=        21.50000    1    1
C      -1.068072956     -0.427355850     -0.417326111
C       0.147456244     -0.428253086     -0.466052229
H      -1.587957664      0.709390290     -0.294213397
H      -1.379591063     -1.496027837     -0.068530028
H       1.190106741      0.488207971     -0.506299835
H       0.859756916     -1.393853500     -0.492337220
           6
  t=        22.00000    1    1
C      -1.092611268     -0.443372953     -0.428343419
C       0.144022380     -0.443931579     -0.490429158
H      -1.556182128      0.660465633     -0.266478484
H      -1.419175132     -1.441750553     -0.072358365
H       1.187813302      0.490242554     -0.492520698
H       0.863524750     -1.363207479     -0.447917615
           6
  t=        22.50000    1    1
C      -1.118914654     -0.458794314     -0.438825074
C       0.144147646     -0.459324854     -0.514932895
H      -1.523283303      0.602157297     -0.240498585
H      -1.462367425     -1.384611099     -0.078212849
H       1.172315082      0.485742976     -0.479513778
H       0.861604918     -1.330002992     -0.403816290
           6
  t=        23.00000    1    1
C      -1.146182763     -0.473395750     -0.448939853
C       0.147259461     -0.474328498     -0.539327623
H      -1.490999446      0.537533794     -0.216301494
H      -1.510343019     -1.329730005     -0.084831055
H       1.143348046      0.474671526     -0.468524585
H       0.854460766     -1.296065798     -0.360821202
           6
  t=        23.50000    1    1
C      -1.173443736     -0.486991694     -0.458924012
C       0.152505564     -0.488884780     -0.563426073
H      -1.461739890      0.470915304     -0.194028407
H      -1.564615982     -1.282567401     -0.089943598
H       1.101827704      0.457417189     -0.459999250
H       0.843675078     -1.263543959     -0.320030699
           6
  t=        24.00000    1    1
C      -1.199821049     -0.499582763     -0.469046403
C       0.159135369     -0.502893798     -0.587128602
H      -1.437941614      0.408524245     -0.173173467
H      -1.627014686     -1.248358554     -0.091318777
H       1.048484697      0.434329426     -0.454220221
H       0.831281924     -1.234957166     -0.281883648
           6
  t=        24.50000    1    1
C      -1.224577872     -0.511447277     -0.479579454
C       0.166445473     -0.516252970     -0.610371867
H      -1.421643435      0.357706819     -0.152355819
H      -1.699056814     -1.230423914     -0.087593293
H       0.984302992      0.406126336     -0.451570457
H       0.819455527     -1.212955222     -0.246249837
           6
  t=        25.00000    1    1
C      -1.247281982     -0.523084833     -0.490705281
C       0.173798773     -0.528937232     -0.633122704
H      -1.414077194      0.324594222     -0.129686082
H      -1.780462936     -1.228326660     -0.079038099
H       0.910769184      0.374252242     -0.452387787
H       0.810103001     -1.199896071     -0.212635018
           6
  t=        25.50000    1    1
C      -1.267889064     -0.534972351     -0.502410508
C       0.180668820     -0.541077988     -0.655374191
H      -1.415235973      0.311890103     -0.103778412
H      -1.868611701     -1.238584214     -0.067681041
H       0.829953669      0.340942170     -0.456816296
H       0.804270634     -1.196952382     -0.180494989
           6
  t=        26.00000    1    1
C      -1.286585534     -0.547316367     -0.514469072
C       0.186619385     -0.552987769     -0.677101336
H      -1.424176130      0.317856311     -0.074815893
H      -1.959617396     -1.256669446     -0.056431470
H       0.744469920      0.309382043     -0.464765653
H       0.801934820     -1.203914028     -0.149819092
           6
  t=        26.50000    1    1
C      -1.303652926     -0.560026293     -0.526515850
C       0.191260587     -0.565176781     -0.698268039
H      -1.439478774      0.337239669     -0.044742602
H      -2.049610837     -1.278483214     -0.048013292
H       0.657902658      0.284213274     -0.475549471
H       0.802223135     -1.219268378     -0.121406611
           6
  t=        27.00000    1    1
C      -1.319376867     -0.572877247     -0.538185328
C       0.194279872     -0.578255487     -0.718862065
H      -1.459745719      0.363816794     -0.016233039
H      -2.135524436     -1.301014827     -0.044327496
H       0.574169908      0.271042504     -0.487814796
H       0.803879502     -1.240814880     -0.096536123
           6
  t=        27.50000    1    1
C      -1.334013846     -0.585671960     -0.549190278
C       0.195486966     -0.592767201     -0.738878508
H      -1.483769266      0.392313216      0.008321485
H      -2.214823953     -1.322089362     -0.046634354
H       0.496087632      0.274840820     -0.500041945
H       0.805669515     -1.266301741     -0.076556723
           6
  t=        28.00000    1    1
C      -1.347762077     -0.598293984     -0.559363496
C       0.194888088     -0.608951823     -0.758278086
H      -1.510577634      0.419272837      0.027419049
H      -2.285743011     -1.340420928     -0.055588449
H       0.424220245      0.297336391     -0.511459525
H       0.806578337     -1.293815909     -0.062543676
           6
  t=        28.50000    1    1
C      -1.360749572     -0.610658124     -0.568615610
C       0.192642427     -0.626633384     -0.776954521
H      -1.539473127      0.442520887      0.040200223
H      -2.347346359     -1.355500517     -0.071389545
H       0.357376786      0.335484190     -0.522555490
H       0.805792515     -1.321758518     -0.055281196
           6
  t=        29.00000    1    1
C      -1.373073790     -0.622681514     -0.576890409
C       0.188922694     -0.645334052     -0.794754986
H      -1.569868224      0.460353881      0.046047988
H      -2.399162507     -1.367236583     -0.093996441
H       0.294349651      0.382656849     -0.534642548
H       0.802563917     -1.348571403     -0.055371532
           6
  t=        29.50000    1    1
C      -1.384817425     -0.634306454     -0.584159827
C       0.183811330     -0.664493314     -0.811542786
H      -1.601257788      0.471475652      0.044521866
H      -2.440955615     -1.375725841     -0.123228070
H       0.234927483      0.431668837     -0.549092006
H       0.796365964     -1.373042516     -0.063147243
           6
  t=        30.00000    1    1
C      -1.396051977     -0.645514945     -0.590427549
C       0.177298485     -0.683622868     -0.827231039
H      -1.633212322      0.475110212      0.035406579
H      -2.472627030     -1.381174321     -0.158816475
H       0.179721075      0.476903729     -0.566934345
H       0.787029067     -1.394606358     -0.078621849
           6
  t=        30.50000    1    1
C      -1.406863964     -0.656319850     -0.595719217
C       0.169319132     -0.702316297     -0.841768676
H      -1.665322301      0.470763175      0.018667726
H      -2.493953498     -1.383749058     -0.200497262
H       0.129830729      0.514132431     -0.588894729
H       0.774625888     -1.413061901     -0.101603173
           6
  t=        31.00000    1    1
C      -1.417336794     -0.666748468     -0.600076254
C       0.159777947     -0.720258808     -0.855149156
H      -1.697192646      0.458175710     -0.005591756
H      -2.504643054     -1.383605935     -0.247988641
H       0.086423797      0.540406233     -0.615343316
H       0.759431739     -1.428471374     -0.131690148
           6
  t=        31.50000    1    1
C      -1.427536514     -0.676841390     -0.603558138
C       0.148571446     -0.737245248     -0.867420616
H      -1.728451241      0.437367451     -0.037138253
H      -2.504473180     -1.380911674     -0.300928680
H       0.050456548      0.554221064     -0.646227171
H       0.741915802     -1.441144489     -0.168248936
           6
  t=        32.00000    1    1
C      -1.437505570     -0.686653186     -0.606249075
C       0.135596100     -0.753130231     -0.878669717
H      -1.758784397      0.408632370     -0.075613599
H      -2.493395726     -1.375855030     -0.358809424
H       0.022629641      0.554955219     -0.681220433
H       0.722754983     -1.451646915     -0.210435528
           6
  t=        32.50000    1    1
C      -1.447262072     -0.696256509     -0.608271682
C       0.120757745     -0.767786847     -0.889009404
H      -1.787995409      0.372576730     -0.120487077
H      -2.471668654     -1.368659011     -0.420888124
H       0.003410955      0.542443456     -0.719838439
H       0.702880449     -1.460843150     -0.257201160
           6
  t=        33.00000    1    1
C      -1.456789476     -0.705740900     -0.609793834
C       0.103961473     -0.781077337     -0.898561723
H      -1.815999980      0.330162348     -0.171075815
H      -2.439976647     -1.359691818     -0.486147026
H      -0.006873654      0.516702804     -0.761507149
H       0.683500509     -1.469918383     -0.307365926
           6
  t=        33.50000    1    1
C      -1.466007412     -0.715198680     -0.611033121
C       0.085103418     -0.792842475     -0.907440695
H      -1.842661626      0.282963044     -0.226528124
H      -2.399896339     -1.349997772     -0.553310089
H      -0.007955184      0.477864416     -0.805598516
H       0.666066300     -1.480330512     -0.359734204
           6
  t=        34.00000    1    1
C      -1.474732090     -0.724710486     -0.612241335
C       0.064135258     -0.802976968     -0.915756605
H      -1.867827484      0.233688944     -0.285696932
H      -2.354567163     -1.341903850     -0.621007884
H       0.000142365      0.426693987     -0.851334950
H       0.651974154     -1.493522149     -0.413285701
           6
  t=        34.50000    1    1
C      -1.482661321     -0.734364411     -0.613656710
C       0.041032336     -0.811452226     -0.923589210
H      -1.891761408      0.186007441     -0.347235536
H      -2.308003531     -1.338590698     -0.688178462
H       0.017337118      0.364531110     -0.897931538
H       0.642277263     -1.510610648     -0.467424903
           6
  t=        35.00000    1    1
C      -1.489392093     -0.744255147     -0.615447930
C       0.015858818     -0.818431539     -0.931004625
H      -1.915477428      0.144219151     -0.409786841
H      -2.264578582     -1.343490785     -0.754356071
H       0.043114608      0.294075909     -0.944570326
H       0.637310525     -1.532090198     -0.521994831
           6
  t=        35.50000    1    1
C      -1.494524538     -0.754470069     -0.617677960
C      -0.011232897     -0.824301913     -0.938020454
H      -1.940432692      0.112530018     -0.472291987
H      -2.228137011     -1.359786454     -0.819841132
H       0.076716723      0.219756542     -0.990725126
H       0.636553246     -1.557760043     -0.577320075
           6
  t=        36.00000    1    1
C      -1.497836179     -0.765075048     -0.620326519
C      -0.040053219     -0.829658870     -0.944586636
H      -1.967901592      0.093724594     -0.534273945
H      -2.200542064     -1.389334567     -0.885270608
H       0.117689010      0.147640130     -1.036413679
H       0.638687463     -1.586734020     -0.634061140
           6
  t=        36.50000    1    1
C      -1.499414527     -0.776096388     -0.623374398
C      -0.070413330     -0.835223407     -0.950608783
H      -1.998288300      0.088014580     -0.595829192
H      -2.180971792     -1.431739790     -0.950671657
H       0.166352625      0.084577035     -1.082175437
H       0.641767101     -1.617564922     -0.692908500
           6
  t=        37.00000    1    1
C      -1.499646569     -0.787515592     -0.626870926
C      -0.102102632     -0.841606883     -0.956001070
H      -2.030803434      0.093058936     -0.657222291
H      -2.166747709     -1.484509873     -1.014979034
H       0.223608153      0.035936354     -1.128857443
H       0.643525519     -1.648708739     -0.754250689
           6
  t=        37.50000    1    1
C      -1.499077038     -0.799271638     -0.630936216
C      -0.134796562     -0.849041435     -0.960754455
H      -2.063785648      0.105109757     -0.718421738
H      -2.154788919     -1.544159469     -1.076433767
H       0.289546916      0.002845687     -1.176993624
H       0.641752583     -1.678991526     -0.818020764
           6
  t=        38.00000    1    1
C      -1.498278149     -0.811271967     -0.635729942
C      -0.167967325     -0.857335245     -0.964986555
H      -2.095254774      0.120115309     -0.778938105
H      -2.142486649     -1.607173002     -1.133170001
H       0.361996781     -0.018290270     -1.226072412
H       0.634560832     -1.707670401     -0.883781471
           6
  t=        38.50000    1    1
C      -1.497788818     -0.823421165     -0.641398902
C      -0.200898224     -0.866108139     -0.968934562
H      -2.123445312      0.134458658     -0.838008053
H      -2.128108813     -1.670525350     -1.183586257
H       0.436838803     -0.033016799     -1.274538023
H       0.620453213     -1.734275184     -0.950877888
           6
  t=        39.00000    1    1
C      -1.498083681     -0.835648588     -0.648041329
C      -0.232825405     -0.875049645     -0.972882379
H      -2.147191550      0.145541641     -0.894738390
H      -2.110768496     -1.731972528     -1.226593070
H       0.509702056     -0.045921510     -1.320613739
H       0.598301807     -1.758405375     -1.018516034
           6
  t=        39.50000    1    1
C      -1.499577145     -0.847896574     -0.655711406
C      -0.263057890     -0.883998181     -0.977105101
H      -2.165901882      0.151660255     -0.948166647
H      -2.090137441     -1.789931634     -1.261572723
H       0.577029274     -0.059844932     -1.362854898
H       0.567448478     -1.779711752     -1.085797132
           6
  t=        40.00000    1    1
C      -1.502645623     -0.860110907     -0.664433923
C      -0.290997954     -0.892910456     -0.981852319
H      -2.179255516      0.151538867     -0.997347483
H      -2.066204178     -1.843114155     -1.288192630
H       0.636134107     -0.076296655     -1.400219526
H       0.527610241     -1.797859478     -1.151771689
           6
  t=        40.50000    1    1
C      -1.507606595     -0.872251003     -0.674176559
C      -0.316191185     -0.901811321     -0.987335633
H      -2.187219288      0.144409701     -1.041578170
H      -2.039254696     -1.890561284     -1.306481944
H       0.685366803     -0.095858905     -1.432109074
H       0.479058036     -1.812644856     -1.215575571
           6
  t=        41.00000    1    1
C      -1.514766426     -0.884284085     -0.684873026
C      -0.338247454     -0.910753915     -0.993738894
H      -2.189944846      0.129936688     -1.080266899
H      -2.009853442     -1.931701522     -1.316698231
H       0.723790001     -0.118573792     -1.458253043
H       0.422447220     -1.824018548     -1.276412691
           6
  t=        41.50000    1    1
C      -1.524390176     -0.896184252     -0.696452088
C      -0.356839017     -0.919799797     -1.001219620
H      -2.187728183      0.108099023     -1.112858294
H      -1.978797536     -1.966266417     -1.319227863
H       0.750871470     -0.144158023     -1.478578499
H       0.358656203     -1.832086608     -1.333496888
           6
  t=        42.00000    1    1
C      -1.536656154     -0.907953560     -0.708848477
C      -0.371736311     -0.928991631     -1.009904998
H      -2.180975187      0.079111644     -1.138983320
H      -1.947001058     -1.994084085     -1.314405058
H       0.766329509     -0.172209195     -1.493013489
H       0.288675924     -1.837105395     -1.386197096
           6
  t=        42.50000    1    1
C      -1.551588240     -0.919632213     -0.722015186
C      -0.382848215     -0.938339366     -1.019872352
H      -2.170296862      0.043513807     -1.158484789
H      -1.915467608     -2.015050741     -1.302578220
H       0.769921489     -0.202382127     -1.501487245
H       0.213562417     -1.839465538     -1.434031635
           6
  t=        43.00000    1    1
C      -1.569023862     -0.931314845     -0.735929137
C      -0.390260656     -0.947801229     -1.031137730
H      -2.156531234      0.002246813     -1.171533450
H      -1.885228996     -2.029068569     -1.283957834
H       0.761440155     -0.234453259     -1.503820578
H       0.134479471     -1.839799813     -1.476882233
           6
  t=        43.50000    1    1
C      -1.588629587     -0.943143047     -0.750573859
C      -0.394209035     -0.957278793     -1.043661926
H      -2.140863259     -0.043342591     -1.178646003
H      -1.857167695     -2.035952712     -1.258695922
H       0.740611919     -0.268319683     -1.499707304
H       0.052599997     -1.839228435     -1.515049787
           6
  t=        44.00000    1    1
C      -1.609932603     -0.955251605     -0.765898098
C      -0.395056373     -0.966640869     -1.057371973
H      -2.124988909     -0.091366595     -1.180554709
H      -1.832279638     -2.035861159     -1.227243528
H       0.707236761     -0.303836088     -1.488828054
H      -0.030492298     -1.839583635     -1.549150511
           6
  t=        44.50000    1    1
C      -1.632335926     -0.967758883     -0.781789831
C      -0.393285353     -0.975768581     -1.072134450
H      -2.111377417     -0.139070937     -1.178276883
H      -1.812339744     -2.029703915     -1.190510752
H       0.661723986     -0.340533532     -1.471244765
H      -0.112324573     -1.843184763     -1.580119712
           6
  t=        45.00000    1    1
C      -1.655190976     -0.980819614     -0.798070348
C      -0.389411319     -0.984600162     -1.087778140
H      -2.103208469     -0.182366648     -1.173354135
H      -1.799164525     -2.019166893     -1.149580058
H       0.605260727     -0.377511765     -1.447396261
H      -0.190675341     -1.852227326     -1.609064084
           6
  t=        45.50000    1    1
C      -1.677861610     -0.994591717     -0.814505180
C      -0.383987454     -0.993198034     -1.104118301
H      -2.103918364     -0.216286454     -1.167755457
H      -1.794020623     -2.006558905     -1.105585734
H       0.540046369     -0.413297874     -1.418128273
H      -0.264029562     -1.868217209     -1.637029820
           6
  t=        46.00000    1    1
C      -1.699740276     -1.009124216     -0.830861343
C      -0.377727927     -1.001801695     -1.120944513
H      -2.116472360     -0.236294140     -1.163298487
H      -1.797571021     -1.994872590     -1.059755904
H       0.469874719     -0.445663807     -1.384951530
H      -0.331282422     -1.891488120     -1.664743879
           6
  t=        46.50000    1    1
C      -1.720329994     -1.024233679     -0.847001527
C      -0.371538655     -1.010870421     -1.138032196
H      -2.142578296     -0.239821953     -1.160789053
H      -1.810160923     -1.987951845     -1.013216482
H       0.400741152     -0.471067238     -1.350128419
H      -0.391503444     -1.921019348     -1.692324285
           6
  t=        47.00000    1    1
C      -1.739313288     -1.039429425     -0.862940083
C      -0.366564722     -1.021132476     -1.155158265
H      -2.182075579     -0.227640644     -1.159564189
H      -1.832122502     -1.990206974     -0.966733228
H       0.341761368     -0.483558078     -1.316543962
H      -0.443775280     -1.954748960     -1.719270443
           6
  t=        47.50000    1    1
C      -1.756583390     -1.054043190     -0.878832879
C      -0.363991398     -1.033453705     -1.172168063
H      -2.232767304     -0.203969104     -1.157900346
H      -1.863593432     -2.005159554     -0.920477230
H       0.303052829     -0.475643902     -1.286608392
H      -0.487423541     -1.990074628     -1.744710147
           6
  t=        48.00000    1    1
C      -1.772216601     -1.067526580     -0.894901903
C      -0.364521267     -1.048421136     -1.189065913
H      -2.291237012     -0.174554980     -1.153871241
H      -1.904085255     -2.033654145     -0.874119227
H       0.289691491     -0.442570344     -1.260760382
H      -0.522148130     -2.024698152     -1.767763622
           6
  t=        48.50000    1    1
C      -1.786403548     -1.079651305     -0.911328587
C      -0.368060522     -1.065950927     -1.205978983
H      -2.353813560     -0.144725116     -1.146077869
H      -1.952388794     -2.073254110     -0.827264211
H       0.297875767     -0.386726645     -1.237671954
H      -0.547874127     -2.057059338     -1.787875664
           6
  t=        49.00000    1    1
C      -1.799391745     -1.090505139     -0.928182362
C      -0.373946835     -1.085333583     -1.223014275
H      -2.417213398     -0.118553876     -1.133832664
H      -2.007113156     -2.119198638     -0.779915627
H       0.317742337     -0.317293374     -1.216156144
H      -0.564355445     -2.086072290     -1.804815058
           6
  t=        49.50000    1    1
C      -1.811465742     -1.100351866     -0.945412418
C      -0.381521245     -1.105756080     -1.240177661
H      -2.478872928     -0.098688627     -1.117040663
H      -2.066923615     -2.166165687     -0.732560405
H       0.340439595     -0.244078734     -1.196164872
H      -0.571100153     -2.111148054     -1.818773390
           6
  t=        50.00000    1    1
C      -1.822907037     -1.109473387     -0.962901727
C      -0.390374515     -1.126622032     -1.257410777
H      -2.536795076     -0.086751423     -1.095888108
H      -2.129964045     -2.209500280     -0.686430634
H       0.360486002     -0.174069353     -1.178320646
H      -0.568002020     -2.132080214     -1.829799712
           6
  t=        50.50000    1    1
C      -1.833975358     -1.118082605     -0.980515988
C      -0.400288851     -1.147540240     -1.274633620
H      -2.589416392     -0.083518259     -1.070713583
H      -2.194136030     -2.246106494     -0.643066956
H       0.374948136     -0.111629290     -1.163403697
H      -0.555289802     -2.148949178     -1.837788162
           6
  t=        51.00000    1    1
C      -1.844907658     -1.126329194     -0.998111836
C      -0.411125648     -1.168224991     -1.291769962
H      -2.635592728     -0.089176788     -1.042087300
H      -2.257769130     -2.274299763     -0.603664206
H       0.382433753     -0.059397205     -1.151998862
H      -0.533213978     -2.162234174     -1.843005452
           6
  t=        51.50000    1    1
C      -1.855880693     -1.134344468     -1.015549458
C      -0.422779125     -1.188397946     -1.308737292
H      -2.674474833     -0.103713335     -1.010775366
H      -2.319402741     -2.293039890     -0.569252633
H       0.382121712     -0.019361270     -1.144500103
H      -0.502417531     -2.172752819     -1.845910398
           6
  t=        52.00000    1    1
C      -1.867019009     -1.142245585     -1.032707500
C      -0.435171491     -1.207811669     -1.325451767
H      -2.705518197     -0.126901734     -0.977630576
H      -2.377868917     -2.301815948     -0.540580145
H       0.373656215      0.007109670     -1.141151974
H      -0.463700004     -2.181425705     -1.847102812
           6
  t=        52.50000    1    1
C      -1.878384037     -1.150135954     -1.049488120
C      -0.448294046     -1.226293638     -1.341835704
H      -2.728357033     -0.158329419     -0.943530126
H      -2.432242419     -2.300540941     -0.518174059
H       0.357221098      0.019578145     -1.142029022
H      -0.417907939     -2.189138454     -1.847195119
           6
  t=        53.00000    1    1
C      -1.890002757     -1.158104641     -1.065809262
C      -0.462175423     -1.243728493     -1.357827930
H      -2.742684660     -0.197375077     -0.909338154
H      -2.481694410     -2.289510318     -0.502477085
H       0.333216401      0.018161050     -1.147100915
H      -0.365914232     -2.196647128     -1.846617477
           6
  t=        53.50000    1    1
C      -1.901881917     -1.166239323     -1.081590813
C      -0.476849278     -1.260030071     -1.373388474
H      -2.748236364     -0.243220220     -0.875921956
H      -2.525536821     -2.269250499     -0.493875396
H       0.301993021      0.003108094     -1.156298231
H      -0.308541113     -2.204475470     -1.845616746
           6
  t=        54.00000    1    1
C      -1.914019832     -1.174636311     -1.096748879
C      -0.492328825     -1.275137090     -1.388502663
H      -2.744863994     -0.294831037     -0.844106479
H      -2.563248834     -2.240404166     -0.492738169
H       0.263784854     -0.025370735     -1.169565948
H      -0.246554073     -2.212807207     -1.844228284
           6
  t=        54.50000    1    1
C      -1.926406435     -1.183411462     -1.111200575
C      -0.508584371     -1.289024208     -1.403184704
H      -2.732688309     -0.350848173     -0.814570512
H      -2.594458362     -2.203743067     -0.499485854
H       0.218786329     -0.067056552     -1.186907567
H      -0.180872646     -2.221370284     -1.842167705
           6
  t=        55.00000    1    1
C      -1.939008286     -1.192699876     -1.124885889
C      -0.525523950     -1.301729877     -1.417480195
H      -2.712387080     -0.409286049     -0.787728300
H      -2.618998112     -2.160474146     -0.514459496
H       0.167371915     -0.121396937     -1.208328096
H      -0.112855101     -2.229427755     -1.838846477
           6
  t=        55.50000    1    1
C      -1.951759639     -1.202659367     -1.137784082
C      -0.543014781     -1.313348479     -1.431450289
H      -2.685181414     -0.467374347     -0.763654996
H      -2.636820441     -2.112307235     -0.537849680
H       0.110114624     -0.187515424     -1.233791952
H      -0.044266591     -2.235911493     -1.833552866
           6
  t=        56.00000    1    1
C      -1.964540652     -1.213483305     -1.149930531
C      -0.560914870     -1.324018829     -1.445154991
H      -2.652819970     -0.521787814     -0.741872391
H      -2.648035987     -2.061051311     -0.569744346
H       0.047785603     -0.264111856     -1.263182764
H       0.022861100     -2.239679714     -1.825656988
           6
  t=        56.50000    1    1
C      -1.977150649     -1.225361131     -1.161440124
C      -0.579100434     -1.333946358     -1.458652050
H      -2.617561820     -0.568494799     -0.721188869
H      -2.653327760     -2.009180897     -0.609932282
H      -0.018433184     -0.348836075     -1.296242823
H       0.086421921     -2.239934553     -1.814762279
           6
  t=        57.00000    1    1
C      -1.989333856     -1.238430442     -1.172504637
C      -0.597510160     -1.343467025     -1.472002632
H      -2.581791215     -0.603282794     -0.699858382
H      -2.654127424     -1.959799900     -0.657748550
H      -0.086525400     -0.437637578     -1.332428735
H       0.144437169     -2.236192369     -1.800809152
           6
  t=        57.50000    1    1
C      -2.000800378     -1.252697278     -1.183372491
C      -0.616236276     -1.353182758     -1.485275349
H      -2.547397882     -0.622301019     -0.675855088
H      -2.652913416     -1.916979061     -0.712078663
H      -0.152763783     -0.523226031     -1.370889891
H       0.195192391     -2.228279190     -1.784010873
           6
  t=        58.00000    1    1
C      -2.011163875     -1.267923754     -1.194325788
C      -0.635665004     -1.364030701     -1.498497877
H      -2.514792057     -0.623525914     -0.647587630
H      -2.653630023     -1.885639219     -0.771299631
H      -0.211461486     -0.594228081     -1.410710101
H       0.237353860     -2.216338939     -1.764806783
           6
  t=        58.50000    1    1
C      -2.020059475     -1.283593159     -1.205613015
C      -0.656346986     -1.377203025     -1.511702496
H      -2.483374102     -0.607672616     -0.615944092
H      -2.660691302     -1.870745480     -0.832059406
H      -0.255312451     -0.637073925     -1.449884648
H       0.269643544     -2.200212607     -1.744320022
           6
  t=        59.00000    1    1
C      -2.027383981     -1.299064417     -1.217285596
C      -0.678435849     -1.393475913     -1.524931673
H      -2.451790104     -0.577741027     -0.583566479
H      -2.678445162     -1.876277038     -0.891029649
H      -0.279655765     -0.643150085     -1.486853646
H       0.290995386     -2.179924704     -1.723678049
           6
  t=        59.50000    1    1
C      -2.033278370     -1.313839282     -1.229165178
C      -0.701567602     -1.412742949     -1.538175220
H      -2.418521567     -0.537983035     -0.553435147
H      -2.709140905     -1.903314391     -0.946963345
H      -0.285801212     -0.613680061     -1.521343282
H       0.300792628     -2.156124299     -1.703667912
           6
  t=        60.00000    1    1
C      -2.038095965     -1.327767217     -1.240900935
C      -0.725036922     -1.434062678     -1.551420435
H      -2.382464196     -0.493306663     -0.527746262
H      -2.751941608     -1.948784075     -1.001072811
H      -0.279750603     -0.558661852     -1.554272496
H       0.298901566     -2.129990637     -1.684293875
           6
  t=        60.50000    1    1
C      -2.042378179     -1.340970196     -1.252137871
C      -0.748070493     -1.456190010     -1.564663859
H      -2.343493422     -0.447790547     -0.508276317
H      -2.802620726     -2.007016388     -1.055181300
H      -0.268941636     -0.491888708     -1.586102901
H       0.285645473     -2.102704236     -1.665765809
           6
  t=        61.00000    1    1
C      -2.046682826     -1.353681618     -1.262619660
C      -0.770115379     -1.478195900     -1.577930510
H      -2.302088848     -0.404525897     -0.496340823
H      -2.856017091     -2.071919432     -1.110494562
H      -0.258536284     -0.423567877     -1.616740030
H       0.261562911     -2.075347628     -1.648413125
           6
  t=        61.50000    1    1
C      -2.051467871     -1.366112026     -1.272211568
C      -0.790878696     -1.499525000     -1.591247599
H      -2.259127693     -0.366058040     -0.492858857
H      -2.907552864     -2.138070384     -1.167247871
H      -0.251278379     -0.359587386     -1.645947680
H       0.227664120     -2.049018850     -1.632598859
           6
  t=        62.00000    1    1
C      -2.057050219     -1.378389055     -1.280871227
C      -0.810263890     -1.519873377     -1.604635805
H      -2.215584686     -0.334168802     -0.498265202
H      -2.954066031     -2.201625783     -1.225094536
H      -0.248431204     -0.302834980     -1.673563520
H       0.185650751     -2.024992518     -1.618655726
           6
  t=        62.50000    1    1
C      -2.063628394     -1.390586640     -1.288612553
C      -0.828324455     -1.539062255     -1.618107486
H      -2.172643218     -0.310085587     -0.512609575
H      -2.993552217     -2.259800539     -1.283377367
H      -0.250438577     -0.254638392     -1.699543286
H       0.138148583     -2.004747816     -1.606922359
           6
  t=        63.00000    1    1
C      -2.071343844     -1.402727892     -1.295467736
C      -0.845230034     -1.556955252     -1.631682519
H      -2.131619928     -0.294722271     -0.535686057
H      -3.024743905     -2.310653865     -1.341351748
H      -0.257191391     -0.215693786     -1.723986223
H       0.088804494     -1.989965224     -1.597629638
           6
  t=        63.50000    1    1
C      -2.080262304     -1.414805133     -1.301498371
C      -0.861288236     -1.573447306     -1.645386623
H      -2.093719240     -0.288541468     -0.566926604
H      -3.047114538     -2.353120785     -1.398335208
H      -0.268176450     -0.186242814     -1.747125127
H       0.042231810     -1.982348796     -1.590754892
           6
  t=        64.00000    1    1
C      -2.090412268     -1.426798449     -1.306779686
C      -0.876842935     -1.588409557     -1.659252527
H      -2.060074084     -0.291803548     -0.605703036
H      -3.060475853     -2.386569400     -1.453653444
H      -0.282946261     -0.166657253     -1.769147073
H       0.003364714     -1.983671021     -1.586127125
           6
  t=        64.50000    1    1
C      -2.101799656     -1.438693445     -1.311408407
C      -0.892169710     -1.601719887     -1.673320061
H      -2.031788723     -0.304636146     -0.651355689
H      -3.064815897     -2.410509886     -1.506536638
H      -0.301219098     -0.157398860     -1.790129708
H      -0.023631974     -1.995459018     -1.583471040
           6
  t=        65.00000    1    1
C      -2.114395554     -1.450491575     -1.315507032
C      -0.907373916     -1.613341777     -1.687624330
H      -2.009859458     -0.326909774     -0.703150741
H      -3.060364411     -2.424651863     -1.556135744
H      -0.322728986     -0.158675307     -1.810035201
H      -0.036887303     -2.018342777     -1.582529393
           6
  t=        65.50000    1    1
C      -2.128135777     -1.462214323     -1.319215279
C      -0.922337441     -1.623354129     -1.702176057
H      -1.995171862     -0.358190500     -0.760275738
H      -3.047603916     -2.428992330     -1.601589585
H      -0.347056989     -0.170369378     -1.828765938
H      -0.037624336     -2.051680263     -1.583280802
           6
  t=        66.00000    1    1
C      -2.142921016     -1.473906508     -1.322686614
C      -0.936769218     -1.631928379     -1.716948317
H      -1.988549916     -0.397676682     -0.821769380
H      -3.027267169     -2.423842366     -1.642104129
H      -0.373598532     -0.192136658     -1.846259165
H      -0.029542497     -2.093729664     -1.586035542
           6
  t=        66.50000    1    1
C      -2.158623861     -1.485659792     -1.326093872
C      -0.950310536     -1.639269744     -1.731876124
H      -1.990712244     -0.443972777     -0.886455173
H      -3.000258547     -2.409683065     -1.677006841
H      -0.401782044     -0.223656375     -1.862510042
H      -0.017382821     -2.142188666     -1.591362371
           6
  t=        67.00000    1    1
C      -2.175096857     -1.497650412     -1.329639584
C      -0.962635820     -1.645556274     -1.746859131
H      -2.001994956     -0.494693279     -0.952953931
H      -2.967610412     -2.387082847     -1.705791376
H      -0.431347862     -0.264883159     -1.877508239
H      -0.005672961     -2.194698169     -1.599939601
           6
  t=        67.50000    1    1
C      -2.192182686     -1.510154410     -1.333546148
C      -0.973504909     -1.650912064     -1.761786470
H      -2.022101542     -0.546018762     -1.019615006
H      -2.930635650     -2.356919944     -1.728243201
H      -0.462410931     -0.316095590     -1.891250331
H       0.001982160     -2.249152876     -1.612306834
           6
  t=        68.00000    1    1
C      -2.209699525     -1.523506739     -1.338021328
C      -0.982749542     -1.655418175     -1.776573945
H      -2.050433477     -0.592471410     -1.084480171
H      -2.891352208     -2.320928323     -1.744552218
H      -0.495192254     -0.377770098     -1.903744268
H       0.003051504     -2.303863121     -1.628752084
           6
  t=        68.50000    1    1
C      -2.227398637     -1.538039244     -1.343206965
C      -0.990273462     -1.659171078     -1.791181445
H      -2.086586647     -0.627040130     -1.145460143
H      -2.852925176     -2.282210398     -1.755527516
H      -0.529528638     -0.450001253     -1.915045247
H      -0.003978006     -2.357539356     -1.649288148
           6
  t=        69.00000    1    1
C      -2.244905382     -1.553933858     -1.349098725
C      -0.996089277     -1.662328960     -1.805583683
H      -2.130574826     -0.642943772     -1.201199191
H      -2.819661800     -2.245379066     -1.762923497
H      -0.564621935     -0.531944475     -1.925266467
H      -0.019897334     -2.409141611     -1.673756113
           6
  t=        69.50000    1    1
C      -2.261676932     -1.570922726     -1.355479465
C      -1.000345057     -1.665137538     -1.819721166
H      -2.182949632     -0.637706900     -1.252042374
H      -2.796518956     -2.216141191     -1.769660853
H      -0.599259426     -0.621548106     -1.934590598
H      -0.045114524     -2.457753938     -1.702003859
           6
  t=        70.00000    1    1
C      -2.277071492     -1.588210723     -1.361961284
C      -1.003328775     -1.668017834     -1.833496232
H      -2.244201540     -0.614278975     -1.299463670
H      -2.788926444     -2.201129138     -1.779857096
H      -0.631617425     -0.714523283     -1.943342700
H      -0.079749020     -2.502541060     -1.733900654
           6
  t=        70.50000    1    1
C      -2.290588306     -1.604828443     -1.368173421
C      -1.005501636     -1.671708560     -1.846796093
H      -2.313926726     -0.578946659     -1.344907855
H      -2.801145874     -2.205836991     -1.797418961
H      -0.658504634     -0.802613094     -1.952200855
H      -0.123605596     -2.542728024     -1.769178732
           6
  t=        71.00000    1    1
C      -2.302108649     -1.620140064     -1.374023825
C      -1.007513226     -1.677332680     -1.859482429
H      -2.391019660     -0.538743583     -1.389140267
H      -2.833688496     -2.231145041     -1.823389015
H      -0.674590413     -0.872727199     -1.962535898
H      -0.176283618     -2.577686596     -1.807404350
           6
  t=        71.50000    1    1
C      -2.311945916     -1.634016097     -1.379765898
C      -1.010105997     -1.686130290     -1.871393833
H      -2.474440898     -0.499617502     -1.432146959
H      -2.882691578     -2.272796388     -1.855123611
H      -0.672906250     -0.910279543     -1.976336804
H      -0.237072637     -2.607078384     -1.848149958
           6
  t=        72.00000    1    1
C      -2.320679229     -1.646627131     -1.385830682
C      -1.013738735     -1.698530027     -1.882460065
H      -2.562405150     -0.465839267     -1.473634347
H      -2.941947185     -2.324461416     -1.888101561
H      -0.650326169     -0.909927897     -1.994425262
H      -0.304724485     -2.631164161     -1.891109448
           6
  t=        72.50000    1    1
C      -2.328881192     -1.658223911     -1.392653089
C      -1.018439640     -1.713866071     -1.892736845
H      -2.652223753     -0.440574011     -1.513221196
H      -3.005558730     -2.380177236     -1.918062013
H      -0.609979924     -0.878459164     -2.015943227
H      -0.377535664     -2.650900694     -1.935936713
           6
  t=        73.00000    1    1
C      -2.336993800     -1.669020370     -1.400530185
C      -1.023939512     -1.730815023     -1.902382977
H      -2.741436639     -0.425909444     -1.550388481
H      -3.068970126     -2.435495720     -1.942301848
H      -0.558736801     -0.830063846     -2.039120146
H      -0.453594095     -2.667677952     -1.982192497
           6
  t=        73.50000    1    1
C      -2.345341043     -1.679165923     -1.409633983
C      -1.030007203     -1.748195237     -1.911546426
H      -2.828175574     -0.423129287     -1.584660889
H      -3.128870760     -2.487380705     -1.959329052
H      -0.502703431     -0.776911923     -2.062362144
H      -0.530865699     -2.683378101     -2.029625197
           6
  t=        74.00000    1    1
C      -2.354161357     -1.688752726     -1.420065559
C      -1.036532906     -1.765143654     -1.920322626
H      -2.910952528     -0.432904038     -1.615557505
H      -3.182916669     -2.533853646     -1.968405640
H      -0.446303907     -0.727207946     -2.084541160
H      -0.607225679     -2.700290484     -2.078240256
           6
  t=        74.50000    1    1
C      -2.363626097     -1.697826598     -1.431874569
C      -1.043511786     -1.781093277     -1.928759343
H      -2.988302581     -0.455506607     -1.642618213
H      -3.229357520     -2.573709450     -1.969356596
H      -0.392625293     -0.685810274     -2.104938318
H      -0.680818027     -2.720699098     -2.128230828
           6
  t=        75.00000    1    1
C      -2.373865853     -1.706411464     -1.445066649
C      -1.050952927     -1.795735867     -1.936881708
H      -3.058944253     -0.490714306     -1.665404439
H      -3.266900203     -2.606312883     -1.962416512
H      -0.343821790     -0.655471979     -2.123157078
H      -0.750398828     -2.746096588     -2.179830823
           6
  t=        75.50000    1    1
C      -2.384952997     -1.714538494     -1.459625927
C      -1.058861716     -1.808987002     -1.944707215
H      -3.121876217     -0.537840015     -1.683611179
H      -3.294651400     -2.631402482     -1.947993971
H      -0.301388397     -0.637723893     -2.138971187
H      -0.815441170     -2.776535250     -2.233143593
           6
  t=        76.00000    1    1
C      -2.396925631     -1.722253294     -1.475500042
C      -1.067228018     -1.820957917     -1.952280034
H      -3.176350586     -0.595912313     -1.697147434
H      -3.312136983     -2.648971787     -1.926628281
H      -0.266234589     -0.633216311     -2.152287034
H      -0.875924329     -2.810473783     -2.287912033
           6
  t=        76.50000    1    1
C      -2.409826066     -1.729610519     -1.492621218
C      -1.076026033     -1.831860022     -1.959679864
H      -3.221726734     -0.663897461     -1.705994172
H      -3.319075355     -2.659140430     -1.898887833
H      -0.238933258     -0.642195890     -2.163104138
H      -0.932000940     -2.845409316     -2.343445202
           6
  t=        77.00000    1    1
C      -2.423673891     -1.736683979     -1.510904684
C      -1.085236529     -1.841928796     -1.967018490
H      -3.257573139     -0.740553469     -1.710234426
H      -3.315430054     -2.662214222     -1.865397727
H      -0.219791061     -0.664571286     -2.171428297
H      -0.983828042     -2.878683985     -2.398707285
           6
  t=        77.50000    1    1
C      -2.438436164     -1.743563389     -1.530249993
C      -1.094848638     -1.851374785     -1.974426497
H      -3.283806925     -0.824235314     -1.710027083
H      -3.301480285     -2.658815928     -1.826907671
H      -0.209052874     -0.700076300     -2.177222655
H      -1.031486478     -2.908008413     -2.452467392
           6
  t=        78.00000    1    1
C      -2.454029333     -1.750341402     -1.550546150
C      -1.104839912     -1.860365412     -1.982033299
H      -3.300749753     -0.912738947     -1.705541367
H      -3.277768077     -2.650034737     -1.784322320
H      -0.207143733     -0.748471147     -2.180431777
H      -1.074950566     -2.931638272     -2.503487644
           6
  t=        78.50000    1    1
C      -2.470287148     -1.757121607     -1.571671203
C      -1.115186846     -1.869036105     -1.989948166
H      -3.309392348     -1.003176870     -1.696974542
H      -3.245168779     -2.637429281     -1.738717172
H      -0.214607249     -0.809427387     -2.181065743
H      -1.114071675     -2.948382836     -2.550636310
           6
  t=        79.00000    1    1
C      -2.486904163     -1.764029836     -1.593470744
C      -1.125874808     -1.877516618     -1.998253830
H      -3.311907597     -1.091612952     -1.684673792
H      -3.205261061     -2.623411205     -1.691370057
H      -0.231696543     -0.882105690     -2.179317140
H      -1.148659087     -2.957560424     -2.592949832
           6
  t=        79.50000    1    1
C      -2.503421720     -1.771209052     -1.615774264
C      -1.136931732     -1.885946462     -2.007009430
H      -3.311838816     -1.173119799     -1.669147958
H      -3.160130204     -2.611310777     -1.643519751
H      -0.258117016     -0.965059720     -2.175536221
H      -1.178511178     -2.958848621     -2.629657420
           6
  t=        80.00000    1    1
C      -2.519197050     -1.778783999     -1.638435732
C      -1.148443471     -1.894476576     -2.016246768
H      -3.314328847     -1.242289542     -1.650908600
H      -3.112371994     -2.605252425     -1.596088276
H      -0.292914445     -1.056185042     -2.170160244
H      -1.203479555     -2.952350381     -2.660249329
           6
  t=        80.50000    1    1
C      -2.533498480     -1.786793929     -1.661384250
C      -1.160553559     -1.903274849     -2.025972045
H      -3.325321117     -1.294076720     -1.630125174
H      -3.064804158     -2.610062267     -1.549437629
H      -0.334388748     -1.152686558     -2.163689507
H      -1.223511209     -2.938611911     -2.684464712
           6
  t=        81.00000    1    1
C      -2.545787737     -1.795167769     -1.684635398
C      -1.173485040     -1.912564769     -2.036165777
H      -3.349335856     -1.325570363     -1.606477660
H      -3.019638692     -2.629782800     -1.503321647
H      -0.379506000     -1.250696839     -2.156775979
H      -1.238664045     -2.918552964     -2.702264328
           6
  t=        81.50000    1    1
C      -2.556036386     -1.803782856     -1.708211921
C      -1.187619983     -1.922692021     -2.046775114
H      -3.386898881     -1.337253922     -1.579527153
H      -2.977609505     -2.665691551     -1.457396653
H      -0.422659853     -1.344574152     -2.150394255
H      -1.249070874     -2.893396868     -2.713814854
           6
  t=        82.00000    1    1
C      -2.564729459     -1.812583923     -1.732018866
C      -1.203551929     -1.934094852     -2.057715506
H      -3.434255274     -1.332552264     -1.549402741
H      -2.938119027     -2.715436541     -1.412061351
H      -0.455040769     -1.427041934     -2.145769478
H      -1.255041788     -2.864783824     -2.719502286
           6
  t=        82.50000    1    1
C      -2.572575016     -1.821636827     -1.755806773
C      -1.221939537     -1.947108148     -2.068896787
H      -3.485397008     -1.316180244     -1.517045204
H      -2.900286344     -2.774114013     -1.368737750
H      -0.466703172     -1.491272873     -2.143865231
H      -1.257125944     -2.834954910     -2.720047089
           6
  t=        83.00000    1    1
C      -2.580248770     -1.831063624     -1.779243591
C      -1.243055197     -1.961664053     -2.080248301
H      -3.534466279     -1.292508023     -1.483906959
H      -2.863484312     -2.836448166     -1.329382317
H      -0.452227916     -1.534674862     -2.144792927
H      -1.255930145     -2.806762043     -2.716727515
           6
  t=        83.50000    1    1
C      -2.588290509     -1.840957415     -1.802012237
C      -1.266471326     -1.977219515     -2.091704997
H      -3.576952633     -1.265061013     -1.451499869
H      -2.827518762     -2.898136433     -1.295796136
H      -0.414339020     -1.559715761     -2.147701256
H      -1.252097981     -2.783875992     -2.711635313
           6
  t=        84.00000    1    1
C      -2.597075209     -1.851369783     -1.823870048
C      -1.291218943     -1.992979066     -2.103170594
H      -3.610056393     -1.236530716     -1.421056894
H      -2.792681722     -2.956059932     -1.269233102
H      -0.362061624     -1.571619658     -2.151419919
H      -1.246189948     -2.770363963     -2.707492655
           6
  t=        84.50000    1    1
C      -2.606832982     -1.862327824     -1.844646391
C      -1.316300776     -2.008226692     -2.114528465
H      -3.632480164     -1.208657005     -1.393492771
H      -2.759488476     -3.008291605     -1.250419611
H      -0.305116230     -1.575298211     -2.155144671
H      -1.238408863     -2.769710387     -2.706885572
           6
  t=        85.00000    1    1
C      -2.617716365     -1.873818132     -1.864204725
C      -1.340960956     -2.022507109     -2.125712855
H      -3.643687525     -1.182605861     -1.369578615
H      -2.728540806     -3.053849307     -1.239755632
H      -0.250787806     -1.574067074     -2.158531172
H      -1.228593540     -2.784000536     -2.711397797
           6
  t=        85.50000    1    1
C      -2.629831352     -1.885787587     -1.882448173
C      -1.364703719     -2.035679496     -2.136769357
H      -3.643420475     -1.159480412     -1.349952253
H      -2.700556164     -3.092210357     -1.237324086
H      -0.203465678     -1.569823183     -2.161545250
H      -1.216539534     -2.813067940     -2.720953840
           6
  t=        86.00000    1    1
C      -2.643223096     -1.898161614     -1.899339269
C      -1.387204317     -2.047873155     -2.147855015
H      -3.631829109     -1.140188939     -1.335079060
H      -2.676202372     -3.123304529     -1.242785857
H      -0.165539997     -1.563752409     -2.164316633
H      -1.202370377     -2.854236601     -2.733872877
           6
  t=        86.50000    1    1
C      -2.657897665     -1.910869540     -1.914861176
C      -1.408203628     -2.059352550     -2.159186564
H      -3.609258089     -1.125512304     -1.325365567
H      -2.656146387     -3.147201611     -1.255586494
H      -0.138489225     -1.556727764     -2.166994577
H      -1.186611277     -2.903473691     -2.747771625
           6
  t=        87.00000    1    1
C      -2.673824643     -1.923858203     -1.929006467
C      -1.427479142     -2.070409602     -2.170982417
H      -3.576221878     -1.116102722     -1.321155251
H      -2.641072359     -3.163999016     -1.275080715
H      -0.123263117     -1.549428251     -2.169688320
H      -1.170127651     -2.956505602     -2.760328641
           6
  t=        87.50000    1    1
C      -2.690943019     -1.937097385     -1.941769453
C      -1.444855727     -2.081285968     -2.183414451
H      -3.533368105     -1.112485223     -1.322732630
H      -2.631625495     -3.173728002     -1.300667681
H      -0.120385531     -1.542341942     -2.172439193
H      -1.153916608     -3.009768532     -2.769838657
           6
  t=        88.00000    1    1
C      -2.709154852     -1.950579862     -1.953150329
C      -1.460226530     -2.092146582     -2.196585169
H      -3.481517577     -1.115013987     -1.330276904
H      -2.628319816     -3.176289329     -1.331893489
H      -0.130060179     -1.535799995     -2.175242053
H      -1.138879877     -3.060797185     -2.775357798
           6
  t=        88.50000    1    1
C      -2.728308821     -1.964323476     -1.963172347
C      -1.473559441     -2.103092603     -2.210529951
H      -3.421774798     -1.123732988     -1.343748187
H      -2.631476973     -3.171486559     -1.368462578
H      -0.152346472     -1.530068792     -2.178094714
H      -1.125717566     -3.108059625     -2.776525064
           6
  t=        89.00000    1    1
C      -2.748191590     -1.978373940     -1.971898208
C      -1.484879427     -2.114189066     -2.225237761
H      -3.355569305     -1.138247548     -1.362780590
H      -2.641250753     -3.159117604     -1.410163684
H      -0.187369232     -1.525446389     -2.181023375
H      -1.114966122     -3.150534956     -2.773275793
           6
  t=        89.50000    1    1
C      -2.768519324     -1.992810326     -1.979440132
C      -1.494250677     -2.125476401     -2.240673172
H      -3.284676535     -1.157555272     -1.386602404
H      -2.657817784     -3.139233493     -1.456715462
H      -0.235355691     -1.522277382     -2.184114625
H      -1.107063437     -3.187406003     -2.765661385
           6
  t=        90.00000    1    1
C      -2.788945172     -2.007734758     -1.985983235
C      -1.501789825     -2.136975201     -2.256784879
H      -3.211309618     -1.179788290     -1.413887705
H      -2.681473410     -3.112626831     -1.507529019
H      -0.296185237     -1.520830726     -2.187539641
H      -1.102364849     -3.218016803     -2.753831068
           6
  t=        90.50000    1    1
C      -2.809109090     -2.023256636     -1.991779318
C      -1.507623270     -2.148705708     -2.273524019
H      -3.137939939     -1.202195383     -1.442728186
H      -2.712692289     -3.080975979     -1.561706216
H      -0.369360695     -1.521253335     -2.191559961
H      -1.101205533     -3.241748536     -2.737911577
           6
  t=        91.00000    1    1
C      -2.828657241     -2.039478456     -1.997155614
C      -1.511915337     -2.160675918     -2.290834363
H      -3.066974520     -1.221165873     -1.470645502
H      -2.752005709     -3.046975835     -1.618038875
H      -0.453924682     -1.523592950     -2.196495209
H      -1.103862733     -3.258152662     -2.718040631
           6
  t=        91.50000    1    1
C      -2.847242707     -2.056393938     -2.002506892
C      -1.514913937     -2.172903356     -2.308646035
H      -3.000535970     -1.232461537     -1.494911336
H      -2.800008209     -3.015204761     -1.674769429
H      -0.548179457     -1.527602252     -2.202686363
H      -1.110496769     -3.267002346     -2.694491809
           6
  t=        92.00000    1    1
C      -2.864567596     -2.073674040     -2.008243557
C      -1.517050831     -2.185468373     -2.326861080
H      -2.939848068     -1.233058477     -1.513492667
H      -2.857282751     -2.992457984     -1.729357501
H      -0.649059766     -1.532214422     -2.210320587
H      -1.120771009     -3.268556426     -2.667928279
           6
  t=        92.50000    1    1
C      -2.880354936     -2.090642406     -2.014660056
C      -1.518945785     -2.198549174     -2.345349653
H      -2.885215779     -1.222693519     -1.525960260
H      -2.924785091     -2.986550493     -1.779264991
H      -0.752110291     -1.535053686     -2.219401466
H      -1.133795440     -3.263574647     -2.639352474
           6
  t=        93.00000    1    1
C      -2.894291519     -2.106533540     -2.021867386
C      -1.521426998     -2.212500933     -2.363973275
H      -2.837051300     -1.203760225     -1.533331479
H      -3.003609018     -3.003244571     -1.822911379
H      -0.850949652     -1.531818096     -2.229494643
H      -1.148308976     -3.253092388     -2.610089364
           6
  t=        93.50000    1    1
C      -2.906056895     -2.120985858     -2.029761381
C      -1.525383126     -2.227807811     -2.382649472
H      -2.796394702     -1.180000509     -1.537290081
H      -3.094241274     -3.041821736     -1.860595928
H      -0.938714560     -1.516607565     -2.239477862
H      -1.162877545     -3.238525707     -2.581502121
           6
  t=        94.00000    1    1
C      -2.915494632     -2.134214422     -2.038113669
C      -1.531432492     -2.244757372     -2.401333635
H      -2.764144429     -1.154769523     -1.539403179
H      -3.196032573     -3.095513451     -1.894065862
H      -1.011388933     -1.484419983     -2.248200594
H      -1.175764339     -3.222300982     -2.554679703
           6
  t=        94.50000    1    1
C      -2.922691798     -2.146706105     -2.046708820
C      -1.539783410     -2.263142780     -2.419905125
H      -2.741010274     -1.131321940     -1.541033492
H      -3.306301224     -3.154742852     -1.925157682
H      -1.069472521     -1.434921956     -2.255608444
H      -1.184921808     -3.207736961     -2.530481767
           6
  t=        95.00000    1    1
C      -2.927928375     -2.158900306     -2.055396599
C      -1.550295112     -2.282215183     -2.438185275
H      -2.727433539     -1.112380849     -1.543297323
H      -3.421149524     -3.211301484     -1.955065588
H      -1.116782401     -1.373410255     -2.262782616
H      -1.188330452     -3.198709581     -2.509435673
           6
  t=        95.50000    1    1
C      -2.931576705     -2.171071297     -2.064089542
C      -1.562717555     -2.301029024     -2.456008772
H      -2.723540218     -1.100241206     -1.547159130
H      -3.536649014     -3.259589872     -1.984246318
H      -1.157470816     -1.307739094     -2.271159471
H      -1.184183241     -3.198667951     -2.491695905
           6
  t=        96.00000    1    1
C      -2.934023154     -2.183361526     -2.072733689
C      -1.576790749     -2.318837835     -2.473294822
H      -2.729492129     -1.096847414     -1.553372573
H      -3.649612170     -3.296192300     -2.012653309
H      -1.194138223     -1.244771497     -2.281900908
H      -1.171399535     -3.209417683     -2.476999129
           6
  t=        96.50000    1    1
C      -2.935676518     -2.195862042     -2.081290873
C      -1.592189897     -2.335257320     -2.490036166
H      -2.745192087     -1.103092547     -1.562333423
H      -3.757362526     -3.319499751     -2.040179856
H      -1.228072391     -1.189438058     -2.295764250
H      -1.150464343     -3.230238343     -2.464840248
           6
  t=        97.00000    1    1
C      -2.936897470     -2.208661755     -2.089747379
C      -1.608611818     -2.350200145     -2.506235300
H      -2.770203848     -1.118837399     -1.574109229
H      -3.857367428     -3.328902235     -2.066848629
H      -1.259835879     -1.145193823     -2.313211051
H      -1.123098911     -3.258405317     -2.454801187
           6
  t=        97.50000    1    1
C      -2.937966176     -2.221795332     -2.098096559
C      -1.625759548     -2.363791302     -2.521907276
H      -2.804065661     -1.143515551     -1.588486388
H      -3.947820639     -3.324648030     -2.092732178
H      -1.289636468     -1.114260613     -2.334519700
H      -1.091563652     -3.290112488     -2.446644451
           6
  t=        98.00000    1    1
C      -2.939100550     -2.235269243     -2.106336652
C      -1.643338940     -2.376258781     -2.537077850
H      -2.846303378     -1.176180215     -1.605049972
H      -4.027762004     -3.307593460     -2.117892191
H      -1.317474155     -1.097851086     -2.359770607
H      -1.058201197     -3.321443877     -2.440356950
           6
  t=        98.50000    1    1
C      -2.940495155     -2.249111880     -2.114472999
C      -1.661085320     -2.387837456     -2.551768322
H      -2.896342040     -1.215489704     -1.623347493
H      -4.096570261     -3.278776117     -2.142373164
H      -1.343182690     -1.096431442     -2.388842720
H      -1.025209466     -3.349100434     -2.436150280
           6
  t=        99.00000    1    1
C      -2.942359890     -2.263393682     -2.122516524
C      -1.678758408     -2.398723865     -2.566001075
H      -2.953521382     -1.259773428     -1.642875666
H      -4.153646922     -3.239165322     -2.166201114
H      -1.366481012     -1.109988530     -2.421509383
H      -0.994490265     -3.370615331     -2.434331505
           6
  t=        99.50000    1    1
C      -2.944906133     -2.278220453     -2.130494985
C      -1.696145297     -2.409076849     -2.579789797
H      -3.017054874     -1.306822636     -1.663058326
H      -4.198660874     -3.189994134     -2.189362629
H      -1.386968954     -1.137887139     -2.457439588
H      -0.967579627     -3.384446081     -2.435327351
           6
  t=       100.00000    1    1
C      -2.948347291     -2.293724487     -2.138453583
C      -1.713052178     -2.419012483     -2.593148988
H      -3.086170722     -1.353991062     -1.683167700
H      -4.231467109     -3.132708962     -2.211803242
H      -1.404165313     -1.179118526     -2.496274802
H      -0.945642038     -3.389841755     -2.439567204
           6
  t=       100.50000    1    1
C      -2.952891304     -2.310031508     -2.146444272
C      -1.729298273     -2.428628284     -2.606098227
H      -3.160011316     -1.398511480     -1.702565232
H      -4.251989177     -3.068952433     -2.233409997
H      -1.417730499     -1.232347903     -2.537505596
H      -0.929627499     -3.386601711     -2.447459651
           6
  t=       101.00000    1    1
C      -2.958727522     -2.327194510     -2.154501859
C      -1.744725575     -2.438047227     -2.618670302
H      -3.237475079     -1.438185242     -1.721097857
H      -4.260189299     -3.000501778     -2.253983340
H      -1.427688857     -1.295607209     -2.580323514
H      -0.920277538     -3.375018621     -2.459360313
           6
  t=       101.50000    1    1
C      -2.966021815     -2.345156669     -2.162630645
C      -1.759225728     -2.447435349     -2.630908116
H      -3.317290288     -1.471940894     -1.739075597
H      -4.256062095     -2.929139099     -2.273298102
H      -1.434206095     -1.366149322     -2.623863956
H      -0.918018234     -3.355827622     -2.475486489
           6
  t=       102.00000    1    1
C      -2.974950433     -2.363787613     -2.170814833
C      -1.772752144     -2.457000321     -2.642845597
H      -3.397845075     -1.499402606     -1.756942838
H      -4.239620098     -2.856850018     -2.291234474
H      -1.437139257     -1.440469861     -2.667486176
H      -0.923046872     -3.330002222     -2.495938282
           6
  t=       102.50000    1    1
C      -2.985678222     -2.382876290     -2.179006596
C      -1.785357879     -2.467015240     -2.654501628
H      -3.476713270     -1.520584040     -1.775275747
H      -4.211375372     -2.786298330     -2.307973823
H      -1.435870419     -1.513833697     -2.710800812
H      -0.935299015     -3.298860803     -2.520692435
           6
  t=       103.00000    1    1
C      -2.998303463     -2.402160097     -2.187144589
C      -1.797213986     -2.477819487     -2.665885433
H      -3.551606878     -1.536228867     -1.794675739
H      -4.172299768     -2.720073591     -2.323725035
H      -1.428921161     -1.580430237     -2.753840866
H      -0.954359966     -3.263965849     -2.549526661
           6
  t=       103.50000    1    1
C      -3.012818455     -2.421387537     -2.195189192
C      -1.808593918     -2.489704597     -2.676980540
H      -3.620630230     -1.547018913     -1.815466933
H      -4.124112747     -2.660756194     -2.338712293
H      -1.414306630     -1.634291931     -2.797136486
H      -0.979224156     -3.227545624     -2.582030941
           6
  t=       104.00000    1    1
C      -3.028962518     -2.440312718     -2.203113722
C      -1.819815608     -2.502736510     -2.687755461
H      -3.682323507     -1.553210125     -1.837702841
H      -4.070696443     -2.611180905     -2.353428984
H      -1.390814807     -1.671304083     -2.841356456
H      -1.007999069     -3.192768339     -2.617682671
           6
  t=       104.50000    1    1
C      -3.046151672     -2.458694517     -2.210876682
C      -1.831182783     -2.516625159     -2.698207775
H      -3.735562922     -1.554906862     -1.861417226
H      -4.018408785     -2.574070938     -2.368847320
H      -1.359299309     -1.691298541     -2.886538869
H      -1.037936357     -3.163304084     -2.655961162
           6
  t=       105.00000    1    1
C      -3.063532056     -2.476316743     -2.218403035
C      -1.842927531     -2.530791083     -2.708376509
H      -3.779369354     -1.552077275     -1.886558677
H      -3.976247986     -2.552021654     -2.386597393
H      -1.322382902     -1.697345090     -2.931910371
H      -1.065803002     -3.143000296     -2.696490132
           6
  t=       105.50000    1    1
C      -3.080140344     -2.493041284     -2.225582520
C      -1.855191249     -2.544568106     -2.718322344
H      -3.813294275     -1.544899817     -1.912982593
H      -3.954476826     -2.546681351     -2.408708196
H      -1.283118644     -1.693844424     -2.976319997
H      -1.088525547     -3.135213133     -2.739126933
           6
  t=       106.00000    1    1
C      -3.095276396     -2.508798750     -2.232315525
C      -1.867999887     -2.557401464     -2.728107140
H      -3.837209432     -1.533913947     -1.940529106
H      -3.960685320     -2.558598238     -2.436889402
H      -1.244161070     -1.684842822     -3.018579448
H      -1.104021112     -3.142245893     -2.783959913
           6
  t=       106.50000    1    1
C      -3.108834394     -2.523554103     -2.238601017
C      -1.881223006     -2.568962896     -2.737799974
H      -3.851181729     -1.519976937     -1.968996725
H      -3.995573089     -2.587387979     -2.471561252
H      -1.207824364     -1.673542131     -3.057560309
H      -1.112024158     -3.164752739     -2.831087944
           6
  t=       107.00000    1    1
C      -3.121320405     -2.537283716     -2.244574010
C      -1.894557729     -2.579186671     -2.747495267
H      -3.855386740     -1.504247222     -1.998114299
H      -4.052715559     -2.631910099     -2.511413350
H      -1.176061596     -1.662290718     -3.092303845
H      -1.114409438     -3.201432092     -2.880317419
           6
  t=       107.50000    1    1
C      -3.133541921     -2.549977506     -2.250463974
C      -1.907606037     -2.588208062     -2.757314395
H      -3.849968076     -1.488319090     -2.027603198
H      -4.122232625     -2.690214515     -2.553918922
H      -1.150399731     -1.652777337     -3.122102221
H      -1.114507385     -3.249459290     -2.930981043
           6
  t=       108.00000    1    1
C      -3.146255541     -2.561638531     -2.256516445
C      -1.919995741     -2.596277224     -2.767372873
H      -3.834990601     -1.473951264     -2.057184303
H      -4.194831798     -2.759935527     -2.596414962
H      -1.131833917     -1.646258611     -3.146514139
H      -1.115969933     -3.305167472     -2.982160052
           6
  t=       108.50000    1    1
C      -3.160000285     -2.572266455     -2.262924019
C      -1.931452665     -2.603662800     -2.777762717
H      -3.810447249     -1.462884056     -2.086614427
H      -4.263717866     -2.838750776     -2.636882240
H      -1.120978250     -1.643693519     -3.165299768
H      -1.121829478     -3.364982650     -3.032965334
           6
  t=       109.00000    1    1
C      -3.175068819     -2.581864913     -2.269812853
C      -1.941802942     -2.610606624     -2.788562289
H      -3.776659058     -1.456828569     -2.115734910
H      -4.324558560     -2.924297843     -2.673981204
H      -1.118253393     -1.645803704     -3.178333884
H      -1.134261026     -3.425909561     -3.082583387
           6
  t=       109.50000    1    1
C      -3.191533937     -2.590470620     -2.277265445
C      -1.950950885     -2.617313830     -2.799847814
H      -3.734655054     -1.457190273     -2.144428279
H      -4.374854645     -3.014108852     -2.706816516
H      -1.123980627     -1.653286568     -3.185513068
H      -1.154686278     -3.485431421     -3.130239108
           6
  t=       110.00000    1    1
C      -3.209296882     -2.598165026     -2.285342117
C      -1.958877740     -2.623950507     -2.811683439
H      -3.685944238     -1.464562877     -2.172498500
H      -4.413593459     -3.106025847     -2.734888579
H      -1.138408952     -1.666730248     -3.186741351
H      -1.183760125     -3.541574759     -3.175240967
           6
  t=       110.50000    1    1
C      -3.228178211     -2.605072402     -2.294106789
C      -1.965652826     -2.630658520     -2.824099110
H      -3.632256601     -1.479068587     -2.199819100
H      -4.440216190     -3.197920385     -2.757758838
H      -1.161626584     -1.686399465     -3.181985700
H      -1.221535387     -3.592909864     -3.217068590
           6
  t=       111.00000    1    1
C      -3.247935045     -2.611361774     -2.303628215
C      -1.971431059     -2.637588579     -2.837085616
H      -3.575512924     -1.500132458     -2.226199082
H      -4.454429360     -3.287809083     -2.775133410
H      -1.193396621     -1.712159678     -3.171414769
H      -1.267669787     -3.638319782     -3.255328659
           6
  t=       111.50000    1    1
C      -3.268280145     -2.617262599     -2.313979174
C      -1.976441536     -2.644925059     -2.850603619
H      -3.518001736     -1.526389263     -2.251331226
H      -4.456024078     -3.373673247     -2.786796976
H      -1.232969849     -1.743426002     -3.155482996
H      -1.321525689     -3.676842189     -3.289690826
           6
  t=       112.00000    1    1
C      -3.288926760     -2.623070926     -2.325232432
C      -1.980965548     -2.652898830     -2.864592968
H      -3.462267876     -1.555571683     -2.274735711
H      -4.444804462     -3.453487534     -2.792578561
H      -1.278921947     -1.779047697     -3.134973615
H      -1.382243553     -3.707641924     -3.319872337
           6
  t=       112.50000    1    1
C      -3.309616454     -2.629130645     -2.337458009
C      -1.985327237     -2.661798510     -2.878975923
H      -3.410806548     -1.584655895     -2.295798624
H      -4.420649959     -3.525327368     -2.792336699
H      -1.329092567     -1.817092859     -3.110938699
H      -1.448826104     -3.730062507     -3.345668485
           6
  t=       113.00000    1    1
C      -3.330116769     -2.635799601     -2.350725427
C      -1.989913999     -2.671987769     -2.893654557
H      -3.365840716     -1.610230131     -2.313815116
H      -4.383580566     -3.587412526     -2.785960942
H      -1.380508815     -1.854565645     -3.084621519
H      -1.520157115     -3.743694444     -3.366989757
           6
  t=       113.50000    1    1
C      -3.350208863     -2.643400870     -2.365099603
C      -1.995210192     -2.683911319     -2.908506144
H      -3.329137791     -1.629214127     -2.328116901
H      -4.333832139     -3.638075557     -2.773379577
H      -1.429307384     -1.887149695     -3.057345941
H      -1.594932792     -3.748453107     -3.383941133
           6
  t=       114.00000    1    1
C      -3.369668763     -2.652161844     -2.380629507
C      -2.001776733     -2.698026344     -2.923394218
H      -3.301852887     -1.639726722     -2.338244609
H      -4.272057262     -3.675859177     -2.754606982
H      -1.471217466     -1.909717648     -3.030211793
H      -1.671601364     -3.744647113     -3.396910330
           6
  t=       114.50000    1    1
C      -3.388240377     -2.662153826     -2.397331824
C      -2.010128714     -2.714646737     -2.938195167
H      -3.284823254     -1.641472344     -2.343859583
H      -4.199805154     -3.699919990     -2.729885870
H      -1.502644171     -1.917909813     -3.003845273
H      -1.748285063     -3.733185227     -3.406641207
           6
  t=       115.00000    1    1
C      -3.405606226     -2.673261966     -2.415192804
C      -2.020619758     -2.733747705     -2.952799364
H      -3.278918834     -1.635790838     -2.344632061
H      -4.119712669     -3.710297206     -2.699688969
H      -1.521913000     -1.910248407     -2.978383516
H      -1.822720952     -3.715830155     -3.414323797
           6
  t=       115.50000    1    1
C      -3.421437400     -2.685223126     -2.434159726
C      -2.033387033     -2.754830692     -2.967083526
H      -3.284769069     -1.625425915     -2.340423770
H      -4.034791313     -3.707720989     -2.664651912
H      -1.530042743     -1.889527113     -2.953746035
H      -1.892533975     -3.695390404     -3.421638423
           6
  t=       116.00000    1    1
C      -3.435417213     -2.697675099     -2.454127412
C      -2.048393765     -2.776986010     -2.980871965
H      -3.302402300     -1.613601391     -2.331437622
H      -3.948335624     -3.694072434     -2.625642733
H      -1.529980426     -1.861685628     -2.930018233
H      -1.955665985     -3.675976864     -3.430775432
           6
  t=       116.50000    1    1
C      -3.447210472     -2.710140572     -2.474941642
C      -2.065482129     -2.799128650     -2.993923054
H      -3.331507048     -1.603213074     -2.318199227
H      -3.864777219     -3.673390498     -2.583605046
H      -1.525080742     -1.833333084     -2.907665353
H      -2.010516758     -3.662661773     -3.444517166
           6
  t=       117.00000    1    1
C      -3.456466871     -2.722009300     -2.496465574
C      -2.084475097     -2.820280471     -3.005975616
H      -3.371791202     -1.596584094     -2.301241017
H      -3.789038615     -3.652002540     -2.539103478
H      -1.517935378     -1.809982182     -2.887472337
H      -2.056147790     -3.660208618     -3.465724277
           6
  t=       117.50000    1    1
C      -3.462961382     -2.732536808     -2.518624652
C      -2.105154906     -2.839778905     -3.016885613
H      -3.423084557     -1.595684325     -2.280822910
H      -3.724932051     -3.637780559     -2.491889159
H      -1.510317902     -1.795857046     -2.870303554
H      -2.092419592     -3.671317277     -3.496126042
           6
  t=       118.00000    1    1
C      -3.466753779     -2.740990462     -2.541366839
C      -2.127167466     -2.857329989     -3.026680189
H      -3.484533970     -1.602435757     -2.257460776
H      -3.675045083     -3.638642163     -2.440702008
H      -1.503593379     -1.793504169     -2.857032926
H      -2.119739667     -3.695834238     -3.535889359
           6
  t=       118.50000    1    1
C      -3.468211833     -2.747032713     -2.564635548
C      -2.150131015     -2.872993281     -3.035541990
H      -3.554011616     -1.618248922     -2.232257522
H      -3.639677068     -3.658799278     -2.383979507
H      -1.498695754     -1.803422313     -2.848239291
H      -2.139169255     -3.730950751     -3.583392941
           6
  t=       119.00000    1    1
C      -3.467920983     -2.751023117     -2.588283574
C      -2.173700145     -2.887073359     -3.043787590
H      -3.628932321     -1.643319907     -2.206400953
H      -3.616577683     -3.695221553     -2.321552873
H      -1.496162062     -1.824943777     -2.844088203
H      -2.152146683     -3.772255180     -3.635434050
           6
  t=       119.50000    1    1
C      -3.466555898     -2.753742993     -2.611989976
C      -2.197497492     -2.899924757     -3.051786573
H      -3.706718143     -1.677102724     -2.180938489
H      -3.602913919     -3.740324549     -2.255511415
H      -1.496434101     -1.857087071     -2.844597754
H      -2.160098529     -3.815324963     -3.688278253
           6
  t=       120.00000    1    1
C      -3.464742774     -2.755936569     -2.635339407
C      -2.221142714     -2.911855545     -3.059870759
H      -3.785142714     -1.718857984     -2.156793442
H      -3.596634885     -3.786820275     -2.189017481
H      -1.499812485     -1.898892325     -2.849823606
H      -2.164071904     -3.856608512     -3.738779519
           6
  t=       120.50000    1    1
C      -3.463044198     -2.758107089     -2.657910602
C      -2.244253021     -2.923126438     -3.068326159
H      -3.862431940     -1.767790816     -2.134837544
H      -3.596514279     -3.829915859     -2.125055976
H      -1.506432274     -1.949410130     -2.859830685
H      -2.164789738     -3.893539917     -3.784627932
           6
  t=       121.00000    1    1
C      -3.461993277     -2.760539915     -2.679327132
C      -2.266441520     -2.933975951     -3.077402208
H      -3.937132987     -1.823065421     -2.115893795
H      -3.601656488     -3.867027399     -2.066008934
H      -1.516267812     -2.007591909     -2.874607969
H      -2.162883896     -3.924345087     -3.824142682
           6
  t=       121.50000    1    1
C      -3.462076769     -2.763365608     -2.699294034
C      -2.287355822     -2.944629503     -3.087309292
H      -4.007993635     -1.883818764     -2.100681087
H      -3.611390168     -3.897163992     -2.013427762
H      -1.529068956     -2.072110540     -2.893983644
H      -2.158927013     -3.947963346     -3.856233085
           6
  t=       122.00000    1    1
C      -3.463741118     -2.766631591     -2.717571590
C      -2.306690918     -2.955308517     -3.098235027
H      -4.073871802     -1.949175039     -2.089868266
H      -3.625253565     -3.920236839     -1.968264342
H      -1.544232230     -2.141261121     -2.917641128
H      -2.153441088     -3.963860724     -3.880215813
           6
  t=       122.50000    1    1
C      -3.467373737     -2.770340290     -2.733983815
C      -2.324237334     -2.966256506     -3.110332299
H      -4.133825068     -2.018136378     -2.083998463
H      -3.642784298     -3.936676373     -1.931052734
H      -1.560520026     -2.212742062     -2.945073598
H      -2.146948282     -3.971975700     -3.895795748
           6
  t=       123.00000    1    1
C      -3.473299116     -2.774475633     -2.748406745
C      -2.339897152     -2.977741064     -3.123725568
H      -4.187128142     -2.089566348     -2.083486078
H      -3.663563669     -3.947271723     -1.902042104
H      -1.575852672     -2.283660031     -2.975677149
H      -2.139972460     -3.972551888     -3.902907320
           6
  t=       123.50000    1    1
C      -3.481721918     -2.779017167     -2.760790151
C      -2.353737542     -2.990036587     -3.138486862
H      -4.233402177     -2.162204586     -2.088505147
H      -3.687115551     -3.952983294     -1.881295616
H      -1.587330168     -2.350726346     -3.008795684
H      -2.133029551     -3.966151991     -3.901709690
           6
  t=       124.00000    1    1
C      -3.492705115     -2.783958069     -2.771142860
C      -2.365975151     -3.003385796     -3.154635467
H      -4.272619762     -2.234734550     -2.098989351
H      -3.712936553     -3.954722878     -1.868850971
H      -1.591642298     -2.410627931     -3.043780099
H      -2.126628746     -3.953682980     -3.892545571
           6
  t=       124.50000    1    1
C      -3.506171068     -2.789321082     -2.779522508
C      -2.376896411     -3.017931208     -3.172136204
H      -4.305103941     -2.305820516     -2.114614772
H      -3.740571631     -3.953231211     -1.864749436
H      -1.585911648     -2.460593599     -3.080032811
H      -2.121291491     -3.936541829     -3.876027611
           6
  t=       125.00000    1    1
C      -3.521909984     -2.795168660     -2.786033923
C      -2.386745245     -3.033634947     -3.190879837
H      -4.331538716     -2.374062184     -2.134745972
H      -3.769691326     -3.949100839     -1.869057086
H      -1.568924122     -2.499106087     -3.117192931
H      -2.117470713     -3.916760688     -3.853138604
           6
  t=       125.50000    1    1
C      -3.539604866     -2.801603356     -2.790834212
C      -2.395663530     -3.050236426     -3.210662153
H      -4.352983570     -2.438007591     -2.158403939
H      -3.800057686     -3.942770863     -1.881846504
H      -1.541773552     -2.526246303     -3.155203242
H      -2.115337696     -3.897154598     -3.825403471
           6
  t=       126.00000    1    1
C      -3.558839753     -2.808760446     -2.794144024
C      -2.403731783     -3.067264428     -3.231175990
H      -4.371038194     -2.496058833     -2.184283920
H      -3.831357784     -3.934666022     -1.903106093
H      -1.507498294     -2.543403304     -3.194149262
H      -2.114564362     -3.881510629     -3.795083932
           6
  t=       126.50000    1    1
C      -3.579112004     -2.816799435     -2.796234260
C      -2.411040948     -3.084111722     -3.252044000
H      -4.387950050     -2.546519336     -2.210807837
H      -3.863110055     -3.925150012     -1.932802816
H      -1.470143054     -2.552604027     -3.234093022
H      -2.114245765     -3.874469698     -3.764997418
           6
  t=       127.00000    1    1
C      -3.599863206     -2.825893260     -2.797401979
C      -2.417734417     -3.100144153     -3.272886557
H      -4.406513370     -2.587774416     -2.236241604
H      -3.894700596     -3.914417090     -1.970925120
H      -1.433769982     -2.555918938     -3.275001510
H      -2.113084677     -3.880877460     -3.737906473
           6
  t=       127.50000    1    1
C      -3.620550581     -2.836202238     -2.797932362
C      -2.423989769     -3.114835062     -3.293407520
H      -4.429626870     -2.618421906     -2.259052827
H      -3.925424019     -3.902612352     -2.017403274
H      -1.401760461     -2.555166146     -3.316780753
H      -2.109857971     -3.904538106     -3.715637753
           6
  t=       128.00000    1    1
C      -3.640744134     -2.847845045     -2.798051271
C      -2.429943258     -3.127902931     -3.313467563
H      -4.459522441     -2.637455333     -2.278366491
H      -3.954558101     -3.889917407     -2.072032880
H      -1.376586573     -2.551861815     -3.359324199
H      -2.104084023     -3.946700702     -3.698346093
           6
  t=       128.50000    1    1
C      -3.660189963     -2.860883132     -2.797895410
C      -2.435633356     -3.139377092     -3.333089023
H      -4.497086575     -2.644378493     -2.294235791
H      -3.981492111     -3.876590681     -2.134432937
H      -1.359880509     -2.547226932     -3.402533896
H      -2.096421891     -4.005300308     -3.684562177
           6
  t=       129.00000    1    1
C      -3.678813179     -2.875308598     -2.797518321
C      -2.441012675     -3.149537276     -3.352384495
H      -4.541609704     -2.639205230     -2.307613611
H      -4.005871585     -3.863107388     -2.203970028
H      -1.352632543     -2.542203996     -3.446317861
H      -2.088402318     -4.075666321     -3.672078892
           6
  t=       129.50000    1    1
C      -3.696681358     -2.891030893     -2.796924686
C      -2.445992262     -3.158775508     -3.371473434
H      -4.591024119     -2.622362546     -2.320038648
H      -4.027700841     -3.850424296     -2.279698695
H      -1.355403689     -2.537516213     -3.490596871
H      -2.081782415     -4.152099487     -3.658903054
           6
  t=       130.00000    1    1
C      -3.713933742     -2.907876362     -2.796127664
C      -2.450490253     -3.167457886     -3.390426325
H      -4.642404676     -2.594616584     -2.333149896
H      -4.047361653     -3.840125819     -2.360378980
H      -1.368634986     -2.533889334     -3.535262853
H      -2.077980839     -4.229230417     -3.643746999
           6
  t=       130.50000    1    1
C      -3.730698496     -2.925540611     -2.795210851
C      -2.454486096     -3.175863725     -3.409250545
H      -4.692322184     -2.557308471     -2.348282223
H      -4.065893402     -3.834772559     -2.444370053
H      -1.392577322     -2.532022328     -3.580142539
H      -2.077854185     -4.302757237     -3.626005958
           6
  t=       131.00000    1    1
C      -3.747037481     -2.943594797     -2.794309292
C      -2.458017526     -3.184187396     -3.427915333
H      -4.737370414     -2.512383215     -2.366359505
H      -4.085161090     -3.837835472     -2.529869283
H      -1.427129612     -2.532398988     -3.625026482
H      -2.081858050     -4.369574080     -3.605525540
           6
  t=       131.50000    1    1
C      -3.762922491     -2.961580628     -2.793560415
C      -2.461181478     -3.192561490     -3.446351988
H      -4.774562683     -2.462178502     -2.387941005
H      -4.107615026     -3.852863268     -2.615506904
H      -1.471789437     -2.535202114     -3.669786897
H      -2.090212256     -4.427492704     -3.582425087
           6
  t=       132.00000    1    1
C      -3.778287456     -2.979151105     -2.793048609
C      -2.464111901     -3.201058258     -3.464427675
H      -4.801609191     -2.409136937     -2.413171601
H      -4.135833962     -3.882107669     -2.701067336
H      -1.525575481     -2.540352422     -3.714806620
H      -2.102800344     -4.475171891     -3.556969734
           6
  t=       132.50000    1    1
C      -3.793125370     -2.996205500     -2.792887888
C      -2.467097542     -3.209743702     -3.482043025
H      -4.817156907     -2.355240035     -2.442553089
H      -4.169746340     -3.925269727     -2.785443565
H      -1.586377034     -2.547464007     -3.759305030
H      -2.119800480     -4.511728730     -3.530370815
           6
  t=       133.00000    1    1
C      -3.807580125     -3.012935274     -2.793170235
C      -2.470452124     -3.218715427     -3.499165485
H      -4.820504116     -2.302086248     -2.476230208
H      -4.207251758     -3.978621672     -2.867654317
H      -1.651520007     -2.555952375     -3.802300677
H      -2.141236096     -4.536432638     -3.503738163
           6
  t=       133.50000    1    1
C      -3.821821034     -3.029683701     -2.794023155
C      -2.474513176     -3.228130427     -3.515753734
H      -4.811437021     -2.251187638     -2.513795390
H      -4.245873151     -4.036379021     -2.946799139
H      -1.718085316     -2.564778221     -3.843404705
H      -2.166677748     -4.548634289     -3.477741719
           6
  t=       134.00000    1    1
C      -3.835947261     -3.046778067     -2.795633121
C      -2.479649226     -3.238194692     -3.531708912
H      -4.790308751     -2.203869900     -2.554490191
H      -4.283755903     -4.092967569     -3.021725955
H      -1.782819975     -2.572185557     -3.883048908
H      -2.195307048     -4.547983855     -3.452816254
           6
  t=       134.50000    1    1
C      -3.849969489     -3.064409430     -2.798215107
C      -2.486217322     -3.249120680     -3.546872808
H      -4.757912827     -2.161039333     -2.597366391
H      -4.319879027     -4.144768933     -3.091268220
H      -1.842576705     -2.575968358     -3.922298556
H      -2.226116977     -4.534591290     -3.429334877
           6
  t=       135.00000    1    1
C      -3.863825312     -3.082630754     -2.801980208
C      -2.494503808     -3.261065748     -3.561054088
H      -4.715159537     -2.123744876     -2.641571523
H      -4.353950850     -4.189543317     -3.154386336
H      -1.895173123     -2.574211565     -3.962388270
H      -2.258002965     -4.509056368     -3.407719559
           6
  t=       135.50000    1    1
C      -3.877412331     -3.101398418     -2.807097515
C      -2.504664884     -3.274074672     -3.574073693
H      -4.663108166     -2.093207055     -2.686489026
H      -4.385990315     -4.225776314     -3.210353337
H      -1.940044535     -2.566072868     -4.004250498
H      -2.289810345     -4.472501535     -3.388500184
           6
  t=       136.00000    1    1
C      -3.890631051     -3.120634278     -2.813696164
C      -2.516721925     -3.288001065     -3.585848982
H      -4.602929360     -2.070476048     -2.731610223
H      -4.415968575     -4.252488025     -3.258659759
H      -1.978118314     -2.552294700     -4.047919420
H      -2.320400833     -4.426789508     -3.372106658
           6
  t=       136.50000    1    1
C      -3.903381548     -3.140250169     -2.821873509
C      -2.530605768     -3.302498409     -3.596404792
H      -4.535951497     -2.056259701     -2.776441275
H      -4.443824717     -4.269218082     -3.299010305
H      -2.011242403     -2.535000289     -4.092559121
H      -2.348673806     -4.374729130     -3.358708073
           6
  t=       137.00000    1    1
C      -3.915552915     -3.160160518     -2.831710624
C      -2.546235660     -3.317069758     -3.605840994
H      -4.463653972     -2.050922634     -2.820469169
H      -4.469468547     -4.275899004     -3.331260464
H      -2.041403755     -2.516977446     -4.136864736
H      -2.373536859     -4.320176550     -3.348110715
           6
  t=       137.50000    1    1
C      -3.927031268     -3.180285930     -2.843258794
C      -2.563568372     -3.331098497     -3.614331265
H      -4.387641680     -2.054498962     -2.863225949
H      -4.492745255     -4.272739707     -3.355409449
H      -2.070223015     -2.500942258     -4.179427875
H      -2.393791374     -4.268466091     -3.339511161
           6
  t=       138.00000    1    1
C      -3.937716691     -3.200555079     -2.856548411
C      -2.582616958     -3.343878472     -3.622133246
H      -4.309550557     -2.066680850     -2.904279518
H      -4.513465575     -4.260144914     -3.371478302
H      -2.098820053     -2.489087839     -4.218890764
H      -2.407905825     -4.226571931     -3.331246125
           6
  t=       138.50000    1    1
C      -3.947550099     -3.220887971     -2.871571421
C      -2.603424105     -3.354716058     -3.629579706
H      -4.231015249     -2.086775829     -2.943281182
H      -4.531453656     -4.238788255     -3.379532836
H      -2.127900031     -2.482956249     -4.254010959
H      -2.413911668     -4.202189059     -3.320971732
           6
  t=       139.00000    1    1
C      -3.956498604     -3.241184308     -2.888276369
C      -2.625984908     -3.363212638     -3.636972805
H      -4.153757291     -2.113754874     -2.979963346
H      -4.546685170     -4.209725966     -3.379756410
H      -2.157853026     -2.483479405     -4.283749213
H      -2.410171920     -4.200303248     -3.306824141
           6
  t=       139.50000    1    1
C      -3.964534939     -3.261279040     -2.906552271
C      -2.650137520     -3.369536246     -3.644416030
H      -4.079741774     -2.146614991     -3.014270066
H      -4.559406321     -4.174409331     -3.372582921
H      -2.188944961     -2.491082015     -4.307335579
H      -2.396462804     -4.220005946     -3.289284680
           6
  t=       140.00000    1    1
C      -3.971601961     -3.280891211     -2.926228406
C      -2.675494289     -3.374407628     -3.651762663
H      -4.011887761     -2.184178816     -3.046160762
H      -4.570419104     -4.134779435     -3.358920549
H      -2.221441039     -2.505607855     -4.324465464
H      -2.374098073     -4.255449258     -3.271572843
           6
  t=       140.50000    1    1
C      -3.977535514     -3.299763906     -2.947141245
C      -2.701597167     -3.378782230     -3.658759727
H      -3.953928611     -2.223760392     -3.075118223
H      -4.581497099     -4.093211616     -3.340231367
H      -2.255405232     -2.526227216     -4.335541405
H      -2.344920823     -4.299450046     -3.257304186
           6
  t=       141.00000    1    1
C      -3.982112623     -3.317738348     -2.969163708
C      -2.728161645     -3.383413551     -3.665186844
H      -3.907333064     -2.262342877     -3.100877703
H      -4.595424482     -4.053030918     -3.318073888
H      -2.290640080     -2.551826007     -4.341076136
H      -2.310922592     -4.345727686     -3.248812397
           6
  t=       141.50000    1    1
C      -3.985139800     -3.334592427     -2.992115918
C      -2.754937673     -3.388799132     -3.670927995
H      -3.872273578     -2.297869991     -3.123702780
H      -4.615710071     -4.018346489     -3.293908111
H      -2.326779456     -2.581194126     -4.341456273
H      -2.274073285     -4.390157461     -3.247513098
           6
  t=       142.00000    1    1
C      -3.986452527     -3.350107529     -3.015808256
C      -2.781640029     -3.395338220     -3.675956541
H      -3.849216503     -2.328290243     -3.143729883
H      -4.646114726     -3.992963715     -3.268821052
H      -2.363204322     -2.612890825     -4.337350135
H      -2.236123694     -4.430273853     -3.254091359
           6
  t=       142.50000    1    1
C      -3.986033374     -3.364202855     -3.040079185
C      -2.807957648     -3.403372364     -3.680301511
H      -3.838583972     -2.351622200     -3.161086350
H      -4.689399781     -3.979044924     -3.243017017
H      -2.399030080     -2.645173963     -4.329819893
H      -2.198689175     -4.464531137     -3.268732318
           6
  t=       143.00000    1    1
C      -3.984180635     -3.377015027     -3.064820316
C      -2.833576534     -3.413179166     -3.684019846
H      -3.840332068     -2.366432083     -3.175998615
H      -4.745556583     -3.975992718     -3.215580405
H      -2.433140403     -2.676020769     -4.320317681
H      -2.163125754     -4.492047450     -3.291286012
           6
  t=       143.50000    1    1
C      -3.981548344     -3.388844000     -3.089931942
C      -2.858167820     -3.424965854     -3.687195139
H      -3.853933065     -2.372232605     -3.188768330
H      -4.811321450     -3.980850625     -3.185082684
H      -2.464262775     -2.703317929     -4.310532955
H      -2.130622737     -4.512336447     -3.321381916
           6
  t=       144.00000    1    1
C      -3.979021398     -3.400005897     -3.115252457
C      -2.881353838     -3.438863089     -3.689966323
H      -3.878562541     -2.369605849     -3.199664893
H      -4.881490646     -3.989870135     -3.150509387
H      -2.491200100     -2.725243462     -4.302040611
H      -2.102361418     -4.525062833     -3.358460324
           6
  t=       144.50000    1    1
C      -3.977540225     -3.410706351     -3.140533986
C      -2.902689928     -3.454909598     -3.692547505
H      -3.913342643     -2.360163499     -3.208928487
H      -4.950620063     -3.999792291     -3.111701074
H      -2.513177975     -2.740721841     -4.295842848
H      -2.079530772     -4.530037671     -3.401840689
           6
  t=       145.00000    1    1
C      -3.978023156     -3.421009623     -3.165446834
C      -2.921645641     -3.473058814     -3.695236431
H      -3.957400036     -2.346196950     -3.216763907
H      -5.014122843     -4.008325420     -3.069264588
H      -2.529924973     -2.749636684     -4.292233472
H      -2.063240491     -4.527166792     -3.450798257
           6
  t=       145.50000    1    1
C      -3.981346172     -3.430860033     -3.189608046
C      -2.937606567     -3.493200785     -3.698405530
H      -4.009870841     -2.330268228     -3.223326821
H      -5.068718710     -4.014086932     -3.024248359
H      -2.541615898     -2.752735824     -4.290887070
H      -2.054343174     -4.516496541     -3.504579770
           6
  t=       146.00000    1    1
C      -3.988276422     -3.440127725     -3.212644081
C      -2.949961479     -3.515163113     -3.702450545
H      -4.069709125     -2.314896500     -3.228857801
H      -5.112492635     -4.016484752     -2.977795848
H      -2.548817473     -2.751372178     -4.290964677
H      -2.053375141     -4.498348469     -3.562375593
           6
  t=       146.50000    1    1
C      -3.999401401     -3.448675263     -3.234244773
C      -2.958244006     -3.538704911     -3.707712427
H      -4.135273930     -2.302514292     -3.233846525
H      -5.144458846     -4.015421375     -2.931052572
H      -2.552419418     -2.747143620     -4.291380383
H      -2.060630117     -4.473297666     -3.623269627
           6
  t=       147.00000    1    1
C      -4.015031759     -3.456389316     -3.254223262
C      -2.962251004     -3.563567582     -3.714409767
H      -4.204672829     -2.295149127     -3.238839340
H      -5.164079732     -4.011030854     -2.885157594
H      -2.553465979     -2.741546272     -4.291098059
H      -2.076212890     -4.442118186     -3.686234510
           6
  t=       147.50000    1    1
C      -4.035079599     -3.463184642     -3.272561221
C      -2.962152413     -3.589503310     -3.722597229
H      -4.276367875     -2.294001549     -3.244145967
H      -5.171196161     -4.003640201     -2.841270218
H      -2.553065773     -2.735823767     -4.289342675
H      -2.099734339     -4.406007461     -3.750143237
           6
  t=       148.00000    1    1
C      -4.059091803     -3.469022643     -3.289381815
C      -2.958534446     -3.616182116     -3.732168180
H      -4.348839883     -2.299869420     -3.250214292
H      -5.165902263     -3.993775475     -2.800442835
H      -2.552366058     -2.730820553     -4.285465264
H      -2.129886324     -4.367188985     -3.813947519
           6
  t=       148.50000    1    1
C      -4.086463770     -3.473925283     -3.304847116
C      -2.952248266     -3.643127945     -3.742944026
H      -4.420419901     -2.313357500     -3.257554537
H      -5.148441363     -3.982090243     -2.763668086
H      -2.552440556     -2.727057798     -4.279057299
H      -2.164082784     -4.329294030     -3.876749913
           6
  t=       149.00000    1    1
C      -4.116553192     -3.477973803     -3.319117553
C      -2.944302276     -3.669720962     -3.754703929
H      -4.489517840     -2.334587505     -3.266452739
H      -5.119448966     -3.969441515     -2.731828588
H      -2.554065866     -2.725050645     -4.270096860
H      -2.198139479     -4.297246455     -3.938123450
           6
  t=       149.50000    1    1
C      -4.148818783     -3.481267970     -3.332306742
C      -2.935682911     -3.695254241     -3.767210915
H      -4.554759345     -2.363223591     -3.277389282
H      -5.079988265     -3.957022803     -2.705336137
H      -2.557569241     -2.725467179     -4.258454154
H      -2.226736029     -4.276755220     -3.998775703
           6
  t=       150.00000    1    1
C      -4.183012858     -3.483853890     -3.344349659
C      -2.926973102     -3.719013481     -3.780381571
H      -4.615178324     -2.398837104     -3.292358222
H      -5.031666692     -3.946554013     -2.683408128
H      -2.562829852     -2.729154948     -4.242478086
H      -2.245357260     -4.273643513     -4.060914980
           6
  t=       150.50000    1    1
C      -4.218321324     -3.485968576     -3.355425075
C      -2.919042738     -3.740543046     -3.793872899
H      -4.670024056     -2.439147229     -3.309620072
H      -4.977917535     -3.939385089     -2.666881528
H      -2.570549495     -2.737417046     -4.224409522
H      -2.249953956     -4.290144127     -4.125159856
           6
  t=       151.00000    1    1
C      -4.253982520     -3.487849174     -3.365823165
C      -2.912363469     -3.759768571     -3.807359035
H      -4.719361254     -2.481594804     -3.328374204
H      -4.921824113     -3.937007555     -2.654918497
H      -2.580567771     -2.750334190     -4.205817676
H      -2.240994160     -4.325304384     -4.192004816
           6
  t=       151.50000    1    1
C      -4.289331066     -3.489724102     -3.375895815
C      -2.907035506     -3.776924377     -3.820690574
H      -4.764210710     -2.523740461     -3.349422149
H      -4.865783508     -3.940898715     -2.644528532
H      -2.591639915     -2.766914498     -4.186737913
H      -2.223039138     -4.375564368     -4.261190779
           6
  t=       152.00000    1    1
C      -4.323802800     -3.491795363     -3.385941443
C      -2.902897705     -3.792425363     -3.833925633
H      -4.805765816     -2.562939357     -3.372949341
H      -4.812444766     -3.952548202     -2.632885906
H      -2.602914293     -2.786219872     -4.167888593
H      -2.201740592     -4.435666571     -4.330391317
           6
  t=       152.50000    1    1
C      -4.356963226     -3.494290663     -3.396205236
C      -2.899777273     -3.806706609     -3.847181455
H      -4.845459001     -2.596502287     -3.399052537
H      -4.763651010     -3.973000114     -2.617452257
H      -2.613448328     -2.807087409     -4.150100758
H      -2.182001794     -4.500521455     -4.396898415
           6
  t=       153.00000    1    1
C      -4.388511660     -3.497491771     -3.406807030
C      -2.897593749     -3.820135430     -3.860567567
H      -4.884721757     -2.621954651     -3.427812300
H      -4.720039463     -4.002440256     -2.596964585
H      -2.622170194     -2.828263377     -4.134254371
H      -2.167367476     -4.565937286     -4.458281512
           6
  t=       153.50000    1    1
C      -4.418302412     -3.501701574     -3.417690659
C      -2.896346065     -3.833006843     -3.874155133
H      -4.924813860     -2.637749860     -3.459290431
H      -4.681127095     -4.039647719     -2.572131956
H      -2.627930897     -2.848371335     -4.121062987
H      -2.159958595     -4.628933566     -4.512877476
           6
  t=       154.00000    1    1
C      -4.446299307     -3.507187548     -3.428657910
C      -2.896080652     -3.845542492     -3.887984194
H      -4.966485767     -2.643636256     -3.493476601
H      -4.646070495     -4.082299259     -2.545332492
H      -2.629629881     -2.866062253     -4.111033801
H      -2.160846455     -4.687606060     -4.559696068
           6
  t=       154.50000    1    1
C      -4.472548048     -3.514110692     -3.439468810
C      -2.896837460     -3.857915394     -3.902081819
H      -5.009772942     -2.640791214     -3.530146474
H      -4.614271598     -4.127551029     -2.519596980
H      -2.626379025     -2.880335057     -4.104432833
H      -2.170461164     -4.740642250     -4.598201666
           6
  t=       155.00000    1    1
C      -4.497161436     -3.522479713     -3.449929840
C      -2.898620149     -3.870245105     -3.916468947
H      -5.053924497     -2.631686720     -3.568751065
H      -4.585588827     -4.172650128     -2.497693484
H      -2.617740477     -2.890802505     -4.101261195
H      -2.188745341     -4.787181984     -4.628230530
           6
  t=       155.50000    1    1
C      -4.520262712     -3.532202144     -3.459927597
C      -2.901415849     -3.882586120     -3.931164748
H      -5.097653071     -2.619377418     -3.608563740
H      -4.560252866     -4.215316913     -2.481672342
H      -2.603716286     -2.897718787     -4.101274118
H      -2.215438435     -4.826648497     -4.649826543
           6
  t=       156.00000    1    1
C      -4.541940512     -3.543150807     -3.469425861
C      -2.905216718     -3.894930020     -3.946186985
H      -5.139482918     -2.606915344     -3.648726840
H      -4.538746101     -4.253727283     -2.472890680
H      -2.584648110     -2.901927959     -4.104071539
H      -2.250229469     -4.858585567     -4.663110264
           6
  t=       156.50000    1    1
C      -4.562222959     -3.555198550     -3.478455379
C      -2.910041236     -3.907219675     -3.961542879
H      -5.178051928     -2.596898905     -3.688371767
H      -4.521632087     -4.286592241     -2.472053035
H      -2.561137269     -2.904732521     -4.109218429
H      -2.292760351     -4.882577091     -4.668228341
           6
  t=       157.00000    1    1
C      -4.581093416     -3.568228966     -3.487090897
C      -2.915924691     -3.919364510     -3.977223899
H      -5.212298461     -2.591328482     -3.726689896
H      -4.509432453     -4.313096332     -2.479362448
H      -2.533966539     -2.907747944     -4.116310263
H      -2.342566092     -4.898289043     -4.665401901
           6
  t=       157.50000    1    1
C      -4.598498655     -3.582141107     -3.495433220
C      -2.922924080     -3.931247456     -3.993197186
H      -5.241482952     -2.591687414     -3.762923976
H      -4.502622594     -4.332741019     -2.494706724
H      -2.504019601     -2.912711806     -4.125018016
H      -2.398982251     -4.905596821     -4.655019758
           6
  t=       158.00000    1    1
C      -4.614367424     -3.596839430     -3.503597320
C      -2.931119302     -3.942725033     -4.009395645
H      -5.265186897     -2.599001720     -3.796409591
H      -4.501609310     -4.345331055     -2.517694023
H      -2.472227194     -2.921300289     -4.135095365
H      -2.460986774     -4.904841618     -4.637814061
           6
  t=       158.50000    1    1
C      -4.628627959     -3.612221213     -3.511703221
C      -2.940605603     -3.953627738     -4.025717614
H      -5.283273598     -2.613921790     -3.826605177
H      -4.506735545     -4.350991764     -2.547660780
H      -2.439537512     -2.934951624     -4.146361638
H      -2.527145409     -4.897053228     -4.614951764
           6
  t=       159.00000    1    1
C      -4.641217324     -3.628169571     -3.519876071
C      -2.951474213     -3.963760579     -4.042034328
H      -5.295833834     -2.636796465     -3.853090287
H      -4.518282515     -4.350219396     -2.583684196
H      -2.406904262     -2.954733115     -4.158690885
H      -2.595795309     -4.884035492     -4.587945214
           6
  t=       159.50000    1    1
C      -4.652074353     -3.644554240     -3.528261857
C      -2.963815914     -3.972877863     -4.058177322
H      -5.303163121     -2.667683674     -3.875595138
H      -4.536429494     -4.343977529     -2.624468296
H      -2.375223921     -2.981319692     -4.172012882
H      -2.665212335     -4.868571725     -4.558698176
           6
  t=       160.00000    1    1
C      -4.661126206     -3.661226278     -3.537047323
C      -2.977745276     -3.980643446     -4.073908914
H      -5.305751163     -2.706352940     -3.894020959
H      -4.561236057     -4.333793087     -2.668162587
H      -2.345259803     -3.015007031     -4.186349570
H      -2.733586623     -4.854849955     -4.529744973
           6
  t=       160.50000    1    1
C      -4.668294879     -3.678009003     -3.546468465
C      -2.993389188     -3.986645991     -4.088941701
H      -5.304272999     -2.752254266     -3.908419147
H      -4.592618020     -4.321808106     -2.712264897
H      -2.317594078     -3.055695708     -4.201807048
H      -2.799162668     -4.848384200     -4.504042825
           6
  t=       161.00000    1    1
C      -4.673520621     -3.694692365     -3.556806137
C      -3.010823866     -3.990523487     -4.103027164
H      -5.299596230     -2.804448033     -3.918974565
H      -4.630312444     -4.310782066     -2.753629647
H      -2.292643420     -3.102885509     -4.218507543
H      -2.860722950     -4.854671305     -4.484044902
           6
  t=       161.50000    1    1
C      -4.676774730     -3.711051689     -3.568358601
C      -3.030020847     -3.992152366     -4.116056936
H      -5.292846449     -2.861356953     -3.926117162
H      -4.673906766     -4.304034207     -2.788591708
H      -2.270697063     -3.155647068     -4.236530591
H      -2.917946357     -4.877048239     -4.470644162
           6
  t=       162.00000    1    1
C      -4.678044609     -3.726919260     -3.581365306
C      -3.050854595     -3.991779577     -4.128108899
H      -5.285491105     -2.920454218     -3.930714279
H      -4.722996726     -4.304942278     -2.813580264
H      -2.251915867     -3.212624338     -4.255868382
H      -2.971254756     -4.915075986     -4.462770647
           6
  t=       162.50000    1    1
C      -4.677300483     -3.742291070     -3.595882957
C      -3.073153380     -3.989971314     -4.139388092
H      -5.279403388     -2.978333066     -3.934082532
H      -4.777372459     -4.315725823     -2.826579127
H      -2.236355270     -3.272209670     -4.276453531
H      -3.021330500     -4.964850588     -4.458072465
           6
  t=       163.00000    1    1
C      -4.674513065     -3.757384684     -3.611696344
C      -3.096747766     -3.987432659     -4.150132312
H      -5.276717686     -3.031158392     -3.937779720
H      -4.836752127     -4.336416466     -2.828458628
H      -2.224001083     -3.332767754     -4.298198702
H      -3.068703119     -5.020816862     -4.453939690
           6
  t=       163.50000    1    1
C      -4.669689017     -3.772567066     -3.628383645
C      -3.121517801     -3.984822013     -4.160530815
H      -5.279522091     -3.075285493     -3.943319087
H      -4.900231141     -4.365163730     -2.822670462
H      -2.214831789     -3.392892536     -4.321040946
H      -3.113560563     -5.077658138     -4.448241495
           6
  t=       164.00000    1    1
C      -4.662900111     -3.788196829     -3.645482343
C      -3.147427617     -3.982655867     -4.170682300
H      -5.289301859     -3.108124533     -3.951779325
H      -4.966061120     -4.399258138     -2.813852830
H      -2.208811213     -3.451543448     -4.344968395
H      -3.155774317     -5.131286834     -4.439608025
           6
  t=       164.50000    1    1
C      -4.654325956     -3.804474057     -3.662628235
C      -3.174480333     -3.981306127     -4.180614352
H      -5.306299269     -3.128906203     -3.963448914
H      -5.032045888     -4.436087104     -2.806406412
H      -2.206004642     -3.508038090     -4.369999414
H      -3.195055641     -5.178951596     -4.427342742
           6
  t=       165.00000    1    1
C      -4.644295779     -3.821386227     -3.679608828
C      -3.202646514     -3.981026614     -4.190324567
H      -5.329134410     -3.138815984     -3.977767865
H      -5.096018023     -4.473634660     -2.803677805
H      -2.206677975     -3.561980323     -4.396134073
H      -3.231113768     -5.219003847     -4.411219646
           6
  t=       165.50000    1    1
C      -4.633240894     -3.838763574     -3.696341725
C      -3.231846700     -3.981986303     -4.199803227
H      -5.355228037     -3.140334662     -3.993628342
H      -5.156130141     -4.510515940     -2.807858754
H      -2.211280676     -3.613155787     -4.423325423
H      -3.263733295     -5.250571417     -4.391299372
           6
  t=       166.00000    1    1
C      -4.621617403     -3.856369094     -3.712825531
C      -3.261956238     -3.984297449     -4.209045181
H      -5.381603852     -3.136355144     -4.009752064
H      -5.210950007     -4.545837773     -2.820218886
H      -2.220371354     -3.661449823     -4.451475379
H      -3.292814677     -5.273255681     -4.367766667
           6
  t=       166.50000    1    1
C      -4.609867849     -3.873966218     -3.729089382
C      -3.292798825     -3.988035176     -4.218061779
H      -5.405560447     -3.129536231     -4.024998967
H      -5.259414587     -4.579040958     -2.841334447
H      -2.234522626     -3.706799439     -4.480409108
H      -3.318377315     -5.286943791     -4.340877756
           6
  t=       167.00000    1    1
C      -4.598421805     -3.891354793     -3.745152822
C      -3.324126642     -3.993239615     -4.226891792
H      -5.425046731     -3.121986867     -4.038527121
H      -5.300781133     -4.609794237     -2.871267360
H      -2.254214856     -3.749169242     -4.509890724
H      -3.340568981     -5.291800211     -4.310953673
           6
  t=       167.50000    1    1
C      -4.587742585     -3.908368268     -3.760990526
C      -3.355604384     -3.999955123     -4.235610145
H      -5.438636738     -3.115222191     -4.049799040
H      -5.334403460     -4.637856004     -2.909861696
H      -2.279833210     -3.788431454     -4.539647766
H      -3.359551333     -5.288135189     -4.278369284
           6
  t=       168.00000    1    1
C      -4.578348248     -3.924865299     -3.776525705
C      -3.386804509     -4.008228215     -4.244328122
H      -5.445462888     -3.110242904     -4.058524613
H      -5.359706267     -4.663049015     -2.956815751
H      -2.311587414     -3.824334700     -4.569435413
H      -3.375478963     -5.276506643     -4.243550167
           6
  t=       168.50000    1    1
C      -4.570803112     -3.940734118     -3.791638040
C      -3.417223329     -4.018083401     -4.253186273
H      -5.445134897     -3.107626283     -4.064599200
H      -5.376248905     -4.685254385     -3.011683448
H      -2.349407746     -3.856557610     -4.599127714
H      -3.388530067     -5.257817239     -4.206931973
           6
  t=       169.00000    1    1
C      -4.565740917     -3.955879495     -3.806165600
C      -3.446297241     -4.029528836     -4.262351585
H      -5.437499879     -3.107672341     -4.068005025
H      -5.383654483     -4.704353661     -3.073965436
H      -2.392894675     -3.884691747     -4.628781993
H      -3.398798246     -5.233331453     -4.168914200
           6
  t=       169.50000    1    1
C      -4.563872259     -3.970204772     -3.819907081
C      -3.473419591     -4.042560792     -4.272015618
H      -5.422530504     -3.110523692     -4.068789883
H      -5.381615075     -4.720181720     -3.143078880
H      -2.441293525     -3.908229355     -4.658638884
H      -3.406134856     -5.204775670     -4.129907417
           6
  t=       170.00000    1    1
C      -4.565876627     -3.983617553     -3.832660340
C      -3.498015414     -4.057150594     -4.282369134
H      -5.400493924     -3.116082537     -4.067085924
H      -5.370182144     -4.732664525     -3.218194103
H      -2.493507597     -3.926680273     -4.689142193
H      -3.410072528     -5.174254572     -4.090300919
           6
  t=       170.50000    1    1
C      -4.572282008     -3.996028299     -3.844261631
C      -3.519612118     -4.073246217     -4.293569398
H      -5.372185168     -3.123978375     -4.063251365
H      -5.349953327     -4.741998123     -3.297987865
H      -2.548104842     -3.939624912     -4.720827014
H      -3.409990592     -5.144049032     -4.050601872
           6
  t=       171.00000    1    1
C      -4.583330467     -4.007346860     -3.854644681
C      -3.537944465     -4.090779970     -4.305684701
H      -5.338976032     -3.133451984     -4.057882742
H      -5.322148341     -4.748888227     -3.380628165
H      -2.603423830     -3.946647393     -4.754342883
H      -3.405235059     -5.116509188     -4.011372167
           6
  t=       171.50000    1    1
C      -4.598861773     -4.017504428     -3.863893294
C      -3.553046133     -4.109655219     -4.318669936
H      -5.302647761     -3.143283793     -4.051551091
H      -5.288701942     -4.754822423     -3.464056120
H      -2.657684417     -3.947368277     -4.790568833
H      -3.395378057     -5.093717830     -3.972759487
           6
  t=       172.00000    1    1
C      -4.618395410     -4.026374367     -3.872252980
C      -3.565179135     -4.129837774     -4.332382126
H      -5.264954677     -3.151776045     -4.044232735
H      -5.252351027     -4.762788435     -3.546443771
H      -2.709225637     -3.941358218     -4.830927411
H      -3.380192920     -5.076730699     -3.933971211
           6
  t=       172.50000    1    1
C      -4.641262086     -4.033704263     -3.880026869
C      -3.574656325     -4.151353775     -4.346609471
H      -5.227759291     -3.157402343     -4.036060599
H      -5.216876645     -4.777187418     -3.625437098
H      -2.756562738     -3.927999717     -4.876716496
H      -3.359768068     -5.065986728     -3.894842276
           6
  t=       173.00000    1    1
C      -4.666513747     -4.039288955     -3.887503294
C      -3.581901689     -4.174089228     -4.361124081
H      -5.193089258     -3.158938150     -4.027999728
H      -5.187093311     -4.802872093     -3.698130535
H      -2.798734465     -3.906997186     -4.928117435
H      -3.334467192     -5.061956291     -3.856411638
           6
  t=       173.50000    1    1
C      -4.693292830     -4.043028894     -3.894903131
C      -3.587279685     -4.197956417     -4.375736174
H      -5.162865061     -3.154702986     -4.020616376
H      -5.166477515     -4.844064414     -3.763121269
H      -2.835929626     -3.878537785     -4.984645686
H      -3.304580186     -5.064142117     -3.819629897
           6
  t=       174.00000    1    1
C      -4.720926507     -4.045158620     -3.902335381
C      -3.591080500     -4.222851535     -4.390311251
H      -5.138751284     -3.143179711     -4.014342040
H      -5.155734290     -4.901408811     -3.820520255
H      -2.869372047     -3.843374968     -5.044852041
H      -3.271073056     -5.071105694     -3.785707642
           6
  t=       174.50000    1    1
C      -4.748971684     -4.046273180     -3.909848715
C      -3.593541296     -4.248604100     -4.404779377
H      -5.121732339     -3.123664935     -4.009416351
H      -5.153158781     -4.970827191     -3.871361708
H      -2.901073278     -3.803169263     -5.106355496
H      -3.235108477     -5.080909015     -3.756005377
           6
  t=       175.00000    1    1
C      -4.777179194     -4.047040945     -3.917492029
C      -3.594827169     -4.275010660     -4.419127115
H      -5.112066070     -3.096261762     -4.005954485
H      -5.156465227     -5.046252847     -3.916558713
H      -2.933133963     -3.760041930     -5.166433789
H      -3.197615521     -5.091854580     -3.731794621
           6
  t=       175.50000    1    1
C      -4.805349976     -4.048025816     -3.925333319
C      -3.595119724     -4.301813409     -4.433372827
H      -5.109212107     -3.062599087     -4.004028154
H      -5.163850848     -5.121523298     -3.956574978
H      -2.967064584     -3.716232095     -5.222531779
H      -3.159634831     -5.102589528     -3.714066053
           6
  t=       176.00000    1    1
C      -4.833293826     -4.049583516     -3.933445657
C      -3.594626017     -4.328729169     -4.447547600
H      -5.112270562     -3.025432882     -4.003560485
H      -5.174434142     -5.191899082     -3.991605711
H      -3.003484628     -3.673861388     -5.272731040
H      -3.122127532     -5.112111294     -3.703378656
           6
  t=       176.50000    1    1
C      -4.860816377     -4.051903722     -3.941900516
C      -3.593571007     -4.355474472     -4.461671454
H      -5.120337528     -2.987911529     -4.004495487
H      -5.188004937     -5.254155860     -4.021634206
H      -3.042363463     -3.634809573     -5.315610336
H      -3.085873785     -5.119733677     -3.700136150
           6
  t=       177.00000    1    1
C      -4.887720160     -4.055071328     -3.950751346
C      -3.592192193     -4.381775621     -4.475749006
H      -5.132534191     -2.953384580     -4.006879312
H      -5.204621908     -5.306071774     -4.046635773
H      -3.083295722     -3.600607004     -5.350265323
H      -3.051622131     -5.125048321     -3.704529516
           6
  t=       177.50000    1    1
C      -4.913823842     -4.059132925     -3.960035936
C      -3.590700031     -4.407384802     -4.489776448
H      -5.148150850     -2.924664364     -4.010739568
H      -5.224535955     -5.346234394     -4.066663988
H      -3.125737699     -3.572487333     -5.376259681
H      -3.020028027     -5.127819386     -3.716508983
           6
  t=       178.00000    1    1
C      -4.938962799     -4.064153398     -3.969789880
C      -3.589275542     -4.432071840     -4.503749971
H      -5.166741821     -2.903718153     -4.016093881
H      -5.248150171     -5.373646062     -4.081715561
H      -3.169082852     -3.551488827     -5.393368291
H      -2.991545270     -5.128008528     -3.735906606
           6
  t=       178.50000    1    1
C      -4.963013159     -4.070201754     -3.980038536
C      -3.588075273     -4.455635448     -4.517678036
H      -5.188008156     -2.891649000     -4.022917781
H      -5.275914405     -5.387816038     -4.091789856
H      -3.212642489     -3.538332894     -5.401673666
H      -2.966322277     -5.125858251     -3.762261983
           6
  t=       179.00000    1    1
C      -4.985879819     -4.077330780     -3.990803432
C      -3.587254711     -4.477901703     -4.531571479
H      -5.211694454     -2.889031730     -4.031139004
H      -5.308190757     -5.388685414     -4.096929182
H      -3.255696363     -3.533522119     -5.401462476
H      -2.944253078     -5.121793437     -3.794932760
           6
  t=       179.50000    1    1
C      -5.007490045     -4.085577195     -4.002103672
C      -3.586978466     -4.498718447     -4.545442187
H      -5.237510999     -2.896140964     -4.040669028
H      -5.345206937     -5.376495688     -4.097192769
H      -3.297497747     -3.537374487     -5.393149577
H      -2.925051651     -5.116355557     -3.833164107
           6
  t=       180.00000    1    1
C      -5.027799858     -4.094963417     -4.013954477
C      -3.587421833     -4.517960585     -4.559301147
H      -5.265100961     -2.912974152     -4.051408368
H      -5.386975960     -5.351714156     -4.092674790
H      -3.337284090     -3.550037323     -5.377254357
H      -2.908259641     -5.110155985     -3.876129661
           6
  t=       180.50000    1    1
C      -5.046797315     -4.105509119     -4.026367419
C      -3.588771478     -4.535527622     -4.573157050
H      -5.294064418     -2.939242526     -4.063237534
H      -5.433239395     -5.314893856     -4.083510762
H      -3.374269006     -3.571544559     -5.354380953
H      -2.893239841     -5.103859547     -3.922967804
           6
  t=       181.00000    1    1
C      -5.064499905     -4.117237037     -4.039347965
C      -3.591227908     -4.551346498     -4.587011736
H      -5.324013840     -2.974269123     -4.076028174
H      -5.483415024     -5.266706605     -4.069880449
H      -3.407613316     -3.601730939     -5.325302812
H      -2.879203616     -5.098236320     -3.972766619
           6
  t=       181.50000    1    1
C      -5.080925647     -4.130168336     -4.052897150
C      -3.595011186     -4.565380387     -4.600843915
H      -5.354658263     -3.016926869     -4.089647398
H      -5.536742239     -5.208149384     -4.052019490
H      -3.436413956     -3.640038561     -5.291127277
H      -2.865268692     -5.094160906     -4.024557348
           6
  t=       182.00000    1    1
C      -5.096077767     -4.144263607     -4.067001286
C      -3.600318531     -4.577698167     -4.614586720
H      -5.385859177     -3.065491454     -4.104032228
H      -5.592627196     -5.141244067     -4.030230254
H      -3.459865328     -3.684877439     -5.253591764
H      -2.850584563     -5.092574575     -4.077323071
           6
  t=       182.50000    1    1
C      -5.109882001     -4.159411110     -4.081649664
C      -3.607323730     -4.588492833     -4.628093045
H      -5.417644831     -3.117827575     -4.119305485
H      -5.651131085     -5.069220337     -4.004688509
H      -3.477318320     -3.733205929     -5.215169093
H      -2.834525064     -5.094456384     -4.130172839
           6
  t=       183.00000    1    1
C      -5.122147154     -4.175428900     -4.096838640
C      -3.616167183     -4.598151069     -4.641091830
H      -5.450184549     -3.171114093     -4.135851815
H      -5.713281131     -4.996729650     -3.975383872
H      -3.488330722     -3.779946750     -5.179343541
H      -2.816941064     -5.100613701     -4.182521396
           6
  t=       183.50000    1    1
C      -5.132596656     -4.192149583     -4.112570641
C      -3.626935558     -4.607235835     -4.653213353
H      -5.483722165     -3.222242626     -4.154251775
H      -5.780949355     -4.928544709     -3.942041934
H      -3.492460340     -3.818418464     -5.150328129
H      -2.798421757     -5.111350200     -4.234226152
           6
  t=       184.00000    1    1
C      -5.141035576     -4.209533486     -4.128845679
C      -3.639646695     -4.616362217     -4.664101134
H      -5.518265691     -3.268325187     -4.175164466
H      -5.855450396     -4.867720148     -3.904218825
H      -3.489218487     -3.841723128     -5.132087213
H      -2.780243289     -5.126540736     -4.285355054
           6
  t=       184.50000    1    1
C      -5.147482909     -4.227698875     -4.145621659
C      -3.654264198     -4.625983137     -4.673535186
H      -5.553485363     -3.306923461     -4.199390541
H      -5.935926247     -4.814914176     -3.861864179
H      -3.478350145     -3.845216019     -5.126775674
H      -2.764055833     -5.145804067     -4.336125847
           6
  t=       185.00000    1    1
C      -5.152184449     -4.246829032     -4.162785312
C      -3.670678001     -4.636188994     -4.681528647
H      -5.588844025     -3.336636087     -4.227787429
H      -6.019166959     -4.768872316     -3.815783256
H      -3.460390737     -3.828760869     -5.133649793
H      -2.751453755     -5.168671182     -4.386812671
           6
  t=       185.50000    1    1
C      -5.155541609     -4.267011196     -4.180171265
C      -3.688675942     -4.646690367     -4.688312441
H      -5.623448162     -3.357436453     -4.261114501
H      -6.100703751     -4.728014710     -3.767495804
H      -3.437022940     -3.796849237     -5.149435180
H      -2.743861638     -5.194666143     -4.437629700
           6
  t=       186.00000    1    1
C      -5.157997416     -4.288150936     -4.197609510
C      -3.707969825     -4.657007791     -4.694208510
H      -5.655964830     -3.370749661     -4.299894126
H      -6.176344204     -4.691457984     -3.718699825
H      -3.410632192     -3.756266310     -5.169983755
H      -2.742574487     -5.223300391     -4.488694278
           6
  t=       186.50000    1    1
C      -5.159937214     -4.310018590     -4.214961025
C      -3.728260975     -4.666669383     -4.699490842
H      -5.684846299     -3.379041443     -4.344504687
H      -6.243106941     -4.659057429     -3.670785732
H      -3.383533403     -3.713388850     -5.191747600
H      -2.748773777     -5.254235529     -4.540177296
           6
  t=       187.00000    1    1
C      -5.161605603     -4.332336323     -4.232136351
C      -3.749315895     -4.675282215     -4.704314346
H      -5.708759243     -3.385281129     -4.395053415
H      -6.299339110     -4.631037292     -3.624878226
H      -3.357537552     -3.673062075     -5.212437359
H      -2.763502409     -5.287425336     -4.592356302
           6
  t=       187.50000    1    1
C      -5.163154662     -4.354817454     -4.249086849
C      -3.770949696     -4.682587179     -4.708785395
H      -5.726842018     -3.392121547     -4.450285719
H      -6.344209268     -4.607694467     -3.582637350
H      -3.334202599     -3.639088590     -5.231246639
H      -2.787286459     -5.322620932     -4.644944298
           6
  t=       188.00000    1    1
C      -5.165052429     -4.377135042     -4.265702844
C      -3.792814859     -4.688584907     -4.713148458
H      -5.737934841     -3.401086904     -4.507818814
H      -6.375738918     -4.589550799     -3.546501042
H      -3.315175536     -3.614633999     -5.247949541
H      -2.820181160     -5.358498879     -4.696505864
           6
  t=       188.50000    1    1
C      -5.167682996     -4.399012106     -4.281917191
C      -3.814595626     -4.693410180     -4.717607193
H      -5.741431762     -3.413191966     -4.565753834
H      -6.392820684     -4.576964531     -3.518057574
H      -3.301617201     -3.601335406     -5.262377955
H      -2.861924762     -5.393743450     -4.745893063
           6
  t=       189.00000    1    1
C      -5.171062315     -4.420351054     -4.297891124
C      -3.836231995     -4.697220388     -4.722285408
H      -5.737014511     -3.429461178     -4.624027639
H      -6.396663047     -4.569634297     -3.495586283
H      -3.293619923     -3.598518210     -5.273426661
H      -2.912059581     -5.427593637     -4.792598468
           6
  t=       189.50000    1    1
C      -5.175088795     -4.441091434     -4.313771478
C      -3.857722977     -4.700112108     -4.727232639
H      -5.724927394     -3.450739687     -4.682359500
H      -6.388585210     -4.567187085     -3.477906793
H      -3.291279583     -3.605564836     -5.280479755
H      -2.970148561     -5.459764433     -4.836359161
           6
  t=       190.00000    1    1
C      -5.179766574     -4.461163283     -4.329608597
C      -3.878998157     -4.702186542     -4.732502490
H      -5.705744375     -3.477448270     -4.739911269
H      -6.369126924     -4.569312995     -3.465083584
H      -3.294868104     -3.622217801     -5.283430645
H      -3.035595777     -5.490030201     -4.876816806
           6
  t=       190.50000    1    1
C      -5.185180832     -4.480501932     -4.345390274
C      -3.899943586     -4.703556386     -4.738160608
H      -5.680270885     -3.509650487     -4.795835382
H      -6.338345150     -4.575716796     -3.457680119
H      -3.304672787     -3.648228269     -5.282266904
H      -3.107594354     -5.518299170     -4.913631166
           6
  t=       191.00000    1    1
C      -5.191463214     -4.499060116     -4.361053175
C      -3.920419696     -4.704355513     -4.744274254
H      -5.649529354     -3.546917008     -4.849408884
H      -6.296288946     -4.586159455     -3.456450409
H      -3.320847184     -3.683118317     -5.277185943
H      -3.185013660     -5.544685652     -4.946526981
           6
  t=       191.50000    1    1
C      -5.198754470     -4.516818752     -4.376494015
C      -3.940294451     -4.704732206     -4.750897107
H      -5.614737649     -3.588213651     -4.900098097
H      -6.243218819     -4.600514685     -3.462199243
H      -3.343312963     -3.726108274     -5.268714386
H      -3.266349823     -5.569590266     -4.975297594
           6
  t=       192.00000    1    1
C      -5.207184517     -4.533783895     -4.391586934
C      -3.959446913     -4.704845691     -4.758063197
H      -5.577287750     -3.632019148     -4.947593530
H      -6.179623521     -4.618750782     -3.475685772
H      -3.371757899     -3.776141223     -5.257652452
H      -3.349927333     -5.593653483     -4.999787348
           6
  t=       192.50000    1    1
C      -5.216829670     -4.549989324     -4.406215544
C      -3.977776331     -4.704891621     -4.765772391
H      -5.538931052     -3.676432546     -4.991896730
H      -6.106397802     -4.640821339     -3.497341086
H      -3.405439378     -3.831677805     -5.245031496
H      -3.434133842     -5.617628161     -5.019920677
           6
  t=       193.00000    1    1
C      -5.227692642     -4.565482419     -4.420302146
C      -3.995218870     -4.705147780     -4.773978505
H      -5.501815755     -3.719327601     -5.033256996
H      -6.025008131     -4.666629721     -3.527047561
H      -3.442919755     -3.890350433     -5.232247790
H      -3.517520627     -5.642230232     -5.035645763
           6
  t=       193.50000    1    1
C      -5.239674797     -4.580292860     -4.433856414
C      -4.011795894     -4.706003251     -4.782577230
H      -5.467983959     -3.758692843     -5.072041201
H      -5.937845938     -4.696159473     -3.563678932
H      -3.481977465     -3.948592350     -5.221289100
H      -3.598796481     -5.668064548     -5.046861926
           6
  t=       194.00000    1    1
C      -5.252540688     -4.594401501     -4.447052020
C      -4.027644148     -4.707966588     -4.791377133
H      -5.439103394     -3.792896048     -5.108725723
H      -5.848647517     -4.729703814     -3.604242769
H      -3.519482723     -4.001504609     -5.214928481
H      -3.676863241     -5.695537395     -5.053523741
           6
  t=       194.50000    1    1
C      -5.265896344     -4.607715232     -4.460306479
C      -4.043003428     -4.711645811     -4.800084344
H      -5.416837240     -3.820732418     -5.143736490
H      -5.762673228     -4.768146724     -3.643094814
H      -3.551206388     -4.043251474     -5.216846824
H      -3.750863644     -5.724669877     -5.055695359
           6
  t=       195.00000    1    1
C      -5.279270362     -4.620036365     -4.474306762
C      -4.058119812     -4.717618680     -4.808383733
H      -5.402868090     -3.841570283     -5.177093786
H      -5.685862665     -4.813236778     -3.671952503
H      -3.572863852     -4.068610081     -5.230835482
H      -3.820144992     -5.755039102     -5.053416976
           6
  t=       195.50000    1    1
C      -5.292349085     -4.631077471     -4.489820783
C      -4.073023492     -4.726175609     -4.816116782
H      -5.398693793     -3.855332140     -5.208355393
H      -5.622627831     -4.867401202     -3.682074797
H      -3.582541888     -4.075793013     -5.258777505
H      -3.884088322     -5.786047199     -5.046727420
           6
  t=       196.00000    1    1
C      -5.305164643     -4.640614795     -4.507198516
C      -4.087469386     -4.737159894     -4.823389503
H      -5.405379959     -3.862446985     -5.236881772
H      -5.573526288     -4.932345466     -3.669752349
H      -3.581682462     -4.067824842     -5.299438893
H      -3.942165997     -5.817068577     -5.035776198
           6
  t=       196.50000    1    1
C      -5.318024052     -4.648636123     -4.526109832
C      -4.101072102     -4.750144034     -4.830504366
H      -5.423609893     -3.863713006     -5.261946120
H      -5.535923310     -5.007402419     -3.639263631
H      -3.573577114     -4.050444923     -5.349451167
H      -3.993971780     -5.847472334     -5.020709707
           6
  t=       197.00000    1    1
C      -5.331265591     -4.655366482     -4.545798348
C      -4.113501367     -4.764624821     -4.837817438
H      -5.453274717     -3.860418725     -5.282801587
H      -5.506341702     -5.089240282     -3.600078586
H      -3.561893511     -4.029702394     -5.404648521
H      -4.039328666     -5.876567305     -5.001740690
           6
  t=       197.50000    1    1
C      -5.345091871     -4.661101630     -4.565595825
C      -4.124573525     -4.780207702     -4.845604989
H      -5.493639475     -3.853885494     -5.298930319
H      -5.482467270     -5.173921278     -3.560606270
H      -3.549566612     -4.010322188     -5.461457356
H      -4.078125018     -5.903422184     -4.979222101
           6
  t=       198.00000    1    1
C      -5.359578670     -4.666120598     -4.585063406
C      -4.134239568     -4.796602785     -4.854042114
H      -5.543627261     -3.845246437     -5.309987778
H      -5.463122935     -5.257939199     -3.526510221
H      -3.538680996     -3.995558260     -5.517173416
H      -4.110211222     -5.927285504     -4.953682123
           6
  t=       198.50000    1    1
C      -5.374732335     -4.670644918     -4.603964595
C      -4.142532350     -4.813610556     -4.863216342
H      -5.602252454     -3.835406405     -5.315602533
H      -5.447782288     -5.338388458     -3.501225574
H      -3.530560260     -3.987418497     -5.569872295
H      -4.135308636     -5.947887785     -4.925756495
           6
  t=       199.00000    1    1
C      -5.390497406     -4.674824732     -4.622213148
C      -4.149537156     -4.831085540     -4.873167787
H      -5.668592383     -3.825197953     -5.315373268
H      -5.436451646     -5.413087321     -3.486420524
H      -3.526131191     -3.987117794     -5.618141635
H      -4.153051419     -5.965307688     -4.896140369
           6
  t=       199.50000    1    1
C      -5.406739430     -4.678793977     -4.639804778
C      -4.155438557     -4.848871815     -4.883914973
H      -5.741318261     -3.815596062     -5.308830915
H      -5.429431079     -5.480347668     -3.482798911
H      -3.526073843     -3.995384659     -5.660927975
H      -4.163191060     -5.979791800     -4.865482763
           6
  t=       200.00000    1    1
C      -5.423290196     -4.682708724     -4.656761240
C      -4.160483580     -4.866778294     -4.895469908
H      -5.818721521     -3.807764033     -5.295473015
H      -5.427169855     -5.538644847     -3.490594415
H      -3.530761353     -4.012733615     -5.697382152
H      -4.165674572     -5.991604208     -4.834499343
