           6
  t=         0.00000    2    2
C       0.003451251     -0.059316072     -0.019221288
C       1.342141651      0.066462070      0.020724220
H      -0.613847343      0.887775709     -0.019231797
H       1.722678201      0.918517788      0.010284268
H       1.929943822     -0.862823120     -0.171374188
H      -0.372665732     -1.028556522      0.162426648
           6
  t=         0.50000    2    2
C       0.004387951     -0.059240976     -0.019141441
C       1.341089693      0.066239718      0.020613180
H      -0.613865027      0.887647253     -0.020576548
H       1.724479207      0.920833949      0.011872806
H       1.930245656     -0.862693170     -0.171628074
H      -0.373377510     -1.029119516      0.162808442
           6
  t=         1.00000    2    2
C       0.004994112     -0.059019476     -0.018904055
C       1.340140477      0.065581115      0.020285427
H      -0.613921778      0.886169450     -0.024607901
H       1.729839453      0.928765951      0.016618982
H       1.931154002     -0.862287623     -0.173506631
H      -0.375501617     -1.030770883      0.165048951
           6
  t=         1.50000    2    2
C       0.005260087     -0.058660764     -0.018513533
C       1.339316830      0.064509835      0.019753151
H      -0.614045668      0.883375241     -0.031337913
H       1.738596452      0.941963111      0.024491884
H       1.932666797     -0.861558652     -0.177078758
H      -0.379002491     -1.033412084      0.169167285
           6
  t=         2.00000    2    2
C       0.005182384     -0.058178999     -0.017975169
C       1.338646676      0.063067351      0.019032171
H      -0.614288162      0.879326122     -0.040799736
H       1.750459807      0.959814258      0.035464917
H       1.934778991     -0.860433898     -0.182449597
H      -0.383824324     -1.036891243      0.175202901
           6
  t=         2.50000    2    2
C       0.004764773     -0.057592608     -0.017293708
C       1.338162624      0.061315829      0.018138580
H      -0.614722919      0.874103082     -0.053069134
H       1.765007013      0.981430127      0.049545727
H       1.937485801     -0.858824867     -0.189765807
H      -0.389899659     -1.041009785      0.183235373
           6
  t=         3.00000    2    2
C       0.004020891     -0.056923655     -0.016472210
C       1.337898579      0.059337546      0.017086493
H      -0.615442773      0.867797667     -0.068283486
H       1.781695527      1.005667103      0.066795257
H       1.940785641     -0.856636376     -0.199221177
H      -0.397158017     -1.045528289      0.193403189
           6
  t=         3.50000    2    2
C       0.002978814     -0.056197802     -0.015511548
C       1.337880633      0.057226896      0.015886900
H      -0.616554323      0.860508440     -0.086638494
H       1.799914759      1.031240248      0.087320724
H       1.944681152     -0.853776919     -0.211044224
H      -0.405530336     -1.050170871      0.205902800
           6
  t=         4.00000    2    2
C       0.001682382     -0.055444901     -0.014410919
C       1.338117852      0.055076903      0.014546756
H      -0.618176464      0.852336957     -0.108376327
H       1.819081990      1.056902445      0.111269130
H       1.949183984     -0.850162474     -0.225482951
H      -0.414957021     -1.054628745      0.220984941
           6
  t=         4.50000    2    2
C       0.000190655     -0.054699022     -0.013168472
C       1.338595934      0.052968481      0.013067328
H      -0.620441033      0.843382359     -0.133752051
H       1.838728741      1.081587126      0.138808887
H       1.954321023     -0.845715603     -0.242766658
H      -0.425397966     -1.058570082      0.238928397
           6
  t=         5.00000    2    2
C      -0.001421215     -0.053997033     -0.011781964
C       1.339272303      0.050964725      0.011442975
H      -0.623487982      0.833735140     -0.162986099
H       1.858546457      1.104482359      0.170099128
H       1.960134838     -0.840365223     -0.263056085
H      -0.436835430     -1.061657039      0.259995717
           6
  t=         5.50000    2    2
C      -0.003066711     -0.053376634     -0.010250706
C       1.340079453      0.049109613      0.009662883
H      -0.627453990      0.823464171     -0.196197716
H       1.878392106      1.125038137      0.205233307
H       1.966676630     -0.834038317     -0.286388390
H      -0.449267410     -1.063556316      0.284370493
           6
  t=         6.00000    2    2
C      -0.004657039     -0.052874526     -0.008577417
C       1.340936262      0.047433100      0.007714813
H      -0.632462412      0.812597357     -0.233379193
H       1.898250549      1.142886512      0.244208947
H       1.973999156     -0.826643810     -0.312669669
H      -0.462699571     -1.063938564      0.312131796
           6
  t=         6.50000    2    2
C      -0.006121235     -0.052523083     -0.006767556
C       1.341773103      0.045960270      0.005589056
H      -0.638598037      0.801096418     -0.274315936
H       1.918148795      1.157710513      0.286822729
H       1.982135441     -0.818059796     -0.341601832
H      -0.477123121     -1.062483555      0.343151043
           6
  t=         7.00000    2    2
C      -0.007402316     -0.052348217     -0.004829101
C       1.342534118      0.044718903      0.003281439
H      -0.645906967      0.788857663     -0.318640550
H       1.938080009      1.169125727      0.332697262
H       1.991095370     -0.808129683     -0.372745029
H      -0.492508395     -1.058882041      0.377143134
           6
  t=         7.50000    2    2
C      -0.008449414     -0.052366604     -0.002773709
C       1.343173603      0.043742762      0.000797518
H      -0.654384830      0.775723344     -0.365864247
H       1.957943653      1.176630096      0.381285398
H       2.000856278     -0.796675764     -0.405566912
H      -0.508798106     -1.052855532      0.413706793
           6
  t=         8.00000    2    2
C      -0.009227082     -0.052583494     -0.000616344
C       1.343668116      0.043072145     -0.001844276
H      -0.663969780      0.761453883     -0.415430223
H       1.977519538      1.179579133      0.431896646
H       2.011358822     -0.783486698     -0.439510307
H      -0.525917592     -1.044148934      0.452377214
           6
  t=         8.50000    2    2
C      -0.009731713     -0.052995093      0.001627176
C       1.344035431      0.042753051     -0.004612255
H      -0.674527278      0.745667940     -0.466817665
H       1.996448742      1.177159508      0.483785632
H       2.022477689     -0.768270568     -0.474102973
H      -0.543771951     -1.032452800      0.492717616
           6
  t=         9.00000    2    2
C      -0.009987821     -0.053591341      0.003942533
C       1.344333963      0.042833305     -0.007466689
H      -0.685811908      0.727773309     -0.519639014
H       2.014220521      1.168408443      0.536285431
H       2.033948881     -0.750614553     -0.509058310
H      -0.562235802     -1.017314700      0.534417968
           6
  t=         9.50000    2    2
C      -0.010048339     -0.054363240      0.006317688
C       1.344671434      0.043356518     -0.010371504
H      -0.697373230      0.706733294     -0.573746477
H       2.030141359      1.152163944      0.589047727
H       2.045186358     -0.729816388     -0.544414180
H      -0.581132877     -0.997865089      0.577430262
           6
  t=        10.00000    2    2
C      -0.009886885     -0.055291657      0.008710256
C       1.345067883      0.044330112     -0.013284183
H      -0.708762366      0.681800014     -0.628520524
H       2.043675907      1.127907086      0.641524367
H       2.055642247     -0.705446438     -0.579976556
H      -0.600381978     -0.973583211      0.621487526
