           6
  t=         0.00000    2    2
C      -0.687634442      0.007638858     -0.007978019
C       0.668106020     -0.007310800     -0.003470678
H      -1.169169422      0.957673578      0.035803141
H      -1.124908193     -0.989848140      0.020283108
H       1.275622101      0.922276132      0.046923990
H       1.251149851     -0.894010612      0.033408688
           6
  t=         0.50000    2    2
C      -0.689538123      0.007292952     -0.008520632
C       0.672343733     -0.006258671     -0.002902251
H      -1.176633028      0.961176135      0.036388270
H      -1.133834357     -0.989584845      0.023703210
H       1.264687653      0.918952390      0.046228609
H       1.250662577     -0.902868313      0.029791871
           6
  t=         1.00000    2    2
C      -0.692320560      0.006763354     -0.009089209
C       0.677823328     -0.004955261     -0.002365350
H      -1.186116266      0.964195021      0.037068601
H      -1.144613172     -0.987129651      0.027412471
H       1.252826964      0.914456378      0.045761661
H       1.250646947     -0.913067330      0.026247278
           6
  t=         1.50000    1    1
C      -0.695922939      0.006089515     -0.009684041
C       0.684389775     -0.003532705     -0.001863777
H      -1.197219361      0.966256730      0.037763544
H      -1.157057825     -0.982488600      0.031481388
H       1.240838317      0.909690285      0.045664763
H       1.250864537     -0.923925923      0.022692166
           6
  t=         2.00000    1    1
C      -0.704449916      0.000475789     -0.015087883
C       0.686376460     -0.006961040     -0.006190860
H      -1.267066243      0.909532171     -0.019305641
H      -1.228573858     -1.033593333     -0.022102050
H       1.171988286      0.848228622     -0.011997591
H       1.193437797     -0.992464948     -0.038613461
           6
  t=         2.50000    1    1
C      -0.712583599     -0.005724344     -0.020493514
C       0.687366044     -0.011392629     -0.010556814
H      -1.337947845      0.853619561     -0.076186269
H      -1.298412799     -1.079129165     -0.075728654
H       1.110046323      0.796755993     -0.069693235
H       1.135655372     -1.058431951     -0.099546706
           6
  t=         3.00000    1    1
C      -0.720468126     -0.012785944     -0.026012849
C       0.686681865     -0.018053859     -0.014941048
H      -1.409384663      0.799626829     -0.132419829
H      -1.364195854     -1.116865752     -0.128503558
H       1.061848028      0.766935947     -0.128393616
H       1.077603775     -1.118938025     -0.159401301
           6
  t=         3.50000    1    1
C      -0.728312148     -0.020848386     -0.031773544
C       0.683862011     -0.027836802     -0.019227047
H      -1.480246941      0.747822035     -0.187493710
H      -1.423957033     -1.145519185     -0.179342646
H       1.031815975      0.767027892     -0.190293258
H       1.019754871     -1.171504179     -0.217446704
           6
  t=         4.00000    1    1
C      -0.736350428     -0.029958297     -0.037908309
C       0.678880357     -0.040755595     -0.023368887
H      -1.548863623      0.697887593     -0.240776137
H      -1.476152109     -1.164457239     -0.227159277
H       1.019278863      0.795809497     -0.256769293
H       0.962673352     -1.214498641     -0.272990085
           6
  t=         4.50000    1    1
C      -0.744814747     -0.040083464     -0.044541857
C       0.672093093     -0.056040986     -0.027515817
H      -1.613262737      0.649233388     -0.291555113
H      -1.519803619     -1.173619822     -0.271095445
H       1.019345649      0.843381650     -0.326707225
H       0.906818425     -1.247042298     -0.325451485
           6
  t=         5.00000    1    1
C      -0.753896897     -0.051127524     -0.051805645
C       0.663914335     -0.072795026     -0.031907043
H      -1.671482319      0.601213388     -0.338984478
H      -1.554401147     -1.173393280     -0.310557306
H       1.026548119      0.898568099     -0.397562066
H       0.852536744     -1.268774409     -0.374399211
           6
  t=         5.50000    1    1
C      -0.763740683     -0.062975554     -0.059844263
C       0.654659328     -0.090306910     -0.036763183
H      -1.721694231      0.553329615     -0.382131005
H      -1.579679875     -1.164416262     -0.345084745
H       1.036515922      0.952498024     -0.466664801
H       0.800062894     -1.279526622     -0.419543913
           6
  t=         6.00000    1    1
C      -0.774435511     -0.075521582     -0.068772626
C       0.644525223     -0.108069643     -0.042248783
H      -1.762526793      0.505480517     -0.420212982
H      -1.595685981     -1.147801949     -0.374386045
H       1.046483898      0.999179873     -0.531865719
H       0.749552701     -1.279396580     -0.460778773
           6
  t=         6.50000    1    1
C      -0.786065319     -0.088689335     -0.078661368
C       0.633609306     -0.125717771     -0.048522283
H      -1.792977124      0.458484821     -0.452700805
H      -1.602391104     -1.125150076     -0.398145569
H       1.054762334      1.034875130     -0.591333242
H       0.701505558     -1.269128229     -0.498051046
           6
  t=         7.00000    1    1
C      -0.798683018     -0.102439659     -0.089541046
C       0.621928435     -0.142972151     -0.055725843
H      -1.812658785      0.414287684     -0.479302897
H      -1.599636237     -1.098636849     -0.416036087
H       1.060377372      1.057496285     -0.643627749
H       0.656779482     -1.250195737     -0.531361091
           6
  t=         7.50000    1    1
C      -0.812278451     -0.116759308     -0.101371488
C       0.609425637     -0.159694180     -0.063934340
H      -1.822067407      0.375138001     -0.500125864
H      -1.587292012     -1.070322571     -0.427909159
H       1.063133051      1.066772681     -0.688244192
H       0.616494548     -1.224326427     -0.560842277
           6
  t=         8.00000    1    1
C      -0.826751926     -0.131602289     -0.114055817
C       0.596027593     -0.175865554     -0.073122225
H      -1.822162532      0.342469507     -0.515613795
H      -1.565700719     -1.041805817     -0.433964776
H       1.063140696      1.063662364     -0.725589866
H       0.581527006     -1.193079632     -0.586902030
           6
  t=         8.50000    1    1
C      -0.841880001     -0.146882307     -0.127513710
C       0.581715026     -0.191388832     -0.083212813
H      -1.814334609      0.317394565     -0.526220478
H      -1.536171563     -1.015197956     -0.434627302
H       1.060352968      1.048929296     -0.755942683
H       0.552191082     -1.158409663     -0.610255111
           6
  t=         9.00000    1    1
C      -0.857382351     -0.162436098     -0.141640255
C       0.566506256     -0.206065495     -0.094112921
H      -1.800362330      0.301041107     -0.532435801
H      -1.500708399     -0.993420276     -0.430601030
H       1.054617306      1.022939276     -0.779272811
H       0.528863329     -1.123199846     -0.632097628
           6
  t=         9.50000    1    1
C      -0.872916441     -0.178002869     -0.156280784
C       0.550431492     -0.219617394     -0.105727385
H      -1.782361631      0.294544199     -0.534796436
H      -1.461909635     -0.980350710     -0.423004440
H       1.045712288      0.985740102     -0.795264534
H       0.512038033     -1.091176958     -0.654067061
           6
  t=        10.00000    1    1
C      -0.888066637     -0.193227535     -0.171226446
C       0.533497750     -0.231743036     -0.117977982
H      -1.762556175      0.298829253     -0.533875401
H      -1.422919255     -0.980712641     -0.413383199
H       1.033417260      0.937215833     -0.803415623
H       0.502267302     -1.066250674     -0.677967625
           6
  t=        10.50000    1    1
C      -0.902399981     -0.207727902     -0.186258710
C       0.515679206     -0.242186359     -0.130820060
H      -1.742970921      0.314369113     -0.530168639
H      -1.387038984     -0.999244309     -0.403377425
H       1.017603283      0.877330822     -0.803188620
H       0.500155505     -1.051725191     -0.705336730
           6
  t=        11.00000    1    1
C      -0.915605947     -0.221229255     -0.201220890
C       0.496953876     -0.250830356     -0.144253350
H      -1.725038914      0.340864030     -0.523991884
H      -1.356793560     -1.038936504     -0.394134387
H       0.998351123      0.806636477     -0.794279749
H       0.506141501     -1.049529020     -0.736885354
           6
  t=        11.50000    1    1
C      -0.927615952     -0.233717387     -0.216069017
C       0.477329862     -0.257753302     -0.158353336
H      -1.709403396      0.377241714     -0.515440410
H      -1.332916489     -1.099208516     -0.385787717
H       0.976037382      0.726540884     -0.776676948
H       0.520311632     -1.059815244     -0.772021156
           6
  t=        12.00000    1    1
C      -0.938637586     -0.245519465     -0.230858603
C       0.456882933     -0.263294687     -0.173264535
H      -1.696037955      0.421725031     -0.504488709
H      -1.314090213     -1.174875718     -0.377573604
H       0.951442543      0.639451558     -0.750937226
H       0.542112236     -1.080455207     -0.808592940
           6
  t=        12.50000    1    1
C      -0.948989034     -0.257111579     -0.245665787
C       0.435707399     -0.267989254     -0.189086140
H      -1.684320093      0.472195111     -0.491015995
H      -1.298543844     -1.258660334     -0.368737678
H       0.925923620      0.549222596     -0.718622516
H       0.570460500     -1.108417159     -0.843824751
           6
  t=        13.00000    1    1
C      -0.958991921     -0.268919938     -0.260548570
C       0.413839279     -0.272512961     -0.205807787
H      -1.673024278      0.525845786     -0.474830450
H      -1.285041982     -1.343157367     -0.358856729
H       0.901883444      0.461498945     -0.682363495
H       0.603895869     -1.140811799     -0.875133320
           6
  t=        13.50000    1    1
C      -0.968875533     -0.281187656     -0.275540621
C       0.391142706     -0.277714476     -0.223258762
H      -1.660944259      0.579661862     -0.455711358
H      -1.273221386     -1.422845795     -0.347850334
H       0.883708231      0.384119845     -0.646233839
H       0.640813677     -1.174974893     -0.900379066
           6
  t=        14.00000    1    1
C      -0.978810966     -0.293980445     -0.290627608
C       0.367279587     -0.284560867     -0.241126396
H      -1.647187839      0.630549641     -0.433577651
H      -1.263414289     -1.494056313     -0.335932583
H       0.878305177      0.326715400     -0.615440637
H       0.679814076     -1.208805867     -0.918118337
           6
  t=        14.50000    1    1
C      -0.988994714     -0.307286420     -0.305769343
C       0.341945779     -0.293859118     -0.259163616
H      -1.631254186      0.675837262     -0.408504367
H      -1.256163753     -1.554211306     -0.323412098
H       0.892797668      0.297317398     -0.593886344
H       0.719781350     -1.240768129     -0.927487918
           6
  t=        15.00000    1    1
C      -0.999609191     -0.321070428     -0.320918324
C       0.315321486     -0.305767589     -0.277434604
H      -1.612945590      0.713570738     -0.380832722
H      -1.251872038     -1.601648748     -0.310646682
H       0.928704012      0.296518194     -0.580920981
H       0.759428080     -1.269693966     -0.928240026
           6
  t=        15.50000    1    1
C      -1.010783577     -0.335298829     -0.336011863
C       0.288172372     -0.319795418     -0.296268976
H      -1.592233626      0.742285781     -0.351220110
H      -1.250805575     -1.635403838     -0.297960405
H       0.980339667      0.317636475     -0.572142027
H       0.797092663     -1.294652400     -0.920615074
           6
  t=        16.00000    1    1
C      -1.022637783     -0.349903481     -0.350982334
C       0.261545120     -0.335205629     -0.315992538
H      -1.569327000      0.760914569     -0.320346926
H      -1.253086502     -1.655293519     -0.285667841
H       1.038543211      0.351297969     -0.563005634
H       0.831224266     -1.314977897     -0.905085551
           6
  t=        16.50000    1    1
C      -1.035319595     -0.364798802     -0.365754903
C       0.236354128     -0.351422680     -0.336756450
H      -1.544597071      0.768708396     -0.288836499
H      -1.258766577     -1.661561634     -0.274103274
H       1.095777580      0.390079652     -0.551126619
H       0.860648364     -1.330132625     -0.882169563
           6
  t=        17.00000    1    1
C      -1.048976123     -0.379897682     -0.380250296
C       0.213283834     -0.368071768     -0.358574968
H      -1.518556747      0.765225034     -0.257273339
H      -1.267863606     -1.654625064     -0.263579365
H       1.146957607      0.429018545     -0.535768474
H       0.884578234     -1.339798508     -0.852481172
           6
  t=        17.50000    1    1
C      -1.063703289     -0.395116056     -0.394389186
C       0.192816534     -0.384913089     -0.381385523
H      -1.491872130      0.750351888     -0.226219328
H      -1.280506731     -1.635103816     -0.254353378
H       1.188777129      0.465042548     -0.517031223
H       0.902511332     -1.344029952     -0.816792015
           6
  t=        18.00000    1    1
C      -1.079521939     -0.410372913     -0.408097902
C       0.175255488     -0.401792246     -0.405078494
H      -1.465345820      0.724386663     -0.196221810
H      -1.297000357     -1.604017530     -0.246594469
H       1.219279144      0.496365566     -0.495441002
H       0.914146557     -1.343123974     -0.776043468
           6
  t=        18.50000    1    1
C      -1.096392717     -0.425570959     -0.421319841
C       0.160756475     -0.418609809     -0.429518216
H      -1.439867428      0.688077108     -0.167797319
H      -1.317788117     -1.563053023     -0.240277742
H       1.237549538      0.522028878     -0.471667617
H       0.919406075     -1.337526889     -0.731365125
           6
  t=        19.00000    1    1
C      -1.114232564     -0.440586723     -0.434025114
C       0.149362865     -0.435299423     -0.454570891
H      -1.416384990      0.642786716     -0.141273201
H      -1.343378498     -1.514791213     -0.235209721
H       1.243390093      0.541627550     -0.446417593
H       0.918438139     -1.327878261     -0.683867019
           6
  t=        19.50000    1    1
C      -1.132899823     -0.455272514     -0.446236671
C       0.141032466     -0.451798552     -0.480107719
H      -1.395901801      0.590651458     -0.116525637
H      -1.374341316     -1.462826566     -0.231068718
H       1.236870557      0.554914807     -0.420521087
H       0.911560935     -1.314977783     -0.634425752
           6
  t=        20.00000    1    1
C      -1.152109123     -0.469400445     -0.458050327
C       0.135589418     -0.468034097     -0.505956942
H      -1.379533582      0.534208056     -0.093149792
H      -1.411536807     -1.412007792     -0.227195634
H       1.218137963      0.561554687     -0.394981978
H       0.899298478     -1.299763982     -0.584006330
           6
  t=        20.50000    1    1
C      -1.171382314     -0.482648808     -0.469623479
C       0.132650137     -0.483895230     -0.531904656
H      -1.368380151      0.476081961     -0.070758079
H      -1.456232954     -1.368294269     -0.222412773
H       1.187408711      0.561243858     -0.370787760
H       0.882675357     -1.283753529     -0.533859844
           6
  t=        21.00000    1    1
C      -1.190149709     -0.494732775     -0.481168377
C       0.131718424     -0.499239556     -0.557717289
H      -1.363407919      0.419401715     -0.048779679
H      -1.510013013     -1.337662396     -0.215275427
H       1.144854713      0.553750598     -0.348925981
H       0.863193652     -1.268957520     -0.485268320
           6
  t=        21.50000    1    1
C      -1.207920623     -0.505605633     -0.492870859
C       0.132319322     -0.513921971     -0.583202250
H      -1.365551306      0.368240758     -0.026382439
H      -1.574035511     -1.324014846     -0.204797027
H       1.090572315      0.538963001     -0.330198254
H       0.842662593     -1.257720437     -0.439329360
           6
  t=        22.00000    1    1
C      -1.224377100     -0.515545533     -0.504820983
C       0.133983908     -0.527769311     -0.608237685
H      -1.375248741      0.326537456     -0.002524395
H      -1.648141335     -1.327493326     -0.191223508
H       1.024702983      0.516654079     -0.315307306
H       0.823018852     -1.252360953     -0.396515132
           6
  t=        22.50000    1    1
C      -1.239454397     -0.525021849     -0.516966275
C       0.136284702     -0.540640126     -0.632749184
H      -1.392301037      0.296255718      0.023372616
H      -1.730276216     -1.344279127     -0.176063710
H       0.947708806      0.486723143     -0.304838606
H       0.805869181     -1.254653586     -0.356821394
           6
  t=        23.00000    1    1
C      -1.253284140     -0.534462865     -0.529127398
C       0.138854436     -0.552512888     -0.656688352
H      -1.416133132      0.277326673      0.051024671
H      -1.816892708     -1.369050749     -0.161512023
H       0.860630119      0.449640233     -0.299168426
H       0.791995364     -1.265474197     -0.320107159
           6
  t=        23.50000    1    1
C      -1.266110348     -0.544137076     -0.541044124
C       0.141408716     -0.563517483     -0.680005281
H      -1.445861408      0.267976463      0.079272288
H      -1.904034245     -1.396818905     -0.149862977
H       0.765166949      0.406649310     -0.298500508
H       0.781153622     -1.284535212     -0.286410107
           6
  t=        24.00000    1    1
C      -1.278166669     -0.554127544     -0.552437086
C       0.143688506     -0.573915250     -0.702613854
H      -1.480347977      0.265376926      0.106169589
H      -1.988369345     -1.423976038     -0.142965112
H       0.663640960      0.359676792     -0.302817246
H       0.772423570     -1.310438692     -0.256308460
           6
  t=        24.50000    1    1
C      -1.289645982     -0.564420381     -0.563064145
C       0.145413285     -0.584072854     -0.724435376
H      -1.518335942      0.266488463      0.129511441
H      -2.067442142     -1.448194179     -0.142044763
H       0.559131407      0.311633654     -0.311545465
H       0.764654053     -1.341180386     -0.230766851
           6
  t=        25.00000    1    1
C      -1.300717789     -0.575005646     -0.572748128
C       0.146269509     -0.594479112     -0.745478413
H      -1.558550889      0.268884660      0.147408053
H      -2.139394374     -1.467950446     -0.147870689
H       0.455287257      0.267142097     -0.323012798
H       0.756819269     -1.374772846     -0.210808176
           6
  t=        25.50000    1    1
C      -1.311532014     -0.585887978     -0.581401295
C       0.146000777     -0.605737641     -0.765885269
H      -1.599847383      0.270965148      0.158721750
H      -2.203026730     -1.482417016     -0.160758941
H       0.355422702      0.232327979     -0.334316622
H       0.748101900     -1.409321577     -0.197231176
           6
  t=        26.00000    1    1
C      -1.322222911     -0.597087108     -0.588977245
C       0.144474155     -0.618428178     -0.785843380
H      -1.641412688      0.271652162      0.162741093
H      -2.257760555     -1.491297953     -0.180819027
H       0.262031334      0.213166615     -0.342220565
H       0.737800697     -1.442877039     -0.190770716
           6
  t=        26.50000    1    1
C      -1.332948263     -0.608648813     -0.595456216
C       0.141714666     -0.632830702     -0.805442139
H      -1.682449191      0.270057572      0.158944271
H      -2.303480099     -1.494625948     -0.208018730
H       0.176438374      0.212652693     -0.344838614
H       0.725259008     -1.473631464     -0.191993544
           6
  t=        27.00000    1    1
C      -1.343853378     -0.620631934     -0.600849407
C       0.137802379     -0.648743854     -0.824569365
H      -1.722080333      0.265552732      0.146933487
H      -2.340099587     -1.492593135     -0.242163061
H       0.098943570      0.228713781     -0.342896830
H       0.709992101     -1.500389846     -0.201174053
           6
  t=        27.50000    1    1
C      -1.355083464     -0.633112955     -0.605203783
C       0.132731022     -0.665646702     -0.842961358
H      -1.759479570      0.257789325      0.126491951
H      -2.367295784     -1.485439470     -0.282995688
H       0.030422813      0.256027169     -0.339004118
H       0.691779308     -1.522537124     -0.218325424
           6
  t=        28.00000    1    1
C      -1.366736981     -0.646166755     -0.608598777
C       0.126391746     -0.682960152     -0.860345859
H      -1.794061868      0.246775460      0.097683661
H      -2.384670597     -1.473520217     -0.330180284
H      -0.027672209      0.288792787     -0.336074959
H       0.670656023     -1.539934101     -0.243231133
           6
  t=        28.50000    1    1
C      -1.378845163     -0.659849080     -0.611142171
C       0.118622645     -0.700178807     -0.876523617
H      -1.825551409      0.232796264      0.060876734
H      -2.391866127     -1.457271411     -0.383262924
H      -0.073970482      0.322119884     -0.336486509
H       0.646918924     -1.552897029     -0.275426016
           6
  t=        29.00000    1    1
C      -1.391369695     -0.674173848     -0.612978785
C       0.109266943     -0.716899432     -0.891405651
H      -1.853955566      0.216304232      0.016703679
H      -2.388842218     -1.437298075     -0.441514117
H      -0.107685681      0.352309886     -0.341746522
H       0.621160434     -1.562213775     -0.314098925
           6
  t=        29.50000    1    1
C      -1.404226327     -0.689124044     -0.614293827
C       0.098183483     -0.732802521     -0.904981527
H      -1.879393641      0.197875915     -0.033987088
H      -2.375978040     -1.414456302     -0.503974007
H      -0.128476971      0.376791568     -0.352648872
H       0.594216279     -1.569043436     -0.358181744
           6
  t=        30.00000    1    1
C      -1.417276404     -0.704644235     -0.615319200
C       0.085254968     -0.747635338     -0.917295241
H      -1.902028333      0.178300625     -0.090099027
H      -2.354474951     -1.390169892     -0.569477098
H      -0.136341319      0.394028273     -0.369420671
H       0.567193000     -1.574886943     -0.406421842
           6
  t=        30.50000    1    1
C      -1.430285553     -0.720618642     -0.616315792
C       0.070386215     -0.761189524     -0.928428167
H      -1.922074672      0.158637482     -0.150309765
H      -2.326876319     -1.366749765     -0.636801278
H      -0.131582282      0.403203697     -0.391907889
H       0.541494016     -1.581538489     -0.457439470
           6
  t=        31.00000    1    1
C      -1.442928107     -0.736893153     -0.617522507
C       0.053477667     -0.773267901     -0.938459803
H      -1.939842262      0.140175942     -0.213228951
H      -2.296773145     -1.347145045     -0.705057379
H      -0.114611122      0.403742989     -0.419898655
H       0.518736914     -1.590949401     -0.509932045
           6
  t=        31.50000    1    1
C      -1.454836806     -0.753305685     -0.619113718
C       0.034428086     -0.783686748     -0.947434844
H      -1.955783267      0.124318369     -0.277579356
H      -2.268051436     -1.334474783     -0.773954494
H      -0.085827452      0.395049937     -0.453278882
H       0.500489652     -1.604927306     -0.562971417
           6
  t=        32.00000    1    1
C      -1.465655193     -0.769682912     -0.621186948
C       0.013181990     -0.792322993     -0.955363135
H      -1.970385587      0.112387147     -0.342276694
H      -2.244400429     -1.331768751     -0.843811898
H      -0.045806436      0.376519710     -0.491928330
H       0.487918219     -1.624691733     -0.616163514
           6
  t=        32.50000    1    1
C      -1.475159558     -0.785875546     -0.623792278
C      -0.010204959     -0.799175302     -0.962227588
H      -1.983985549      0.105295089     -0.406482957
H      -2.228370562     -1.341249533     -0.915156459
H       0.004595183      0.347829622     -0.535540590
H       0.481437219     -1.650405003     -0.669732732
           6
  t=        33.00000    1    1
C      -1.483341616     -0.801808091     -0.626966647
C      -0.035540344     -0.804434639     -0.968022044
H      -1.996695144      0.103279791     -0.469692883
H      -2.220436480     -1.363443310     -0.988121894
H       0.064112569      0.309499168     -0.583399545
H       0.480506606     -1.680922142     -0.724399969
           6
  t=        33.50000    1    1
C      -1.490426135     -0.817482415     -0.630775546
C      -0.062503794     -0.808488557     -0.972791211
H      -2.008449962      0.105830089     -0.531655996
H      -2.218805318     -1.396947994     -1.061905142
H       0.131139362      0.263105656     -0.634381779
H       0.483736316     -1.714071184     -0.781029074
           6
  t=        34.00000    1    1
C      -1.496768410     -0.832944488     -0.635327558
C      -0.090712296     -0.811842282     -0.976627661
H      -2.018986123      0.111780256     -0.592236761
H      -2.220371901     -1.439030869     -1.134799719
H       0.203969744      0.211000838     -0.687247191
H       0.489132828     -1.747202975     -0.840305298
           6
  t=        34.50000    1    1
C      -1.502735263     -0.848230544     -0.640752946
C      -0.119784959     -0.815004955     -0.979653830
H      -2.027902771      0.119537857     -0.651270144
H      -2.222096541     -1.486675285     -1.204748494
H       0.281150993      0.155776271     -0.740915614
H       0.494540654     -1.777834782     -0.902519860
           6
  t=        35.00000    1    1
C      -1.508671645     -0.863335209     -0.647169436
C      -0.149329561     -0.818410066     -0.982011762
H      -2.034733824      0.127252113     -0.708521158
H      -2.221633636     -1.537141527     -1.269795796
H       0.361377824      0.099740332     -0.794582866
H       0.497890157     -1.804062629     -0.967572293
           6
  t=        35.50000    1    1
C      -1.514903788     -0.878211324     -0.654676813
C      -0.178900610     -0.822358473     -0.983849187
H      -2.039120537      0.133101542     -0.763623848
H      -2.217334875     -1.588209328     -1.328243981
H       0.443121320      0.044276572     -0.847741550
H       0.497282133     -1.824645853     -1.035084249
           6
  t=        36.00000    1    1
C      -1.521723406     -0.892788857     -0.663365144
C      -0.207980488     -0.827022843     -0.985311866
H      -2.040981680      0.135614408     -0.815960206
H      -2.208137667     -1.638203236     -1.378781166
H       0.524203380     -0.010263208     -0.900137693
H       0.491059035     -1.838917026     -1.104429597
           6
  t=        36.50000    1    1
C      -1.529366479     -0.906988993     -0.673314056
C      -0.236012587     -0.832499278     -0.986552950
H      -2.040579947      0.133753889     -0.864664670
H      -2.193500380     -1.685861511     -1.420568408
H       0.601782378     -0.064134659     -0.951616714
H       0.477963097     -1.846639409     -1.174693667
           6
  t=        37.00000    1    1
C      -1.538030222     -0.920738408     -0.684572850
C      -0.262457700     -0.838849438     -0.987745903
H      -2.038495100      0.126915272     -0.908763159
H      -2.173328033     -1.730266939     -1.453271794
H       0.672946540     -0.117700724     -1.001995377
H       0.457315762     -1.847901533     -1.244713322
           6
  t=        37.50000    1    1
C      -1.547840602     -0.934015160     -0.697126279
C      -0.286894113     -0.846085068     -0.989087334
H      -2.035385320      0.114969666     -0.947593204
H      -2.147969720     -1.770793694     -1.477004791
H       0.735313338     -0.171277029     -1.050903088
H       0.428982853     -1.843006244     -1.313247087
           6
  t=        38.00000    1    1
C      -1.558877054     -0.946851259     -0.710892560
C      -0.309002673     -0.854162561     -0.990774515
H      -2.031715948      0.098153546     -0.981052284
H      -2.118155387     -1.807163965     -1.492100261
H       0.787061494     -0.225031607     -1.097670003
H       0.393124492     -1.832437962     -1.379358351
           6
  t=        38.50000    1    1
C      -1.571151092     -0.959312615     -0.725781688
C      -0.328583060     -0.863012046     -0.992987399
H      -2.027845338      0.076853226     -1.009377375
H      -2.084810818     -1.839204517     -1.498788402
H       0.826879988     -0.278862034     -1.141346595
H       0.350086117     -1.816905863     -1.442457668
           6
  t=        39.00000    1    1
C      -1.584634894     -0.971464351     -0.741726073
C      -0.345488072     -0.872582728     -0.995888282
H      -2.024284122      0.051596613     -1.032702105
H      -2.049004760     -1.866838219     -1.497295206
H       0.853844030     -0.332244509     -1.180945828
H       0.300286341     -1.797368055     -1.502043983
           6
  t=        39.50000    1    1
C      -1.599257216     -0.983374212     -0.758666700
C      -0.359632648     -0.882832770     -0.999623417
H      -2.021730976      0.023085172     -1.051050488
H      -2.011784351     -1.890038717     -1.487958118
H       0.867418748     -0.384382897     -1.215543490
H       0.244143391     -1.775039782     -1.557640520
           6
  t=        40.00000    1    1
C      -1.614894798     -0.995134598     -0.776532562
C      -0.371005769     -0.893701056     -1.004301156
H      -2.021032339     -0.007768916     -1.064626851
H      -1.974137427     -1.908774790     -1.471206475
H       0.867418741     -0.434557435     -1.244295433
H       0.182076913     -1.751211426     -1.609012788
           6
  t=        40.50000    1    1
C      -1.631368584     -1.006836811     -0.795217764
C      -0.379697777     -0.905116516     -1.009996030
H      -2.023249258     -0.039729669     -1.073660913
H      -1.937141900     -1.923222570     -1.447888969
H       0.854090612     -0.482133907     -1.266621848
H       0.114922168     -1.727336007     -1.656035920
           6
  t=        41.00000    1    1
C      -1.648434011     -1.018563948     -0.814575524
C      -0.385879364     -0.916993785     -1.016745702
H      -2.029596335     -0.071187187     -1.078492326
H      -1.902139678     -1.934026961     -1.419297179
H       0.827993688     -0.526532933     -1.282100312
H       0.043796124     -1.704984884     -1.698801326
           6
  t=        41.50000    1    1
C      -1.665796093     -1.030370472     -0.834415823
C      -0.389781952     -0.929242377     -1.024554662
H      -2.041372531     -0.100229976     -1.079552742
H      -1.870734109     -1.942476071     -1.387168900
H       0.789991721     -0.567126351     -1.290425641
H      -0.030020065     -1.685838881     -1.737655439
           6
  t=        42.00000    1    1
C      -1.683141253     -1.042245864     -0.854511272
C      -0.391696789     -0.941781689     -1.033384309
H      -2.059805992     -0.124905198     -1.077330358
H      -1.845148566     -1.950706754     -1.353512311
H       0.741372551     -0.603194401     -1.291470345
H      -0.104628779     -1.671519510     -1.773398825
           6
  t=        42.50000    1    1
C      -1.700181304     -1.054089369     -0.874632314
C      -0.391994453     -0.954575119     -1.043150383
H      -2.085878038     -0.143655111     -1.072267341
H      -1.827622971     -1.961438623     -1.320191048
H       0.684157916     -0.633866091     -1.285372394
H      -0.177848803     -1.663372563     -1.807327054
           6
  t=        43.00000    1    1
C      -1.716686680     -1.065716755     -0.894596399
C      -0.391155037     -0.967671055     -1.053750959
H      -2.120189270     -0.155756929     -1.064591964
H      -1.819157691     -1.977201119     -1.288643274
H       0.621462192     -0.658092803     -1.272613621
H      -0.248208317     -1.662258727     -1.840681584
           6
  t=        43.50000    1    1
C      -1.732485998     -1.076889749     -0.914301534
C      -0.389797316     -0.981216971     -1.065090500
H      -2.162856023     -0.161552665     -1.054200184
H      -1.819904309     -1.999899435     -1.259698342
H       0.557839131     -0.674518338     -1.254115457
H      -0.314662188     -1.668368901     -1.874169348
           6
  t=        44.00000    1    1
C      -1.747461145     -1.087371526     -0.933730034
C      -0.388726672     -0.995460607     -1.077086192
H      -2.213357303     -0.162487032     -1.040734919
H      -1.829867764     -2.030477827     -1.233483560
H       0.499971768     -0.681081226     -1.231265346
H      -0.376220228     -1.681245507     -1.907830215
           6
  t=        44.50000    1    1
C      -1.761548789     -1.096990852     -0.952925617
C      -0.388887060     -1.010733616     -1.089693859
H      -2.270449229     -0.160932237     -1.023811695
H      -1.849033226     -2.068522444     -1.209513672
H       0.456195905     -0.674888001     -1.205524137
H      -0.431983734     -1.699912204     -1.941078499
           6
  t=        45.00000    1    1
C      -1.774748481     -1.105673191     -0.971958202
C      -0.391112483     -1.027381661     -1.102939659
H      -2.332310826     -0.159694783     -1.003220747
H      -1.877165850     -2.112309438     -1.186996247
H       0.433720897     -0.652876159     -1.177718692
H      -0.481285524     -1.723118130     -1.972944735
           6
  t=        45.50000    1    1
C      -1.787142488     -1.113446744     -0.990886816
C      -0.395720463     -1.045589590     -1.116922426
H      -2.396795644     -0.161356760     -0.979033897
H      -1.913507664     -2.159186418     -1.165161201
H       0.433931060     -0.613869082     -1.147670185
H      -0.523650578     -1.749571605     -2.002424982
           6
  t=        46.00000    1    1
C      -1.798884419     -1.120429096     -1.009729527
C      -0.402400570     -1.065236660     -1.131739968
H      -2.461652677     -0.167873249     -0.951639403
H      -1.956750305     -2.206059959     -1.143521474
H       0.450903116     -0.560398476     -1.115045252
H      -0.558583631     -1.777916907     -2.028570665
           6
  t=        46.50000    1    1
C      -1.810164355     -1.126784955     -1.028451322
C      -0.410533489     -1.085959929     -1.147423956
H      -2.524776084     -0.180596414     -0.921651314
H      -2.005396206     -2.249870607     -1.121963284
H       0.475189443     -0.497988279     -1.080368444
H      -0.585355063     -1.806699456     -2.050396778
           6
  t=        47.00000    1    1
C      -1.821175882     -1.132678373     -1.046974768
C      -0.419560697     -1.107325365     -1.163932761
H      -2.584378935     -0.200428763     -0.889759877
H      -2.058237821     -2.288089952     -1.100622672
H       0.498813177     -0.432324744     -1.044675751
H      -0.603330959     -1.835075890     -2.067459769
           6
  t=        47.50000    1    1
C      -1.832107698     -1.138248196     -1.065208023
C      -0.429125376     -1.128963631     -1.181170918
H      -2.639068698     -0.227768979     -0.856653216
H      -2.114111873     -2.318974421     -1.079830403
H       0.516759327     -0.367987320     -1.009302528
H      -0.612055394     -1.862558136     -2.079637269
           6
  t=        48.00000    1    1
C      -1.843141636     -1.143624791     -1.083059976
C      -0.439038114     -1.150598244     -1.199011568
H      -2.687726711     -0.262548455     -0.823012915
H      -2.171579610     -2.341268422     -1.060160144
H       0.526271337     -0.308359453     -0.975658307
H      -0.611419564     -1.888828011     -2.086861744
           6
  t=        48.50000    1    1
C      -1.854452576     -1.148934542     -1.100441087
C      -0.449201103     -1.172007866     -1.217309783
H      -2.729498289     -0.304246315     -0.789467508
H      -2.229170929     -2.354224789     -1.042296459
H       0.526052113     -0.255819015     -0.944969923
H      -0.601532759     -1.913907106     -2.089387133
           6
  t=        49.00000    1    1
C      -1.866196868     -1.154305022     -1.117260123
C      -0.459572370     -1.192994173     -1.235904602
H      -2.763671231     -0.352067750     -0.756674610
H      -2.285583227     -2.357521607     -1.026909187
H       0.515660078     -0.212085156     -0.918274933
H      -0.582605344     -1.938036064     -2.087853471
           6
  t=        49.50000    1    1
C      -1.878486176     -1.159868741     -1.133435520
C      -0.470157997     -1.213375211     -1.254621820
H      -2.789673866     -0.405001324     -0.725365415
H      -2.339665117     -2.351250968     -1.014596716
H       0.495273882     -0.178332087     -0.896376868
H      -0.555136005     -1.961549151     -2.083175300
           6
  t=        50.00000    1    1
C      -1.891383879     -1.165759097     -1.148897308
C      -0.481007464     -1.232989854     -1.273294901
H      -2.807042414     -0.461905068     -0.696274875
H      -2.390462096     -2.335792718     -1.005883947
H       0.465446966     -0.155281550     -0.879842415
H      -0.519751696     -1.984817165     -2.076344225
           6
  t=        50.50000    1    1
C      -1.904911902     -1.172100312     -1.163588616
C      -0.492189676     -1.251688620     -1.291777875
H      -2.815458142     -0.521546783     -0.669997251
H      -2.437293551     -2.311756758     -1.001273136
H       0.426834340     -0.143367422     -0.869057155
H      -0.477024423     -2.008329522     -2.068295119
           6
  t=        51.00000    1    1
C      -1.919046257     -1.179007543     -1.177471006
C      -0.503775943     -1.269321581     -1.309948586
H      -2.814818949     -0.582418736     -0.646861561
H      -2.479667750     -2.280132883     -1.001352025
H       0.379989278     -0.142923774     -0.864302556
H      -0.427537470     -2.032684389     -2.059743347
           6
  t=        51.50000    1    1
C      -1.933704114     -1.186596570     -1.190536997
C      -0.515840342     -1.285752334     -1.327712447
H      -2.805299344     -0.642625464     -0.626885727
H      -2.517202540     -2.242344418     -1.006764709
H       0.325365202     -0.154219158     -0.865759354
H      -0.372056185     -2.058331106     -2.051062373
           6
  t=        52.00000    1    1
C      -1.948746987     -1.194968351     -1.202814823
C      -0.528438296     -1.300895111     -1.345014784
H      -2.787413089     -0.700470779     -0.609793311
H      -2.549863757     -2.199746349     -1.018043015
H       0.263377793     -0.177386124     -0.873541097
H      -0.311506371     -2.085297314     -2.042198287
           6
  t=        52.50000    1    1
C      -1.963999874     -1.204182155     -1.214365959
C      -0.541570502     -1.314734744     -1.361845490
H      -2.762253355     -0.753940795     -0.594777200
H      -2.577969552     -2.154365147     -1.035780006
H       0.194504739     -0.212387546     -0.887764592
H      -0.247031409     -2.113082066     -2.032636269
           6
  t=        53.00000    1    1
C      -1.979248776     -1.214261528     -1.225292516
C      -0.555193014     -1.327313733     -1.378223707
H      -2.731364910     -0.800823529     -0.580433543
H      -2.602293827     -2.108854125     -1.060658037
H       0.119477213     -0.258943775     -0.908533392
H      -0.180117345     -2.140736717     -2.021549443
           6
  t=        53.50000    1    1
C      -1.994223077     -1.225193270     -1.235746716
C      -0.569259857     -1.338738022     -1.394188284
H      -2.696568870     -0.838921346     -0.564783758
H      -2.624260526     -2.066342096     -1.093314653
H       0.039518555     -0.316205912     -0.935731749
H      -0.112514892     -2.167073849     -2.008117863
           6
  t=        54.00000    1    1
C      -2.008604712     -1.236911387     -1.245915602
C      -0.583749454     -1.349189340     -1.409793480
H      -2.659610440     -0.866293902     -0.545475603
H      -2.646079414     -2.030267734     -1.134284721
H      -0.043650203     -0.382462624     -0.968843563
H      -0.046037142     -2.190927415     -1.991799699
           6
  t=        54.50000    1    1
C      -2.022020727     -1.249287139     -1.255971683
C      -0.598729583     -1.358951798     -1.425092626
H      -2.621664705     -0.881672216     -0.520360142
H      -2.670512391     -2.003829972     -1.184047672
H      -0.128083429     -0.455015328     -1.006962948
H       0.017670864     -2.211214694     -1.972479347
           6
  t=        55.00000    1    1
C      -2.034105780     -1.262066452     -1.266041396
C      -0.614408561     -1.368616083     -1.440236436
H      -2.583480809     -0.884707365     -0.488989996
H      -2.699699013     -1.989706694     -1.241871059
H      -0.211178212     -0.529124441     -1.047450362
H       0.077023858     -2.226335352     -1.950673699
           6
  t=        55.50000    1    1
C      -2.044846127     -1.275041562     -1.276120464
C      -0.630942846     -1.379044160     -1.455577685
H      -2.545092554     -0.876079742     -0.452990582
H      -2.734404366     -1.988941170     -1.306387914
H      -0.288505029     -0.596941742     -1.085275858
H       0.130091740     -2.234618677     -1.927001682
           6
  t=        56.00000    1    1
C      -2.054512745     -1.288215052     -1.286098289
C      -0.648502603     -1.391153327     -1.471582652
H      -2.505476873     -0.857833164     -0.414615733
H      -2.774275349     -1.999784286     -1.376942573
H      -0.354474701     -0.647831603     -1.114488263
H       0.175165668     -2.235444615     -1.901578129
           6
  t=        56.50000    1    1
C      -2.063466940     -1.301717522     -1.295859183
C      -0.667267668     -1.405843600     -1.488699183
H      -2.463692493     -0.832795973     -0.376657655
H      -2.817622167     -2.018584609     -1.452549648
H      -0.403861128     -0.670537517     -1.129233928
H       0.210836542     -2.228612274     -1.874491968
           6
  t=        57.00000    1    1
C      -2.072068838     -1.315703520     -1.305339597
C      -0.687156721     -1.423421103     -1.507069113
H      -2.419464918     -0.803830463     -0.341979314
H      -2.861829206     -2.041159951     -1.531508144
H      -0.435228582     -0.660604209     -1.126983266
H       0.236100685     -2.214407584     -1.846177987
           6
  t=        57.50000    1    1
C      -2.080632868     -1.330286540     -1.314524586
C      -0.707770680     -1.443297863     -1.526374288
H      -2.373033027     -0.773240246     -0.312964479
H      -2.904263083     -2.063975100     -1.611880295
H      -0.451579570     -0.624125297     -1.110440780
H       0.250557413     -2.193622280     -1.817454791
           6
  t=        58.00000    1    1
C      -2.089394230     -1.345502265     -1.323409412
C      -0.728578179     -1.464363322     -1.546033412
H      -2.325071878     -0.742907542     -0.291489747
H      -2.942934796     -2.084529548     -1.691823823
H      -0.457807980     -0.573538582     -1.085699413
H       0.254257641     -2.167244715     -1.789178094
           6
  t=        58.50000    1    1
C      -2.098493314     -1.361328914     -1.331993527
C      -0.749162219     -1.485637688     -1.565540540
H      -2.276622918     -0.714432095     -0.278981245
H      -2.976415153     -2.101065464     -1.769621840
H      -0.458073120     -0.519781959     -1.058310290
H       0.247676952     -2.136429492     -1.762122751
           6
  t=        59.00000    1    1
C      -2.107998793     -1.377718055     -1.340287219
C      -0.769269911     -1.506462204     -1.584550107
H      -2.229018212     -0.689230677     -0.276379704
H      -3.003682022     -2.112286456     -1.843749972
H      -0.455115126     -0.469793960     -1.032133620
H       0.231670354     -2.102544315     -1.737007223
           6
  t=        59.50000    1    1
C      -2.117922020     -1.394592227     -1.348318296
C      -0.788807318     -1.526446567     -1.602859410
H      -2.183823846     -0.668512915     -0.284055713
H      -3.024115174     -2.117417882     -1.912934452
H      -0.450405625     -0.427081324     -1.009486052
H       0.207671294     -2.067221237     -1.714502073
           6
  t=        60.00000    1    1
C      -2.128228611     -1.411859493     -1.356133202
C      -0.807815019     -1.545347413     -1.620352117
H      -2.142784942     -0.653288438     -0.301986573
H      -3.037325957     -2.116052817     -1.976050987
H      -0.444548241     -0.393302210     -0.991755971
H       0.177713692     -2.032194673     -1.695198629
           6
  t=        60.50000    1    1
C      -2.138855404     -1.429414861     -1.363789859
C      -0.826430890     -1.563012038     -1.636972042
H      -2.107580673     -0.644332354     -0.329889054
H      -3.043190013     -2.108121016     -2.032158548
H      -0.437740367     -0.369117293     -0.979690126
H       0.144439994     -1.999169745     -1.679553742
           6
  t=        61.00000    1    1
C      -2.149725926     -1.447142814     -1.371351410
C      -0.844855549     -1.579355166     -1.652711559
H      -2.079492728     -0.642109876     -0.367255781
H      -3.041985018     -2.093950892     -2.080645479
H      -0.430129880     -0.354464283     -0.973456065
H       0.111036744     -1.969807682     -1.667857355
           6
  t=        61.50000    1    1
C      -2.160782044     -1.464931299     -1.378883044
C      -0.863309159     -1.594316654     -1.667581528
H      -2.059418982     -0.646978519     -0.413676036
H      -3.034175247     -2.074048575     -2.121034855
H      -0.421877181     -0.348927281     -0.972849213
H       0.080957169     -1.945712589     -1.660295517
           6
  t=        62.00000    1    1
C      -2.171990608     -1.482682804     -1.386458033
C      -0.881978654     -1.607870351     -1.681604870
H      -2.047912149     -0.659121449     -0.468732156
H      -3.020339943     -2.049026663     -2.152966709
H      -0.413177567     -0.351828571     -0.977391221
H       0.057360973     -1.928239926     -1.656978015
           6
  t=        62.50000    1    1
C      -2.183336152     -1.500319124     -1.394159157
C      -0.900946138     -1.620044321     -1.694814990
H      -2.045327219     -0.678386650     -0.531772738
H      -3.001179709     -2.019591824     -2.176243045
H      -0.404261533     -0.362381681     -0.986463438
H       0.042328280     -1.918218977     -1.657988448
           6
  t=        63.00000    1    1
C      -2.194805738     -1.517792229     -1.402082788
C      -0.920139301     -1.630926156     -1.707247370
H      -2.051879573     -0.704016573     -0.601580190
H      -2.977617817     -1.986587834     -2.190987515
H      -0.395429528     -0.379880833     -0.999479978
H       0.036282409     -1.915797890     -1.663435529
           6
  t=        63.50000    1    1
C      -2.206374968     -1.535110093     -1.410352317
C      -0.939330412     -1.640639730     -1.718924638
H      -2.067535216     -0.734230034     -0.675950641
H      -2.950976698     -1.951111523     -2.197901880
H      -0.387135229     -0.403820830     -1.016021005
H       0.037961174     -1.920595174     -1.673501305
           6
  t=        64.00000    1    1
C      -2.218005232     -1.552360978     -1.419123551
C      -0.958162745     -1.649314264     -1.729856985
H      -2.091942496     -0.765850327     -0.751431082
H      -2.923130409     -1.914611345     -2.198445632
H      -0.380081290     -0.433888479     -1.035852351
H       0.044878957     -1.932060809     -1.688435466
           6
  t=        64.50000    1    1
C      -2.229642546     -1.569714319     -1.428557884
C      -0.976181749     -1.657064590     -1.740053357
H      -2.124587213     -0.794262224     -0.823483131
H      -2.896648398     -1.878951314     -2.194962399
H      -0.375154716     -0.469924635     -1.058882991
H       0.053918454     -1.949717893     -1.708494066
           6
  t=        65.00000    1    1
C      -2.241189816     -1.587426131     -1.438773359
C      -0.992896680     -1.663983649     -1.749526813
H      -2.164922952     -0.813511733     -0.886889921
H      -2.874867687     -1.846349317     -2.190919142
H      -0.373309558     -0.511933351     -1.085160351
H       0.061819850     -1.973140486     -1.733817438
           6
  t=        65.50000    1    1
C      -2.252497804     -1.605751992     -1.449762346
C      -1.007881382     -1.670139380     -1.758290245
H      -2.212722172     -0.818254900     -0.937865770
H      -2.860837293     -1.818550191     -2.189923352
H      -0.375626518     -0.560133831     -1.114809005
H       0.065629094     -2.001853516     -1.764396480
           6
  t=        66.00000    1    1
C      -2.263417177     -1.624730386     -1.461305875
C      -1.020817717     -1.675575588     -1.766345297
H      -2.267769038     -0.806444307     -0.975686588
H      -2.856928048     -1.796834257     -2.195300414
H      -0.383276096     -0.614909774     -1.147911416
H       0.063101496     -2.035259889     -1.800137039
           6
  t=        66.50000    1    1
C      -2.273870946     -1.644109840     -1.473040160
C      -1.031461093     -1.680306720     -1.773677352
H      -2.329617769     -0.780083887     -1.002270510
H      -2.864965486     -1.782174111     -2.209732749
H      -0.397306998     -0.676705720     -1.184495206
H       0.052833618     -2.072762863     -1.840919838
           6
  t=        67.00000    1    1
C      -2.283935304     -1.663472726     -1.484638986
C      -1.039656580     -1.684364492     -1.780290864
H      -2.397392291     -0.743928923     -1.020739514
H      -2.885719332     -1.775044340     -2.234394121
H      -0.418136523     -0.745414434     -1.224304994
H       0.034198211     -2.113838191     -1.886538538
           6
  t=        67.50000    1    1
C      -2.293874413     -1.682392318     -1.495978033
C      -1.045414931     -1.687844656     -1.786228788
H      -2.469423393     -0.703767814     -1.034276483
H      -2.918122755     -1.775335451     -2.268176809
H      -0.445215853     -0.819699414     -1.266530919
H       0.007186223     -2.158087245     -1.936697339
           6
  t=        68.00000    1    1
C      -2.304042241     -1.700536070     -1.507141428
C      -1.048936086     -1.690921979     -1.791580630
H      -2.543429648     -0.664889800     -1.045495274
H      -2.959673279     -1.782629269     -2.308263992
H      -0.476958515     -0.896828282     -1.309641389
H      -0.027972528     -2.205251402     -1.991061858
           6
  t=        68.50000    1    1
C      -2.314799804     -1.717671384     -1.518344580
C      -1.050585546     -1.693920825     -1.796535216
H      -2.617399445     -0.631303842     -1.056267949
H      -3.006950419     -1.796373465     -2.350854560
H      -0.510482059     -0.972424560     -1.351022197
H      -0.070935670     -2.255157029     -2.049358618
           6
  t=        69.00000    1    1
C      -2.326448997     -1.733644872     -1.529829890
C      -1.050932320     -1.697417205     -1.801453293
H      -2.689833168     -0.605617195     -1.067756951
H      -3.056393097     -1.816003119     -2.392198611
H      -0.540879675     -1.039768850     -1.386400889
H      -0.121293271     -2.307445362     -2.111260610
           6
  t=        69.50000    1    1
C      -2.339202079     -1.748359320     -1.541786955
C      -1.050746949     -1.702231761     -1.806874362
H      -2.759422922     -0.589360372     -1.080566515
H      -3.105072185     -1.841103954     -2.429519689
H      -0.560998693     -1.089874799     -1.409788302
H      -0.178724330     -2.361366394     -2.176241527
           6
  t=        70.00000    1    1
C      -2.353163259     -1.761752623     -1.554340125
C      -1.050831462     -1.709146804     -1.813348666
H      -2.825029864     -0.583514870     -1.095047944
H      -3.150768613     -1.871289935     -2.460984810
H      -0.563607434     -1.114777247     -1.415493253
H      -0.243019978     -2.415708067     -2.243435987
           6
  t=        70.50000    1    1
C      -2.368355720     -1.773775324     -1.567574321
C      -1.051642443     -1.718423433     -1.821106075
H      -2.885582580     -0.588811282     -1.111335042
H      -3.191687069     -1.906147975     -2.485386045
H      -0.546272697     -1.113080115     -1.402006105
H      -0.313763402     -2.469027095     -2.311676828
           6
  t=        71.00000    1    1
C      -2.384770876     -1.784386352     -1.581551229
C      -1.053147369     -1.729726528     -1.829964813
H      -2.940103451     -0.605771485     -1.129374114
H      -3.226344538     -1.945281128     -2.501937423
H      -0.512581431     -1.090525620     -1.372836147
H      -0.390318128     -2.519938910     -2.379725359
           6
  t=        71.50000    1    1
C      -2.402396070     -1.793591856     -1.596295441
C      -1.054994974     -1.742382813     -1.839492315
H      -2.987945889     -0.634492566     -1.149064436
H      -3.253726249     -1.988253539     -2.510278276
H      -0.469335019     -1.056765078     -1.334560998
H      -0.471880520     -2.567080226     -2.446326643
           6
  t=        72.00000    1    1
C      -2.421169016     -1.801446992     -1.611794972
C      -1.056906698     -1.755796481     -1.849296026
H      -3.028688829     -0.674698507     -1.170420908
H      -3.273255584     -2.034516562     -2.510334195
H      -0.422645710     -1.020289102     -1.293219168
H      -0.557397426     -2.609227337     -2.510322038
           6
  t=        72.50000    1    1
C      -2.440972019     -1.808011858     -1.628016160
C      -1.058804649     -1.769579167     -1.859111337
H      -3.061935125     -0.726009641     -1.193461076
H      -3.284615003     -2.083476884     -2.502243607
H      -0.376926565     -0.987002819     -1.253271290
H      -0.645501014     -2.645359593     -2.570649044
           6
  t=        73.00000    1    1
C      -2.461604679     -1.813364012     -1.644912752
C      -1.060785980     -1.783530912     -1.868811128
H      -3.087694214     -0.787667093     -1.217915239
H      -3.287803383     -2.134549577     -2.486502270
H      -0.334920871     -0.960448599     -1.217620154
H      -0.734669946     -2.674736934     -2.626244664
           6
  t=        73.50000    1    1
C      -2.482775878     -1.817609998     -1.662420089
C      -1.063034098     -1.797563322     -1.878366104
H      -3.106543057     -0.858318754     -1.243116286
H      -3.283216041     -2.187195445     -2.464051777
H      -0.298550416     -0.942679473     -1.188116713
H      -0.823293609     -2.696981353     -2.676102983
           6
  t=        74.00000    1    1
C      -2.504159804     -1.820888828     -1.680446366
C      -1.065739505     -1.811624194     -1.887781138
H      -3.119524173     -0.936057871     -1.268122769
H      -3.271587287     -2.240994789     -2.436252526
H      -0.269393790     -0.935169711     -1.166252671
H      -0.909628876     -2.711910649     -2.719349227
           6
  t=        74.50000    1    1
C      -2.525410844     -1.823417701     -1.698885420
C      -1.069075439     -1.825664480     -1.897062509
H      -3.128309216     -1.018002851     -1.291745522
H      -3.254101196     -2.295842500     -2.404848431
H      -0.248464226     -0.938974290     -1.153220004
H      -0.991860775     -2.719452921     -2.755426822
           6
  t=        75.00000    1    1
C      -2.546096702     -1.825515638     -1.717658488
C      -1.073209939     -1.839643659     -1.906217009
H      -3.135659814     -1.099910189     -1.312238895
H      -3.232514054     -2.352074685     -2.371889866
H      -0.236215587     -0.954709931     -1.149883622
H      -1.068166318     -2.719580318     -2.784023746
           6
  t=        75.50000    1    1
C      -2.565681611     -1.827578160     -1.736766722
C      -1.078289158     -1.853527615     -1.915247257
H      -3.145737828     -1.176346756     -1.326949153
H      -3.208904324     -2.410443874     -2.339450453
H      -0.232858271     -0.982739396     -1.156962076
H      -1.136737288     -2.712304298     -2.804956599
           6
  t=        76.00000    1    1
C      -2.583591994     -1.829989454     -1.756320162
C      -1.084422414     -1.867289470     -1.924140999
H      -3.163588984     -1.241740958     -1.332355441
H      -3.185264809     -2.472017129     -2.309285509
H      -0.238492350     -1.023041534     -1.174938244
H      -1.195967051     -2.697892958     -2.818342895
           6
  t=        76.50000    1    1
C      -2.599372009     -1.832988089     -1.776472589
C      -1.091679719     -1.880909884     -1.932869131
H      -3.193552957     -1.292347188     -1.325087353
H      -3.163117965     -2.537786381     -2.282575525
H      -0.253180506     -1.075231421     -1.204105355
H      -1.244528234     -2.676872658     -2.824593659
           6
  t=        77.00000    1    1
C      -2.612876391     -1.836576807     -1.797276783
C      -1.100134664     -1.894392630     -1.941407540
H      -3.237069021     -1.327953519     -1.303685473
H      -3.143243926     -2.608095278     -2.259864896
H      -0.276667844     -1.138416847     -1.244480361
H      -1.281310335     -2.649926225     -2.824265402
           6
  t=        77.50000    1    1
C      -2.624354175     -1.840607618     -1.818568852
C      -1.109926624     -1.907751695     -1.949747374
H      -3.291419904     -1.351767671     -1.269968835
H      -3.125588054     -2.681891522     -2.241028957
H      -0.307799327     -1.210638407     -1.295175154
H      -1.305612153     -2.618454420     -2.818610229
           6
  t=        78.00000    1    1
C      -2.634352319     -1.844949758     -1.839985432
C      -1.121179870     -1.920943594     -1.957864922
H      -3.351174007     -1.368295226     -1.228538244
H      -3.109438745     -2.756789357     -2.225284167
H      -0.344881142     -1.289477804     -1.354470933
H      -1.317272555     -2.584831966     -2.810141929
           6
  t=        78.50000    1    1
C      -2.643409950     -1.849588689     -1.861145551
C      -1.134002826     -1.933911471     -1.965742582
H      -3.410997583     -1.381174222     -1.184422891
H      -3.093929498     -2.830106304     -2.211760770
H      -0.385720793     -1.372322906     -1.420018646
H      -1.316968280     -2.551566175     -2.801799394
           6
  t=        79.00000    1    1
C      -2.651938225     -1.854607135     -1.881747388
C      -1.148565624     -1.946686842     -1.973431609
H      -3.466779807     -1.392974240     -1.141893048
H      -3.078438623     -2.899234141     -2.199823858
H      -0.426533356     -1.455516799     -1.488318485
H      -1.306290326     -2.520991339     -2.796432732
           6
  t=        79.50000    1    1
C      -2.660199491     -1.860123468     -1.901591670
C      -1.165257491     -1.959454932     -1.981109868
H      -3.515866426     -1.405199075     -1.103808887
H      -3.062594114     -2.962023109     -2.189214449
H      -0.460573424     -1.533591076     -1.553948558
H      -1.287246385     -2.495604266     -2.797117740
           6
  t=        80.00000    1    1
C      -2.668354334     -1.866266259     -1.920525380
C      -1.184797905     -1.972510650     -1.989043180
H      -3.556364158     -1.418686648     -1.072130433
H      -3.046319831     -3.016743533     -2.180051925
H      -0.477646561     -1.599841105     -1.610192991
H      -1.261513798     -2.477955302     -2.807146748
           6
  t=        80.50000    1    1
C      -2.676510899     -1.873170758     -1.938444042
C      -1.207832170     -1.986026173     -1.997389452
H      -3.587071870     -1.433744807     -1.048085947
H      -3.029595076     -3.062060403     -2.172689662
H      -0.468736565     -1.649864667     -1.652464317
H      -1.230352729     -2.469810621     -2.828888922
           6
  t=        81.00000    1    1
C      -2.684763136     -1.880944879     -1.955312567
C      -1.234326793     -1.999918863     -2.006088528
H      -3.607639314     -1.450297643     -1.032087718
H      -3.012364330     -3.097069322     -2.167410957
H      -0.432701762     -1.684185723     -1.680976474
H      -1.194590216     -2.471325393     -2.862569629
           6
  t=        81.50000    1    1
C      -2.693180664     -1.889653140     -1.971117217
C      -1.263480732     -2.013971635     -2.015008427
H      -3.618142997     -1.468249230     -1.024259545
H      -2.994826976     -3.121217942     -2.164403110
H      -0.377139063     -1.706618238     -1.699348789
H      -1.155068872     -2.481151857     -2.905994813
           6
  t=        82.00000    1    1
C      -2.701823771     -1.899324289     -1.985841758
C      -1.294123133     -2.027996400     -2.024135033
H      -3.618774868     -1.487604494     -1.024746416
H      -2.977462499     -3.134303298     -2.163774986
H      -0.313378424     -1.721506777     -1.711686289
H      -1.113020470     -2.497042145     -2.955167204
           6
  t=        82.50000    1    1
C      -2.710760357     -1.909951613     -1.999471608
C      -1.325195076     -2.041902520     -2.033616528
H      -3.609764910     -1.508408988     -1.033662789
H      -2.960859551     -3.136583884     -2.165601253
H      -0.250785157     -1.732031693     -1.720692755
H      -1.070069698     -2.516671855     -3.005601982
           6
  t=        83.00000    1    1
C      -2.720079356     -1.921513128     -2.011995973
C      -1.355888489     -2.055667578     -2.043653921
H      -3.591299463     -1.530685205     -1.051108841
H      -2.945610983     -3.128586459     -2.169991347
H      -0.195273778     -1.740048889     -1.727722347
H      -1.028091883     -2.538164902     -3.053468827
           6
  t=        83.50000    1    1
C      -2.729864503     -1.933959035     -2.023426775
C      -1.385608093     -2.069299274     -2.054401356
H      -3.563690714     -1.554347076     -1.076989947
H      -2.932316388     -3.111242740     -2.177098884
H      -0.150206406     -1.746548506     -1.733417859
H      -0.988908502     -2.560187154     -3.096087185
           6
  t=        84.00000    1    1
C      -2.740176099     -1.947201160     -2.033789256
C      -1.413908565     -2.082806202     -2.065955159
H      -3.527503970     -1.579149457     -1.110934191
H      -2.921629042     -3.086044892     -2.187167288
H      -0.117489972     -1.752108735     -1.738141817
H      -0.953981851     -2.581861618     -3.131774420
           6
  t=        84.50000    1    1
C      -2.751032590     -1.961107160     -2.043122324
C      -1.440459806     -2.096192981     -2.078365589
H      -3.483810541     -1.604634961     -1.152136770
H      -2.914308307     -3.055140750     -2.200552350
H      -0.098041965     -1.757077405     -1.742155464
H      -0.924277322     -2.602671959     -3.159655839
           6
  t=        85.00000    1    1
C      -2.762393952     -1.975499574     -2.051490120
C      -1.465010427     -2.109462483     -2.091658293
H      -3.434348888     -1.630061883     -1.199187790
H      -2.911360625     -3.021494675     -2.217769020
H      -0.091951401     -1.761568199     -1.745562352
H      -0.900433392     -2.622362155     -3.179452943
           6
  t=        85.50000    1    1
C      -2.774134577     -1.990139468     -2.059021067
C      -1.487324386     -2.122604871     -2.105846941
H      -3.381816602     -1.654047357     -1.249494318
H      -2.914234484     -2.989610502     -2.239708744
H      -0.098845173     -1.765547206     -1.748288518
H      -0.882986369     -2.640809460     -3.191248051
           6
  t=        86.00000    1    1
C      -2.786002302     -2.004772557     -2.065990320
C      -1.507160384     -2.135605850     -2.120940351
H      -3.330326962     -1.674312449     -1.298389825
H      -2.924629705     -2.965088715     -2.267591562
H      -0.118277205     -1.768953419     -1.750178194
H      -0.872449173     -2.657953625     -3.195259693
           6
  t=        86.50000    1    1
C      -2.797655577     -2.019253323     -2.072837209
C      -1.524299488     -2.148461516     -2.136950404
H      -3.284730730     -1.688127125     -1.339509442
H      -2.944010145     -2.952477460     -2.302431369
H      -0.150046464     -1.771784558     -1.751061154
H      -0.869386739     -2.673759284     -3.191632573
           6
  t=        87.00000    1    1
C      -2.808734931     -2.033655687     -2.080112979
C      -1.538598487     -2.161164794     -2.153865958
H      -3.249363620     -1.692455435     -1.365778409
H      -2.973254330     -2.953933679     -2.344870129
H      -0.194342009     -1.774142558     -1.750879437
H      -0.874385587     -2.688206990     -3.180421767
           6
  t=        87.50000    1    1
C      -2.818997912     -2.048261304     -2.088290176
C      -1.549986559     -2.173707360     -2.171645896
H      -3.226805894     -1.684655387     -1.371716686
H      -3.012500780     -2.968640330     -2.394976124
H      -0.251703716     -1.776223446     -1.749809766
H      -0.887919918     -2.701302822     -3.161721559
           6
  t=        88.00000    1    1
C      -2.828467965     -2.063392291     -2.097510681
C      -1.558452183     -2.186094014     -2.190235304
H      -3.216994563     -1.663908724     -1.356297279
H      -3.061015991     -2.993178311     -2.452030376
H      -0.322642842     -1.778247693     -1.748229405
H      -0.910132875     -2.713168243     -3.135864340
           6
  t=        88.50000    1    1
C      -2.837451257     -2.079230216     -2.107526354
C      -1.564065230     -2.198339514     -2.209555716
H      -3.217428429     -1.632233429     -1.323945316
H      -3.117276253     -3.022703844     -2.514211664
H      -0.407125394     -1.780518300     -1.746558288
H      -0.940602622     -2.723986689     -3.103718050
           6
  t=        89.00000    1    1
C      -2.846377799     -2.095782838     -2.117898171
C      -1.567018119     -2.210431166     -2.229457756
H      -3.224385964     -1.594176708     -1.282484117
H      -3.179486214     -3.051997927     -2.578742325
H      -0.504318936     -1.783196186     -1.745068411
H      -0.978261813     -2.734327830     -3.066976189
           6
  t=        89.50000    1    1
C      -2.855582462     -2.112960950     -2.128250935
C      -1.567694321     -2.222319038     -2.249700099
H      -3.234495728     -1.554472840     -1.239114330
H      -3.246053725     -3.077149289     -2.643317438
H      -0.612244733     -1.785866145     -1.743871178
H      -1.021493219     -2.745441812     -3.027977909
           6
  t=        90.00000    1    1
C      -2.865301122     -2.130685415     -2.138361720
C      -1.566687798     -2.233941829     -2.270003147
H      -3.245456719     -1.516828948     -1.198988237
H      -3.315303988     -3.095244504     -2.706051638
H      -0.727373339     -1.787307222     -1.742427331
H      -1.067914033     -2.759429299     -2.989983474
           6
  t=        90.50000    1    1
C      -2.875616539     -2.148914843     -2.148123102
C      -1.564888819     -2.245198178     -2.290071309
H      -3.255980259     -1.483832929     -1.165699254
H      -3.385524311     -3.104146242     -2.765125681
H      -0.844811870     -1.785757938     -1.739262825
H      -1.113824178     -2.779302186     -2.957494924
           6
  t=        91.00000    1    1
C      -2.886484119     -2.167608615     -2.157507844
C      -1.563384672     -2.255980349     -2.309681467
H      -3.265521521     -1.457258016     -1.141768771
H      -3.455248767     -3.102627691     -2.818812035
H      -0.958569113     -1.778772395     -1.731524284
H      -1.154801254     -2.808727689     -2.935554961
           6
  t=        91.50000    1    1
C      -2.897822537     -2.186722781     -2.166525088
C      -1.563138958     -2.266233656     -2.328779289
H      -3.273994327     -1.438488938     -1.129132616
H      -3.523222844     -3.089893137     -2.865514066
H      -1.063156575     -1.763048098     -1.715037272
H      -1.187161518     -2.851594602     -2.928537262
           6
  t=        92.00000    1    1
C      -2.909564443     -2.206204002     -2.175158700
C      -1.564584664     -2.276003905     -2.347503951
H      -3.281670990     -1.428401760     -1.129212457
H      -3.588443829     -3.065713273     -2.904247817
H      -1.156173407     -1.736264618     -1.686732164
H      -1.209679403     -2.909666359     -2.937607652
           6
  t=        92.50000    1    1
C      -2.921705326     -2.225970170     -2.183400371
C      -1.567623274     -2.285396475     -2.366018451
H      -3.288968270     -1.427432553     -1.142818827
H      -3.649955941     -3.030604827     -2.934593880
H      -1.238130009     -1.699773502     -1.647724262
H      -1.223611172     -2.980361339     -2.959416456
           6
  t=        93.00000    1    1
C      -2.934288743     -2.245888368     -2.191344606
C      -1.572006412     -2.294493170     -2.384328633
H      -3.295716364     -1.435641920     -1.169739155
H      -3.706720771     -2.985890251     -2.956362273
H      -1.310765719     -1.658183831     -1.602719378
H      -1.230866243     -3.058296435     -2.988464673
           6
  t=        93.50000    1    1
C      -2.947329618     -2.265799356     -2.199181860
C      -1.577516532     -2.303316793     -2.402264114
H      -3.301427860     -1.452767473     -1.208998254
H      -3.757918726     -2.933466724     -2.969422326
H      -1.375782087     -1.616591435     -1.556989867
H      -1.233464464     -3.138366777     -3.020346664
           6
  t=        94.00000    1    1
C      -2.960890972     -2.285553565     -2.207177480
C      -1.584023223     -2.311877127     -2.419565883
H      -3.306304616     -1.478291556     -1.259017546
H      -3.803045606     -2.875499471     -2.973703632
H      -1.432630887     -1.579641756     -1.515578705
H      -1.233059393     -3.215944998     -3.051592943
           6
  t=        94.50000    1    1
C      -2.974946008     -2.305075511     -2.215432732
C      -1.591485534     -2.320299631     -2.436118292
H      -3.310596976     -1.511906613     -1.318702419
H      -3.841760442     -2.813126247     -2.969726062
H      -1.480864969     -1.549878245     -1.482133069
H      -1.230996066     -3.287061947     -3.079302399
           6
  t=        95.00000    1    1
C      -2.989346317     -2.324317662     -2.223990731
C      -1.599915106     -2.328746213     -2.451940961
H      -3.314463149     -1.552488889     -1.386510136
H      -3.873989019     -2.747592696     -2.958438824
H      -1.521038630     -1.528611852     -1.458303496
H      -1.228265891     -3.348921925     -3.101670550
           6
  t=        95.50000    1    1
C      -3.003942116     -2.343267304     -2.232938196
C      -1.609332148     -2.337338072     -2.467064790
H      -3.318521857     -1.598099230     -1.460028940
H      -3.899845277     -2.680449958     -2.941039586
H      -1.553333960     -1.516564954     -1.444783179
H      -1.225498047     -3.399897905     -3.117816747
           6
  t=        96.00000    1    1
C      -3.018577291     -2.361987174     -2.242427647
C      -1.619749949     -2.346159532     -2.481509641
H      -3.323761848     -1.646012103     -1.536054274
H      -3.919719933     -2.613238227     -2.918820399
H      -1.577707470     -1.514011522     -1.441760035
H      -1.223058446     -3.439148919     -3.127411549
           6
  t=        96.50000    1    1
C      -3.033032252     -2.380663392     -2.252718421
C      -1.631190166     -2.355277067     -2.495285285
H      -3.331396824     -1.692009068     -1.609975132
H      -3.934556070     -2.547630740     -2.893414817
H      -1.594182625     -1.520770754     -1.448937622
H      -1.221125318     -3.466391138     -3.130522239
           6
  t=        97.00000    1    1
C      -3.047022966     -2.399607597     -2.264140381
C      -1.643664086     -2.364738247     -2.508385227
H      -3.342727291     -1.730149920     -1.675611902
H      -3.946082995     -2.485617344     -2.867280175
H      -1.602858743     -1.536479071     -1.465901340
H      -1.219819500     -3.481658285     -3.127432533
           6
  t=        97.50000    1    1
C      -3.060248207     -2.419195694     -2.277001614
C      -1.657164599     -2.374563474     -2.520776237
H      -3.359107080     -1.754014441     -1.726732094
H      -3.956369706     -2.429022540     -2.843173199
H      -1.603806050     -1.560826793     -1.492442996
H      -1.219321972     -3.485133486     -3.118551323
           6
  t=        98.00000    1    1
C      -3.072477402     -2.439684485     -2.291440432
C      -1.671663583     -2.384773173     -2.532425399
H      -3.381359866     -1.759066504     -1.759204265
H      -3.967596006     -2.379295910     -2.823764775
H      -1.596857038     -1.593410712     -1.528323271
H      -1.219879265     -3.477003167     -3.104322558
           6
  t=        98.50000    1    1
C      -3.083698704     -2.460971643     -2.307292866
C      -1.687095417     -2.395400930     -2.543316847
H      -3.408676280     -1.745452766     -1.773058943
H      -3.981623915     -2.337444038     -2.811109623
H      -1.581673191     -1.633654583     -1.573077417
H      -1.221700341     -3.457509421     -3.085268650
           6
  t=        99.00000    1    1
C      -3.094145785     -2.482586173     -2.324173183
C      -1.703356349     -2.406493452     -2.553461712
H      -3.438558054     -1.717849428     -1.771757957
H      -3.999481891     -2.304154288     -2.806307844
H      -1.558077718     -1.680797776     -1.625975520
H      -1.224883729     -3.427104973     -3.062021188
           6
  t=        99.50000    1    1
C      -3.104184423     -2.503908574     -2.341679500
C      -1.720336285     -2.418108613     -2.562902019
H      -3.467883532     -1.682604984     -1.759684034
H      -4.021175067     -2.280016986     -2.809571966
H      -1.526260157     -1.733651851     -1.685837015
H      -1.229309769     -3.386731619     -3.035453443
           6
  t=       100.00000    1    1
C      -3.114190608     -2.524401679     -2.359489021
C      -1.737939389     -2.430303750     -2.571757346
H      -3.494069741     -1.645423298     -1.740781429
H      -4.045734879     -2.265240179     -2.820273989
H      -1.486949887     -1.790038188     -1.750409519
H      -1.234462356     -3.338373565     -3.006923014
           6
  t=       100.50000    1    1
C      -3.124453966     -2.543704022     -2.377369219
C      -1.756151701     -2.443120279     -2.580226911
H      -3.515520475     -1.610351350     -1.718190366
H      -4.071660277     -2.259705566     -2.837319924
H      -1.440912917     -1.846718076     -1.816096784
H      -1.239388037     -3.285154458     -2.978376829
           6
  t=       101.00000    1    1
C      -3.135203904     -2.561554207     -2.395146676
C      -1.775107448     -2.456547682     -2.588527253
H      -3.531277335     -1.580379945     -1.694441581
H      -4.097256241     -2.263205268     -2.859495639
H      -1.388288417     -1.899681715     -1.878423111
H      -1.242268088     -3.231541213     -2.952460161
           6
  t=       101.50000    1    1
C      -3.146566016     -2.577774701     -2.412693091
C      -1.795115382     -2.470452871     -2.596785742
H      -3.541118598     -1.557529577     -1.671524660
H      -4.120935979     -2.275419007     -2.885590627
H      -1.328655428     -1.945114260     -1.933234838
H      -1.240156465     -3.183349701     -2.932558670
           6
  t=       102.00000    1    1
C      -3.158600512     -2.592260103     -2.429907495
C      -1.816481420     -2.484554863     -2.604971228
H      -3.545432536     -1.543033310     -1.650938979
H      -4.141330782     -2.295986052     -2.914496246
H      -1.261944540     -1.981183436     -1.978584094
H      -1.229740371     -3.146143910     -2.921803804
           6
  t=       102.50000    1    1
C      -3.171322038     -2.604982058     -2.446711256
C      -1.839283620     -2.498548721     -2.612926047
H      -3.544878596     -1.537519413     -1.633733222
H      -4.157552835     -2.324460476     -2.945374746
H      -1.189441278     -2.008128887     -2.014968376
H      -1.208858002     -3.123473256     -2.922302752
           6
  t=       103.00000    1    1
C      -3.184711295     -2.615960610     -2.463043823
C      -1.863175981     -2.512281443     -2.620479035
H      -3.540125713     -1.541181301     -1.620569092
H      -4.169258445     -2.360364744     -2.977674453
H      -1.114483552     -2.027410743     -2.044372009
H      -1.178199030     -3.115745982     -2.934722178
           6
  t=       103.50000    1    1
C      -3.198737692     -2.625238425     -2.478848569
C      -1.887445268     -2.525796292     -2.627554912
H      -3.531899002     -1.554017712     -1.611924191
H      -4.176515562     -2.403114883     -3.011004451
H      -1.041594248     -2.040895399     -2.069095625
H      -1.141310666     -3.120657050     -2.958246557
           6
  t=       104.00000    1    1
C      -3.213376907     -2.632852502     -2.494063513
C      -1.911287379     -2.539264444     -2.634200703
H      -3.521040469     -1.576080071     -1.608342720
H      -4.179562586     -2.452032801     -3.044987816
H      -0.974786104     -2.050218386     -2.090889294
H      -1.102971017     -3.134717065     -2.991136731
           6
  t=       104.50000    1    1
C      -3.228605017     -2.638829804     -2.508618144
C      -1.934019834     -2.552890913     -2.640546011
H      -3.508346599     -1.607428075     -1.610320108
H      -4.178695231     -2.506490852     -3.079417071
H      -0.916867622     -2.056572318     -2.110801691
H      -1.067696632     -3.154537153     -3.031351962
           6
  t=       105.00000    1    1
C      -3.244377939     -2.643206262     -2.522437325
C      -1.955130776     -2.566852564     -2.646758850
H      -3.494463636     -1.647946494     -1.618098217
H      -4.174301500     -2.565963786     -3.114388268
H      -0.869743628     -2.060762977     -2.129377157
H      -1.039172835     -3.177416457     -3.076903310
           6
  t=       105.50000    1    1
C      -3.260610469     -2.646054291     -2.535460112
C      -1.974281109     -2.581272270     -2.653015176
H      -3.479958158     -1.697189852     -1.631739229
H      -4.166900561     -2.629974150     -3.150095897
H      -0.834610476     -2.063452250     -2.146806862
H      -1.020173372     -3.201288997     -3.125972477
           6
  t=       106.00000    1    1
C      -3.277187008     -2.647465754     -2.547646889
C      -1.991273456     -2.596214979     -2.659468112
H      -3.465412932     -1.754552789     -1.651259654
H      -4.157047039     -2.698080926     -3.186653944
H      -0.812222128     -2.065231049     -2.163121193
H      -1.012536204     -3.224741745     -3.177046057
           6
  t=       106.50000    1    1
C      -3.293976330     -2.647563636     -2.558999692
C      -2.006037374     -2.611690530     -2.666234258
H      -3.451458683     -1.819226267     -1.676645566
H      -4.145213993     -2.769823942     -3.223899683
H      -0.802943634     -2.066685611     -2.178254567
H      -1.017195496     -3.246874976     -3.228952682
           6
  t=       107.00000    1    1
C      -3.310850065     -2.646534167     -2.569604647
C      -2.018575194     -2.627679525     -2.673403846
H      -3.438986803     -1.889814202     -1.707319498
H      -4.131672974     -2.844625965     -3.261306327
H      -0.806848701     -2.068355990     -2.192140037
H      -1.034416454     -3.267134048     -3.280762112
           6
  t=       107.50000    1    1
C      -3.327694039     -2.644649044     -2.579669656
C      -2.028892151     -2.644158615     -2.681058610
H      -3.429409832     -1.963938361     -1.741478833
H      -4.116412936     -2.921755419     -3.297985990
H      -0.823931562     -2.070753219     -2.204773701
H      -1.064101432     -3.285158494     -3.331717542
           6
  t=       108.00000    1    1
C      -3.344412045     -2.642308765     -2.589573351
C      -2.036992171     -2.661091341     -2.689274484
H      -3.424618242     -2.037980251     -1.775408994
H      -4.099191431     -3.000193965     -3.332782860
H      -0.854068352     -2.074432485     -2.216360671
H      -1.105825846     -3.300692190     -3.381067799
           6
  t=       108.50000    1    1
C      -3.360911651     -2.640035590     -2.599882723
C      -2.042874820     -2.678423981     -2.698118099
H      -3.426582063     -2.107219641     -1.803318751
H      -4.079684948     -3.078718512     -3.364397613
H      -0.897188685     -2.080100762     -2.227238600
H      -1.159120164     -3.313388543     -3.428015754
           6
  t=       109.00000    1    1
C      -3.377095767     -2.638400787     -2.611298575
C      -2.046580184     -2.696087309     -2.707645746
H      -3.436992506     -2.166746199     -1.818057632
H      -4.057664254     -3.155945344     -3.391465008
H      -0.953047818     -2.088521436     -2.237725423
H      -1.223446356     -3.322796034     -3.471737884
           6
  t=       109.50000    1    1
C      -3.392847321     -2.637867449     -2.624469519
C      -2.048225682     -2.714009011     -2.717910808
H      -3.457158907     -2.213101909     -1.813112917
H      -4.033068036     -3.230440834     -3.412687468
H      -1.021105008     -2.100267355     -2.247936814
H      -1.298093007     -3.328577088     -3.511564090
           6
  t=       110.00000    1    1
C      -3.408014853     -2.638595304     -2.639622387
C      -2.048108569     -2.732106314     -2.728932592
H      -3.487523574     -2.246326956     -1.786811849
H      -4.006028195     -3.300988856     -3.427130054
H      -1.100301409     -2.115650835     -2.257766287
H      -1.381807527     -3.330678327     -3.547275614
           6
  t=       110.50000    1    1
C      -3.422470693     -2.640461821     -2.656421391
C      -2.046678553     -2.750295291     -2.740700980
H      -3.527595423     -2.269570679     -1.743743185
H      -3.976832092     -3.366673976     -3.434362270
H      -1.188834805     -2.134634791     -2.266930414
H      -1.472758556     -3.329363046     -3.579119330
           6
  t=       111.00000    1    1
C      -3.436189526     -2.643270464     -2.674241338
C      -2.044489883     -2.768534866     -2.753204674
H      -3.576128980     -2.286729832     -1.691667475
H      -3.945954647     -3.426732063     -3.434259362
H      -1.283569675     -2.156419606     -2.274734137
H      -1.568549545     -3.325129519     -3.607738736
           6
  t=       111.50000    1    1
C      -3.449176776     -2.646890401     -2.692476999
C      -2.042294797     -2.786846149     -2.766410297
H      -3.631062975     -2.301150068     -1.638404100
H      -3.913994759     -3.480338088     -3.426766621
H      -1.379858744     -2.178940137     -2.279814638
H      -1.666262091     -3.318829700     -3.634341396
           6
  t=       112.00000    1    1
C      -3.461418461     -2.651275687     -2.710624949
C      -2.040971178     -2.805342839     -2.780307999
H      -3.690292144     -2.315279655     -1.590324367
H      -3.881687643     -3.526602510     -3.412044549
H      -1.471914731     -2.198576450     -2.279954738
H      -1.762759572     -3.311717452     -3.660728694
           6
  t=       112.50000    1    1
C      -3.472826151     -2.656461143     -2.728289761
C      -2.041385473     -2.824178126     -2.794940077
H      -3.752204631     -2.330496277     -1.551664098
H      -3.850341057     -3.564933622     -3.390783097
H      -1.553999655     -2.210974434     -2.272435513
H      -1.854813469     -3.305120639     -3.688901554
           6
  t=       113.00000    1    1
C      -3.483213859     -2.662529251     -2.745176569
C      -2.044211223     -2.843395044     -2.810365321
H      -3.815618316     -2.347335215     -1.524627515
H      -3.821810744     -3.595439545     -3.364400905
H      -1.622202075     -2.212755263     -2.254929234
H      -1.939852057     -3.300279056     -3.720377867
           6
  t=       113.50000    1    1
C      -3.492446274     -2.669564123     -2.761095055
C      -2.049735677     -2.862799753     -2.826508684
H      -3.879438694     -2.365881734     -1.510289521
H      -3.797862618     -3.618837581     -3.334492250
H      -1.675499119     -2.203758589     -2.227310654
H      -2.016416356     -3.297857987     -3.755775679
           6
  t=       114.00000    1    1
C      -3.500534441     -2.677579346     -2.775966359
C      -2.057855588     -2.882000315     -2.843053272
H      -3.942420198     -2.386040670     -1.508971070
H      -3.779670065     -3.636489782     -3.302571032
H      -1.715318015     -2.187258873     -2.192444784
H      -2.084249975     -3.297824388     -3.795110828
           6
  t=       114.50000    1    1
C      -3.507532036     -2.686581679     -2.789745361
C      -2.068368083     -2.900556402     -2.859617413
H      -4.003495518     -2.407569507     -1.520842657
H      -3.767961431     -3.649752807     -3.269886805
H      -1.743556587     -2.167954703     -2.154735744
H      -2.143571834     -3.299531786     -3.837644640
           6
  t=       115.00000    1    1
C      -3.513589269     -2.696512683     -2.802416577
C      -2.080998828     -2.918177515     -2.875901717
H      -4.061558819     -2.430162551     -1.545717595
H      -3.762850728     -3.660011882     -3.237411063
H      -1.762246387     -2.149726689     -2.118057737
H      -2.194821222     -3.302177865     -3.882470051
           6
  t=       115.50000    1    1
C      -3.518844743     -2.707303564     -2.813945133
C      -2.095535344     -2.934679956     -2.891740016
H      -4.115569169     -2.453460209     -1.583336307
H      -3.764530910     -3.668628738     -3.206038947
H      -1.773015637     -2.135223324     -2.085177982
H      -2.238098176     -3.305120630     -3.928579812
           6
  t=       116.00000    1    1
C      -3.523440731     -2.718875435     -2.824269544
C      -2.111789720     -2.949951017     -2.907065161
H      -4.164517001     -2.477052540     -1.633346764
H      -3.773391565     -3.677029041     -3.176786525
H      -1.777279741     -2.126280273     -2.058284824
H      -2.273151075     -3.307791673     -3.974654320
           6
  t=       116.50000    1    1
C      -3.527526858     -2.731151564     -2.833332678
C      -2.129579351     -2.963927855     -2.921875429
H      -4.207519125     -2.500406809     -1.695113965
H      -3.789768760     -3.686625791     -3.150751848
H      -1.776304101     -2.124169661     -2.039134359
H      -2.299654625     -3.309701694     -4.019175717
           6
  t=       117.00000    1    1
C      -3.531269242     -2.744081084     -2.841107071
C      -2.148728125     -2.976581573     -2.936195328
H      -4.243820883     -2.522819833     -1.767653169
H      -3.813699235     -3.698600797     -3.129028369
H      -1.771145846     -2.129685127     -2.029028216
H      -2.317388721     -3.310528931     -4.060768889
           6
  t=       117.50000    1    1
C      -3.534866325     -2.757655926     -2.847617924
C      -2.169045822     -2.987909963     -2.950057972
H      -4.272804861     -2.543473756     -1.849623467
H      -3.844816601     -3.713618898     -3.112534048
H      -1.762688843     -2.143226856     -2.028810052
H      -2.326355291     -3.310148622     -4.098318254
           6
  t=       118.00000    1    1
C      -3.538554922     -2.771925607     -2.852960549
C      -2.190309665     -2.997931247     -2.963507935
H      -4.294087404     -2.561508370     -1.939250308
H      -3.882369542     -3.731572791     -3.101903576
H      -1.751684216     -2.164888454     -2.038918466
H      -2.326770937     -3.308627532     -4.130858268
           6
  t=       118.50000    1    1
C      -3.542585797     -2.786985676     -2.857326167
C      -2.212247772     -3.006691578     -2.976608815
H      -4.307942464     -2.576015613     -2.033964178
H      -3.925081845     -3.751577259     -3.097521777
H      -1.738866102     -2.194536668     -2.059488387
H      -2.319155402     -3.306203730     -4.157402307
           6
  t=       119.00000    1    1
C      -3.547160053     -2.802971340     -2.860998472
C      -2.234556252     -3.014254836     -2.989434525
H      -4.315708017     -2.585948661     -2.130283061
H      -3.971322911     -3.772238713     -3.099619686
H      -1.725005803     -2.231910686     -2.090558467
H      -2.304254803     -3.303206173     -4.176901613
           6
  t=       119.50000    1    1
C      -3.552377655     -2.820034800     -2.864329541
C      -2.256919993     -3.020701484     -3.002069353
H      -4.320002346     -2.590070460     -2.224042590
H      -4.019545909     -3.792145292     -3.108206427
H      -1.710840052     -2.276570875     -2.132050954
H      -2.282824573     -3.299951064     -4.188389561
           6
  t=       120.00000    1    1
C      -3.558212253     -2.838330635     -2.867700908
C      -2.279031118     -3.026130416     -3.014610366
H      -4.324774575     -2.586872299     -2.310817723
H      -4.068474698     -3.810174881     -3.123060606
H      -1.696949375     -2.327780626     -2.183552737
H      -2.255593737     -3.296785534     -4.191222867
           6
  t=       120.50000    1    1
C      -3.564548543     -2.857999487     -2.871452294
C      -2.300605605     -3.030669548     -3.027174498
H      -4.334778546     -2.574572460     -2.386696733
H      -4.117017873     -3.825601313     -3.143787429
H      -1.683649614     -2.384369956     -2.244015211
H      -2.223342263     -3.294187426     -4.185315307
           6
  t=       121.00000    1    1
C      -3.571327157     -2.879145260     -2.875782963
C      -2.321393200     -3.034472309     -3.039893413
H      -4.353882760     -2.551521845     -2.449429836
H      -4.164189912     -3.837972711     -3.169910059
H      -1.670885764     -2.444727188     -2.311717452
H      -2.186931539     -3.292803054     -4.171171189
           6
  t=       121.50000    1    1
C      -3.578731362     -2.901779138     -2.880697992
C      -2.341178322     -3.037713737     -3.052901286
H      -4.382982346     -2.517081820     -2.499172885
H      -4.209066742     -3.846951474     -3.200860443
H      -1.658139471     -2.506892987     -2.384431804
H      -2.147293891     -3.293349046     -4.149771074
           6
  t=       122.00000    1    1
C      -3.587215200     -2.925769611     -2.886057599
C      -2.359811463     -3.040589787     -3.066327923
H      -4.419444682     -2.472317589     -2.537957164
H      -4.250744927     -3.852237235     -3.235978359
H      -1.644306359     -2.568565551     -2.459418108
H      -2.105441045     -3.296594466     -4.122602953
           6
  t=       122.50000    1    1
C      -3.597352036     -2.950865950     -2.891681228
C      -2.377238470     -3.043301217     -3.080297983
H      -4.458760168     -2.419740889     -2.568351757
H      -4.288378980     -3.853575377     -3.274521197
H      -1.627606314     -2.627236908     -2.533504343
H      -2.062321413     -3.303385589     -4.091678401
           6
  t=       123.00000    1    1
C      -3.609686799     -2.976756506     -2.897420521
C      -2.393475755     -3.046014168     -3.094907120
H      -4.496260141     -2.362718928     -2.592575037
H      -4.321245743     -3.850688548     -3.315681557
H      -1.605939589     -2.680572916     -2.603544409
H      -2.018737823     -3.314700546     -4.059360576
           6
  t=       123.50000    1    1
C      -3.624621091     -3.003118901     -2.903195208
C      -2.408568464     -3.048822944     -3.110170350
H      -4.528153500     -2.304846572     -2.612207082
H      -4.348732988     -3.843297697     -3.358578950
H      -1.577692967     -2.726816067     -2.666923852
H      -1.975383518     -3.331698698     -4.028341876
           6
  t=       124.00000    1    1
C      -3.642315773     -3.029666198     -2.908995395
C      -2.422542599     -3.051738771     -3.126011373
H      -4.551969118     -2.249235787     -2.628251657
H      -4.370500831     -3.831378204     -3.402331601
H      -1.542832694     -2.765213056     -2.722387406
H      -1.932876665     -3.355331245     -4.000782613
           6
  t=       124.50000    1    1
C      -3.662690734     -3.056168716     -2.914864949
C      -2.435368202     -3.054718135     -3.142300918
H      -4.566552438     -2.198182973     -2.641327343
H      -4.386589924     -3.815240990     -3.446102762
H      -1.503016379     -2.795734204     -2.769622297
H      -1.891985103     -3.386275880     -3.978231410
           6
  t=       125.00000    1    1
C      -3.685499039     -3.082441149     -2.920874194
C      -2.446963859     -3.057711356     -3.158912342
H      -4.571760296     -2.153214189     -2.651811156
H      -4.397375515     -3.795511112     -3.489189158
H      -1.460946118     -2.818702818     -2.808866483
H      -1.853687144     -3.424858176     -3.961447634
           6
  t=       125.50000    1    1
C      -3.710392732     -3.108300918     -2.927093170
C      -2.457235477     -3.060707240     -3.175754387
H      -4.567909567     -2.115435609     -2.659985549
H      -4.403525491     -3.773124512     -3.531128979
H      -1.419688988     -2.834555211     -2.840712878
H      -1.819198270     -3.470908645     -3.950270542
           6
  t=       126.00000    1    1
C      -3.736955803     -3.133544331     -2.933569499
C      -2.466112642     -3.063753539     -3.192776334
H      -4.555428839     -2.085800446     -2.666142631
H      -4.405993680     -3.749277577     -3.571799657
H      -1.382219350     -2.843714165     -2.865925877
H      -1.789957781     -3.523713041     -3.943803124
           6
  t=       126.50000    1    1
C      -3.764745221     -3.157950581     -2.940314075
C      -2.473560855     -3.066948593     -3.209959275
H      -4.534714322     -2.065213699     -2.670601970
H      -4.405944485     -3.725304999     -3.611469309
H      -1.351136323     -2.846525729     -2.885274217
H      -1.767496029     -3.582144905     -3.940784420
           6
  t=       127.00000    1    1
C      -3.793315466     -3.181306460     -2.947299983
C      -2.479592536     -3.070421184     -3.227300661
H      -4.506201983     -2.054464374     -2.673666346
H      -4.404650197     -3.702507673     -3.650792972
H      -1.328504723     -2.843280206     -2.899535906
H      -1.753200618     -3.644830030     -3.939829729
           6
  t=       127.50000    1    1
C      -3.822243156     -3.203424700     -2.954478588
C      -2.484258464     -3.074316790     -3.244797978
H      -4.470467924     -2.054164759     -2.675621343
H      -4.403372436     -3.682003026     -3.690610923
H      -1.315847161     -2.834282636     -2.909462881
H      -1.748151022     -3.710231607     -3.939670689
           6
  t=       128.00000    1    1
C      -3.851146323     -3.224155266     -2.961802110
C      -2.487631907     -3.078789746     -3.262436485
H      -4.428347807     -2.064674130     -2.676725014
H      -4.403211602     -3.664625165     -3.731689016
H      -1.314225210     -2.819912282     -2.915766620
H      -1.753027992     -3.776725741     -3.939316915
           6
  t=       128.50000    1    1
C      -3.879707106     -3.243397555     -2.969241902
C      -2.489797491     -3.083993857     -3.280185176
H      -4.381043524     -2.085989094     -2.677186953
H      -4.404923307     -3.650860497     -3.774471525
H      -1.324262717     -2.800681721     -2.919150641
H      -1.768029324     -3.842682912     -3.938121833
           6
  t=       129.00000    1    1
C      -3.907678477     -3.261100765     -2.976807154
C      -2.490850699     -3.090081326     -3.298002670
H      -4.330119736     -2.117726510     -2.677082932
H      -4.408768425     -3.640825846     -3.818919670
H      -1.346190601     -2.777205645     -2.920365803
H      -1.792904313     -3.906546496     -3.935681131
           6
  t=       129.50000    1    1
C      -3.934864311     -3.277255291     -2.984556691
C      -2.490907291     -3.097208996     -3.315850965
H      -4.277391358     -2.159145097     -2.676280881
H      -4.414518303     -3.634364383     -3.864462242
H      -1.379911802     -2.750137123     -2.920168177
H      -1.827121377     -3.966807077     -3.931693958
           6
  t=       130.00000    1    1
C      -3.961072303     -3.291898298     -2.992600426
C      -2.490146865     -3.105537482     -3.333704814
H      -4.224786466     -2.209027499     -2.674433484
H      -4.421625620     -3.631193471     -3.910060929
H      -1.424900011     -2.720096430     -2.919140144
H      -1.869977477     -4.021987701     -3.925954655
           6
  t=       130.50000    1    1
C      -3.986046810     -3.305127105     -3.001088895
C      -2.488894165     -3.115230791     -3.351538372
H      -4.174145991     -2.265463400     -2.671014805
H      -4.429484806     -3.631037732     -3.954509835
H      -1.479989862     -2.687526495     -2.917541746
H      -1.920579231     -4.070717266     -3.918449269
           6
  t=       131.00000    1    1
C      -4.009363910     -3.317072075     -3.010223175
C      -2.487699183     -3.126525439     -3.369254894
H      -4.127327004     -2.325760907     -2.665386178
H      -4.437798967     -3.633562920     -3.996682822
H      -1.543526893     -2.652677354     -2.915693246
H      -1.977518722     -4.111400240     -3.909379124
           6
  t=       131.50000    1    1
C      -4.030464163     -3.328003640     -3.020299387
C      -2.487275151     -3.139705208     -3.386657248
H      -4.087221094     -2.385454713     -2.656277899
H      -4.446901263     -3.637831395     -4.035366499
H      -1.613058192     -2.615727986     -2.914487087
H      -2.038191565     -4.142656779     -3.899155383
           6
  t=       132.00000    1    1
C      -4.048936748     -3.338367115     -3.031666892
C      -2.488173402     -3.154899477     -3.403608100
H      -4.056976104     -2.438787512     -2.641345383
H      -4.457520520     -3.642770171     -4.069261899
H      -1.685840446     -2.576960653     -2.914642002
H      -2.099790127     -4.164187033     -3.888176399
           6
  t=       132.50000    1    1
C      -4.064638114     -3.348613751     -3.044619194
C      -2.490714113     -3.172001019     -3.420071235
H      -4.038274587     -2.480984742     -2.618063278
H      -4.470303138     -3.647707434     -4.097313331
H      -1.759656989     -2.536949787     -2.916340371
H      -2.160097474     -4.176763652     -3.876775069
           6
  t=       133.00000    1    1
C      -4.077632120     -3.359046656     -3.059308327
C      -2.495052588     -3.190742724     -3.436041908
H      -4.031183674     -2.509776750     -2.584943098
H      -4.485540774     -3.652176487     -4.118800431
H      -1.833208897     -2.496416798     -2.919510978
H      -2.217442288     -4.181972675     -3.865476413
           6
  t=       133.50000    1    1
C      -4.087972607     -3.369643463     -3.075722887
C      -2.501336276     -3.210807876     -3.451448457
H      -4.035400622     -2.526503636     -2.542210128
H      -4.503468938     -3.655882121     -4.133376963
H      -1.905825712     -2.456170414     -2.924366988
H      -2.270163743     -4.182000866     -3.855178011
           6
  t=       134.00000    1    1
C      -4.095675872     -3.380135014     -3.093690901
C      -2.509718491     -3.231800050     -3.466140365
H      -4.050621450     -2.535270757     -2.491890676
H      -4.524349833     -3.658665011     -4.141017996
H      -1.977166939     -2.417264069     -2.931527085
H      -2.316623097     -4.179779638     -3.847102471
           6
  t=       134.50000    1    1
C      -4.100753002     -3.390178569     -3.112941716
C      -2.520353032     -3.253222343     -3.479917646
H      -4.076397897     -2.541047471     -2.437096735
H      -4.548454860     -3.660522464     -4.141953783
H      -2.046917229     -2.381063315     -2.941857803
H      -2.355347826     -4.178981677     -3.842649004
           6
  t=       135.00000    1    1
C      -4.103281844     -3.399498993     -3.133177589
C      -2.533361305     -3.274506227     -3.492579257
H      -4.111750330     -2.548144124     -2.381237725
H      -4.575898527     -3.661689038     -4.136546028
H      -2.114571767     -2.349161165     -2.956154250
H      -2.385333632     -4.183521872     -3.843194741
           6
  t=       135.50000    1    1
C      -4.103464555     -3.407926621     -3.154109757
C      -2.548777472     -3.295109976     -3.503986685
H      -4.155177929     -2.559660119     -2.327499098
H      -4.606477843     -3.662705104     -4.125168635
H      -2.179377578     -2.323183678     -2.974862579
H      -2.406221397     -4.196611110     -3.849825475
           6
  t=       136.00000    1    1
C      -4.101640562     -3.415378241     -3.175433190
C      -2.566503403     -3.314660966     -3.514109911
H      -4.204838775     -2.577534089     -2.278717262
H      -4.639706646     -3.664327293     -4.108411363
H      -2.240525996     -2.304461766     -2.998005159
H      -2.418272657     -4.219654788     -3.863084985
           6
  t=       136.50000    1    1
C      -4.098130558     -3.421810120     -3.196847123
C      -2.586421075     -3.333042628     -3.522992876
H      -4.258989810     -2.602785431     -2.237240446
H      -4.675316597     -3.667324979     -4.087182581
H      -2.297266795     -2.293882022     -3.025414293
H      -2.421834092     -4.251887688     -3.882944609
           6
  t=       137.00000    1    1
C      -4.093207113     -3.427233182     -3.218088434
C      -2.608385052     -3.350366376     -3.530754756
H      -4.316013912     -2.635496720     -2.204704597
H      -4.713350035     -3.672372304     -4.062607566
H      -2.349102085     -2.291912513     -3.056730582
H      -2.417463479     -4.290627246     -3.908717750
           6
  t=       137.50000    1    1
C      -4.087142113     -3.431701028     -3.238952477
C      -2.632193785     -3.366868498     -3.537570636
H      -4.374369346     -2.675198965     -2.182102298
H      -4.753889766     -3.680075400     -4.035742355
H      -2.395680081     -2.298673518     -3.091467010
H      -2.406133419     -4.332161838     -3.939195015
           6
  t=       138.00000    1    1
C      -4.080232814     -3.435304094     -3.259295481
C      -2.657585666     -3.382831963     -3.543648742
H      -4.432542114     -2.721086169     -2.169963277
H      -4.796820203     -3.690945427     -4.007398660
H      -2.436772848     -2.313905754     -3.128983403
H      -2.389276659     -4.372596197     -3.972907130
           6
  t=       138.50000    1    1
C      -4.072810189     -3.438161945     -3.279034295
C      -2.684261306     -3.398541011     -3.549208577
H      -4.489094231     -2.772213580     -2.168533465
H      -4.841665523     -3.705340234     -3.978001945
H      -2.472148329     -2.336919907     -3.168514275
H      -2.368662715     -4.408394958     -4.008323454
           6
  t=       139.00000    1    1
C      -4.065268098     -3.440421384     -3.298133908
C      -2.711892900     -3.414258067     -3.554470523
H      -4.542685271     -2.827557200     -2.177835565
H      -4.887458103     -3.723415501     -3.947610244
H      -2.501469485     -2.366482329     -3.209168002
H      -2.346149608     -4.436783848     -4.044046074
           6
  t=       139.50000    1    1
C      -4.058089428     -3.442249779     -3.316581256
C      -2.740126090     -3.430216733     -3.559648766
H      -4.592071555     -2.886017886     -2.197690183
H      -4.932754433     -3.745126478     -3.916098322
H      -2.524234064     -2.400812126     -3.249970349
H      -2.323395257     -4.455909799     -4.078957307
           6
  t=       140.00000    1    1
C      -4.051834178     -3.443817327     -3.334361482
C      -2.768566199     -3.446627408     -3.564952310
H      -4.636158402     -2.946399156     -2.227666115
H      -4.975823806     -3.770291657     -3.883398336
H      -2.539929740     -2.437751499     -3.289920118
H      -2.301767449     -4.464773581     -4.112244053
           6
  t=       140.50000    1    1
C      -4.047108064     -3.445278844     -3.351442032
C      -2.796762355     -3.463681007     -3.570588460
H      -4.674060898     -3.007430335     -2.267107761
H      -5.014924996     -3.798679241     -3.849642477
H      -2.548185303     -2.475049129     -3.328046632
H      -2.282418461     -4.463009347     -4.143318080
           6
  t=       141.00000    1    1
C      -4.044540432     -3.446773961     -3.367769602
C      -2.824203438     -3.481537764     -3.576761223
H      -4.705121224     -3.067763231     -2.315097017
H      -5.048512768     -3.830070101     -3.815271289
H      -2.548765659     -2.510578633     -3.363475475
H      -2.266377705     -4.450737698     -4.171735670
           6
  t=       141.50000    1    1
C      -4.044783557     -3.448433563     -3.383269228
C      -2.850321239     -3.500307100     -3.583666168
H      -4.728844367     -3.125974211     -2.370552461
H      -5.075295888     -3.864284544     -3.781000039
H      -2.541501208     -2.542624939     -3.395481055
H      -2.254599319     -4.428413640     -4.197151459
           6
  t=       142.00000    1    1
C      -4.048437477     -3.450378563     -3.397864614
C      -2.874544875     -3.520009976     -3.591474358
H      -4.744972281     -3.180521603     -2.432162604
H      -5.094381037     -3.901214880     -3.747751643
H      -2.526439339     -2.570307188     -3.423514078
H      -2.247839892     -4.396876878     -4.219374116
           6
  t=       142.50000    1    1
C      -4.055981464     -3.452717936     -3.411503357
C      -2.896352944     -3.540559105     -3.600324920
H      -4.753563503     -3.229665236     -2.498100281
H      -5.105339256     -3.940919684     -3.716718951
H      -2.504001318     -2.593861834     -3.447218643
H      -2.246550566     -4.357314108     -4.238360461
           6
  t=       143.00000    1    1
C      -4.067690445     -3.455553115     -3.424194926
C      -2.915330241     -3.561766282     -3.610312257
H      -4.755303017     -3.271639208     -2.565956247
H      -5.108149293     -3.983474771     -3.689095052
H      -2.475087605     -2.614446882     -3.466450069
H      -2.250838669     -4.311291364     -4.254233642
           6
  t=       143.50000    1    1
C      -4.083543736     -3.458986511     -3.436059678
C      -2.931244840     -3.583362386     -3.621455695
H      -4.751734336     -3.304685167     -2.632436883
H      -5.103183093     -4.029001388     -3.666051699
H      -2.441057211     -2.633623018     -3.481220911
H      -2.260439751     -4.260871521     -4.267438552
           6
  t=       144.00000    1    1
C      -4.103197886     -3.463137070     -3.447370683
C      -2.944088052     -3.605026436     -3.633681316
H      -4.745513416     -3.327059907     -2.693127873
H      -5.091031558     -4.077645018     -3.648639027
H      -2.403495983     -2.652951808     -3.491665206
H      -2.274717097     -4.208498130     -4.278832310
           6
  t=       144.50000    1    1
C      -4.126016870     -3.468148806     -3.458552778
C      -2.954073938     -3.626402667     -3.646814580
H      -4.740535726     -3.337064309     -2.742548035
H      -5.072362636     -4.129508122     -3.637686251
H      -2.364025944     -2.673790355     -3.498013563
H      -2.292513237     -4.156933907     -4.289853805
           6
  t=       145.00000    1    1
C      -4.151170370     -3.474184507     -3.470114106
C      -2.961606042     -3.647108492     -3.660580744
H      -4.741446871     -3.333222679     -2.774905624
H      -5.047943904     -4.184511251     -3.633679120
H      -2.324275794     -2.697106521     -3.500503139
H      -2.311871593     -4.109385173     -4.302790756
           6
  t=       145.50000    1    1
C      -4.177850501     -3.481420389     -3.482473790
C      -2.967195522     -3.666766317     -3.674635191
H      -4.751838562     -3.314571475     -2.786074788
H      -5.018624205     -4.242187818     -3.636708589
H      -2.285839880     -2.723586093     -3.499403884
H      -2.330292974     -4.068995825     -4.320520329
           6
  t=       146.00000    1    1
C      -4.205516784     -3.490006844     -3.495740792
C      -2.971347737     -3.685057554     -3.688619234
H      -4.771977493     -3.281227770     -2.776057349
H      -4.985281575     -4.301514387     -3.646568986
H      -2.250283218     -2.753633637     -3.495059586
H      -2.345486120     -4.038271834     -4.345878226
           6
  t=       146.50000    1    1
C      -4.233932189     -3.500008420     -3.509672219
C      -2.974472352     -3.701771192     -3.702243905
H      -4.798879937     -3.234626698     -2.749352621
H      -4.948734988     -4.361204755     -3.662732285
H      -2.218955842     -2.787423851     -3.487656822
H      -2.356208656     -4.018634781     -4.381044067
           6
  t=       147.00000    1    1
C      -4.263063437     -3.511379014     -3.523835230
C      -2.976774345     -3.716827438     -3.715378401
H      -4.828400368     -3.177366763     -2.712782320
H      -4.909783895     -4.419947343     -3.684346510
H      -2.192830336     -2.825048080     -3.477153847
H      -2.362788205     -4.010206527     -4.426806036
           6
  t=       147.50000    1    1
C      -4.292928230     -3.524013617     -3.537809282
C      -2.978256739     -3.730208372     -3.728051312
H      -4.856953236     -3.112621169     -2.672967394
H      -4.869452931     -4.476576683     -3.710396907
H      -2.172539894     -2.866762705     -3.463393776
H      -2.366905503     -4.012187719     -4.482385233
           6
  t=       148.00000    1    1
C      -4.323409914     -3.537762766     -3.551272687
C      -2.978908689     -3.741948747     -3.740380012
H      -4.881813435     -3.044305507     -2.635311350
H      -4.829090007     -4.529716473     -3.740051920
H      -2.158629749     -2.912617329     -3.446772152
H      -2.370911764     -4.023356345     -4.545248697
           6
  t=       148.50000    1    1
C      -4.354190131     -3.552429272     -3.564060172
C      -2.978839785     -3.752197074     -3.752516399
H      -4.901602235     -2.976206569     -2.603371353
H      -4.790045083     -4.578265201     -3.772597433
H      -2.151308573     -2.962183963     -3.428145977
H      -2.377114700     -4.042035136     -4.611855751
           6
  t=       149.00000    1    1
C      -4.384938701     -3.567829664     -3.576105091
C      -2.978169407     -3.761134683     -3.764633466
H      -4.915933678     -2.911356844     -2.579506696
H      -4.753483943     -4.621494911     -3.807139890
H      -2.150369915     -3.015033147     -3.408178656
H      -2.387452751     -4.066374515     -4.678810042
           6
  t=       149.50000    1    1
C      -4.415346504     -3.583785947     -3.587387840
C      -2.977055689     -3.768956634     -3.776877469
H      -4.924846843     -2.852312331     -2.565303240
H      -4.720487111     -4.658942490     -3.842872835
H      -2.155243465     -3.070466814     -3.387402769
H      -2.403175719     -4.094776342     -4.743290456
           6
  t=       150.00000    1    1
C      -4.445157079     -3.600130926     -3.597935341
C      -2.975685369     -3.775878767     -3.789374005
H      -4.928684299     -2.801081613     -2.561653180
H      -4.691946830     -4.690382981     -3.878982543
H      -2.164896071     -3.127481339     -3.365983975
H      -2.424912769     -4.125880946     -4.803235498
           6
  t=       150.50000    1    1
C      -4.474139923     -3.616713499     -3.607804517
C      -2.974288016     -3.782123582     -3.802244431
H      -4.927917666     -2.759351298     -2.569008698
H      -4.668640901     -4.715653190     -3.914628927
H      -2.177940576     -3.184907162     -3.343826334
H      -2.452812726     -4.158483753     -4.857004666
           6
  t=       151.00000    1    1
C      -4.502078526     -3.633398401     -3.617060967
C      -2.973115642     -3.787902358     -3.815613063
H      -4.923078777     -2.728583072     -2.587591114
H      -4.651369554     -4.734664754     -3.949021719
H      -2.192807778     -3.241661588     -3.320793623
H      -2.486689730     -4.191388367     -4.903040194
           6
  t=       151.50000    1    1
C      -4.528788097     -3.650051437     -3.625787389
C      -2.972424944     -3.793414031     -3.829582762
H      -4.914857205     -2.709754648     -2.617145037
H      -4.640753090     -4.747651492     -3.981527420
H      -2.207919594     -3.296876729     -3.296785133
H      -2.525955164     -4.223479702     -4.940120601
           6
  t=       152.00000    1    1
C      -4.554046095     -3.666557007     -3.634062912
C      -2.972488304     -3.798810600     -3.844223727
H      -4.903973325     -2.703702420     -2.657373068
H      -4.637561150     -4.754921112     -4.011659162
H      -2.221926125     -3.349887363     -3.271677971
H      -2.569875029     -4.253845167     -4.967373708
           6
  t=       152.50000    1    1
C      -4.577573499     -3.682830693     -3.641969174
C      -2.973594429     -3.804197815     -3.859554649
H      -4.891242301     -2.710975785     -2.707849518
H      -4.642719761     -4.756824425     -4.039125755
H      -2.233836673     -3.400257429     -3.245451095
H      -2.617583426     -4.281766418     -4.984341959
           6
  t=       153.00000    1    1
C      -4.599067560     -3.698835205     -3.649606004
C      -2.976018530     -3.809644420     -3.875519041
H      -4.877654578     -2.731376437     -2.767683709
H      -4.657050480     -4.753838282     -4.063934702
H      -2.243181211     -3.447850436     -3.218408011
H      -2.668066499     -4.306726621     -4.991088551
           6
  t=       153.50000    1    1
C      -4.618257446     -3.714569753     -3.657081353
C      -2.979989653     -3.815190719     -3.891984109
H      -4.864295930     -2.763907342     -2.835591427
H      -4.680994544     -4.746604932     -4.086354044
H      -2.250043558     -3.492885377     -3.191277622
H      -2.720211332     -4.328390736     -4.988196802
           6
  t=       154.00000    1    1
C      -4.634942826     -3.730032220     -3.664487030
C      -2.985664026     -3.820856186     -3.908759105
H      -4.852200522     -2.807183710     -2.910211420
H      -4.714569847     -4.735967282     -4.106853653
H      -2.254995367     -3.535855021     -3.165225312
H      -2.772919738     -4.346601038     -4.976571616
           6
  t=       154.50000    1    1
C      -4.648977386     -3.745246728     -3.671926451
C      -2.993135248     -3.826642325     -3.925615261
H      -4.842458591     -2.859203296     -2.989808045
H      -4.757462545     -4.722920642     -4.126070344
H      -2.258909328     -3.577360510     -3.141715269
H      -2.825170753     -4.361457973     -4.957341279
           6
  t=       155.00000    1    1
C      -4.660239258     -3.760346856     -3.679573113
C      -3.002432290     -3.832547353     -3.942299389
H      -4.836451816     -2.916563424     -3.071629997
H      -4.809251062     -4.708442404     -4.144755481
H      -2.262808057     -3.617841381     -3.122294584
H      -2.876088591     -4.373376859     -4.931908236
           6
  t=       155.50000    1    1
C      -4.668577028     -3.775665294     -3.687714197
C      -3.013564115     -3.838559054     -3.958535122
H      -4.836082549     -2.973687613     -3.151507242
H      -4.869570106     -4.693228609     -4.163620591
H      -2.267696945     -3.657481319     -3.108363143
H      -2.924828201     -4.383235781     -4.902202234
           6
  t=       156.00000    1    1
C      -4.673841194     -3.791779283     -3.696731929
C      -3.026537998     -3.844637113     -3.974009681
H      -4.843628093     -3.022122643     -3.223810603
H      -4.937904701     -4.677825242     -4.183508965
H      -2.274473721     -3.696161775     -3.101007250
H      -2.970424266     -4.392662682     -4.871095360
           6
  t=       156.50000    1    1
C      -4.675931688     -3.809433242     -3.707009618
C      -3.041338820     -3.850699356     -3.988402841
H      -4.861369287     -3.051510015     -3.282651241
H      -5.013542936     -4.662739412     -4.205329132
H      -2.283895648     -3.733594096     -3.100908866
H      -3.011923125     -4.403906515     -4.842134260
           6
  t=       157.00000    1    1
C      -4.674878461     -3.829123486     -3.718715865
C      -3.057888750     -3.856645289     -4.001464798
H      -4.890808900     -3.055095423     -3.325106985
H      -5.095483809     -4.647962989     -4.229503999
H      -2.296557041     -3.769455545     -3.108280664
H      -3.048799211     -4.419335983     -4.818573118
           6
  t=       157.50000    1    1
C      -4.670938611     -3.850724243     -3.731700285
C      -3.076044192     -3.862391853     -4.013058710
H      -4.931794155     -3.034043028     -3.352526099
H      -5.182222450     -4.632901623     -4.255791713
H      -2.312972640     -3.803439333     -3.122996546
H      -3.080842998     -4.441176429     -4.802854132
           6
  t=       158.00000    1    1
C      -4.664678878     -3.873502009     -3.745591764
C      -3.095638527     -3.867921289     -4.023214517
H      -4.981922993     -2.996825571     -3.369062503
H      -5.271443340     -4.616602017     -4.283413219
H      -2.333427663     -3.835285505     -3.144567820
H      -3.107719106     -4.471120151     -4.796156440
           6
  t=       158.50000    1    1
C      -4.656807053     -3.896553833     -3.760022735
C      -3.116599115     -3.873321196     -4.032117882
H      -5.037439892     -2.953864889     -3.379100042
H      -5.360223782     -4.598038756     -4.311270760
H      -2.357701384     -3.864829012     -3.172199888
H      -3.128758248     -4.509651276     -4.798156070
           6
  t=       159.00000    1    1
C      -4.647990011     -3.919180325     -3.774745345
C      -3.138925837     -3.878796937     -4.040067131
H      -5.094540856     -2.913243306     -3.385892416
H      -5.445624517     -4.576395154     -4.338311168
H      -2.385082861     -3.891851224     -3.204843041
H      -3.143469768     -4.555609425     -4.807100777
           6
  t=       159.50000    1    1
C      -4.638779803     -3.940970092     -3.789636621
C      -3.162618573     -3.884633141     -4.047436596
H      -5.150306339     -2.879509166     -3.391209195
H      -5.525071490     -4.551329395     -4.363785954
H      -2.414487905     -3.916036143     -3.241143495
H      -3.151854810     -4.606614568     -4.820328145
           6
  t=       160.00000    1    1
C      -4.629629011     -3.961697429     -3.804651452
C      -3.187658705     -3.891138058     -4.054612820
H      -5.202640161     -2.854807351     -3.395883946
H      -5.596353790     -4.522976288     -4.387178467
H      -2.444546969     -3.937030217     -3.279450002
H      -3.154419072     -4.659756994     -4.835104113
           6
  t=       160.50000    1    1
C      -4.620941457     -3.981222667     -3.819774227
C      -3.214006229     -3.898607689     -4.061962554
H      -5.249946589     -2.839993758     -3.400317353
H      -5.657517044     -4.491883940     -4.408092468
H      -2.473665265     -3.954508935     -3.317805283
H      -3.151972275     -4.712094371     -4.849197450
           6
  t=       161.00000    1    1
C      -4.613065425     -3.999468570     -3.835007390
C      -3.241587667     -3.907271349     -4.069796049
H      -5.291100926     -2.835114566     -3.404592478
H      -5.707078507     -4.458851113     -4.426301106
H      -2.500148898     -3.968198000     -3.354159042
H      -3.145541287     -4.761243982     -4.861076269
           6
  t=       161.50000    1    1
C      -4.606323970     -4.016393542     -3.850357503
C      -3.270280774     -3.917295704     -4.078352485
H      -5.325398513     -2.839777920     -3.408607344
H      -5.743957622     -4.424746825     -4.441681115
H      -2.522381750     -3.977836456     -3.386662921
H      -3.136134624     -4.805499297     -4.869885990
           6
  t=       162.00000    1    1
C      -4.601019400     -4.032004458     -3.865826717
C      -3.299853052     -3.928769584     -4.087776825
H      -5.352577915     -2.853288250     -3.412156190
H      -5.767706643     -4.390383530     -4.454263608
H      -2.539233745     -3.983173533     -3.414117298
H      -3.124759754     -4.843853817     -4.875247916
           6
  t=       162.50000    1    1
C      -4.597490239     -4.046322438     -3.881400468
C      -3.329921558     -3.941750066     -4.098130130
H      -5.372616454     -2.874857683     -3.415022358
H      -5.778252840     -4.356565551     -4.464135529
H      -2.550432039     -3.983922236     -3.436168485
H      -3.112314168     -4.875646303     -4.877091410
           6
  t=       163.00000    1    1
C      -4.596145568     -4.059370528     -3.897047292
C      -3.359937730     -3.956274146     -4.109403256
H      -5.385566780     -2.903696619     -3.417020587
H      -5.775748446     -4.324131404     -4.471377925
H      -2.556636386     -3.979767641     -3.453217404
H      -3.099595254     -4.900427362     -4.875603637
           6
  t=       163.50000    1    1
C      -4.597456743     -4.071172528     -3.912715348
C      -3.389209515     -3.972343598     -4.121532897
H      -5.391481965     -2.939058342     -3.417977225
H      -5.760651794     -4.293961998     -4.476164016
H      -2.559267429     -3.970442649     -3.466248659
H      -3.087300727     -4.918025127     -4.871172477
           6
  t=       164.00000    1    1
C      -4.601950171     -4.081728676     -3.928328379
C      -3.416967728     -3.989932405     -4.134430898
H      -5.390265942     -2.980435460     -3.417812911
H      -5.733559361     -4.266967553     -4.478736052
H      -2.560159782     -3.955825340     -3.476536682
H      -3.075988417     -4.928465892     -4.864319690
           6
  t=       164.50000    1    1
C      -4.610145845     -4.091000974     -3.943790225
C      -3.442477279     -4.008988422     -4.147997301
H      -5.381586528     -3.027821585     -3.416692728
H      -5.695090555     -4.243928813     -4.479344193
H      -2.561197312     -3.936011252     -3.485445679
H      -3.066050258     -4.931953865     -4.855602688
           6
  t=       165.00000    1    1
C      -4.622423343     -4.098921113     -3.958983878
C      -3.465147182     -4.029429680     -4.162116976
H      -5.364948741     -3.081515624     -3.414905728
H      -5.646341774     -4.225572217     -4.478568413
H      -2.564091468     -3.911335325     -3.494344733
H      -3.057692450     -4.928919415     -4.845549474
           6
  t=       165.50000    1    1
C      -4.638821925     -4.105436751     -3.973734111
C      -3.484593939     -4.051128058     -4.176660341
H      -5.340052542     -3.141371433     -3.412749366
H      -5.590121803     -4.212889088     -4.477917576
H      -2.570361552     -3.882517788     -3.504364291
H      -3.050988798     -4.919947484     -4.834855262
           6
  t=       166.00000    1    1
C      -4.659000249     -4.110492762     -3.987795280
C      -3.500612871     -4.073935388     -4.191503005
H      -5.307055373     -3.206811375     -3.410113884
H      -5.531388158     -4.207145887     -4.480330055
H      -2.581327684     -3.850372827     -3.516299091
H      -3.046010388     -4.905957463     -4.824305931
           6
  t=       166.50000    1    1
C      -4.682169664     -4.114086955     -4.000829651
C      -3.513209546     -4.097646405     -4.206522002
H      -5.266799910     -3.276822601     -3.406726760
H      -5.477596163     -4.209523507     -4.490235154
H      -2.598007093     -3.815843683     -3.530515386
H      -3.042772983     -4.888310006     -4.814867991
           6
  t=       167.00000    1    1
C      -4.707281509     -4.116231439     -4.012385134
C      -3.522478580     -4.122045904     -4.221590484
H      -5.220824788     -3.350107226     -3.401578073
H      -5.438295795     -4.221089241     -4.514152920
H      -2.621054732     -3.779537850     -3.547289612
H      -3.040901116     -4.869048273     -4.807653313
           6
  t=       167.50000    1    1
C      -4.733308776     -4.117027802     -4.022100400
C      -3.528634874     -4.146889918     -4.236533584
H      -5.171512751     -3.424184852     -3.392852861
H      -5.421435912     -4.242995813     -4.558489102
H      -2.650720695     -3.742016931     -3.566609382
H      -3.039489859     -4.850634865     -4.804472656
           6
  t=       168.00000    1    1
C      -4.759517804     -4.116818551     -4.030135554
C      -3.532143407     -4.171843302     -4.251076996
H      -5.122131430     -3.494518317     -3.377794007
H      -5.428505806     -4.276057251     -4.625046489
H      -2.686905747     -3.704453901     -3.588041804
H      -3.037083085     -4.835532200     -4.808073993
           6
  t=       168.50000    1    1
C      -4.785498072     -4.116245508     -4.037390603
C      -3.533799551     -4.196518460     -4.264936158
H      -5.076487363     -3.555890694     -3.352016913
H      -5.453659108     -4.318804524     -4.709042919
H      -2.728865450     -3.668099045     -3.611171500
H      -3.031879311     -4.826146690     -4.820706028
           6
  t=       169.00000    1    1
C      -4.811217386     -4.115978919     -4.045081189
C      -3.534300624     -4.220604419     -4.277908396
H      -5.037349917     -3.604389194     -3.310738930
H      -5.488479050     -4.368221897     -4.802056957
H      -2.775721157     -3.633978776     -3.635668452
H      -3.022479135     -4.824099481     -4.843832671
           6
  t=       169.50000    1    1
C      -4.836738277     -4.116438745     -4.054129777
C      -3.534186318     -4.243909700     -4.289906211
H      -5.005614082     -3.639495864     -3.252183871
H      -5.526461914     -4.420858582     -4.895819079
H      -2.826527571     -3.602897126     -3.661177701
H      -3.008260746     -4.829832733     -4.877905412
           6
  t=       170.00000    1    1
C      -4.862107761     -4.117676010     -4.064814557
C      -3.533839068     -4.266389353     -4.300981609
H      -4.980423559     -3.664354231     -3.179717054
H      -5.563808331     -4.473967087     -4.984408350
H      -2.880224581     -3.575376461     -3.687271007
H      -2.989822676     -4.842355711     -4.921973578
           6
  t=       170.50000    1    1
C      -4.887318631     -4.119550199     -4.076907157
C      -3.533517607     -4.288120276     -4.311318834
H      -4.960735599     -3.683665273     -3.100577763
H      -5.598323573     -4.525506593     -5.063866846
H      -2.935423196     -3.551722822     -3.713605962
H      -2.968794321     -4.859460205     -4.973624063
           6
  t=       171.00000    1    1
C      -4.912260680     -4.121951867     -4.090048008
C      -3.533389365     -4.309222630     -4.321157559
H      -4.946187179     -3.701198506     -3.021986245
H      -5.628985832     -4.574006075     -5.131741781
H      -2.990725914     -3.532007355     -3.739908976
H      -2.947276161     -4.878648932     -5.029791603
           6
  t=       171.50000    1    1
C      -4.936751714     -4.124865430     -4.103942832
C      -3.533577527     -4.329799808     -4.330727847
H      -4.937032257     -3.719397674     -2.949656594
H      -5.655452043     -4.618190066     -5.186256117
H      -3.044994407     -3.516069856     -3.765965471
H      -2.927198738     -4.897867487     -5.087518933
           6
  t=       172.00000    1    1
C      -4.960565518     -4.128339187     -4.118398548
C      -3.534200248     -4.349921796     -4.340225751
H      -4.933794432     -3.739665655     -2.887361234
H      -5.677879184     -4.657037944     -5.226291322
H      -3.097322992     -3.503602541     -3.791692299
H      -2.910074804     -4.915631983     -5.144199847
           6
  t=       172.50000    1    1
C      -4.983500153     -4.132431539     -4.133276614
C      -3.535364809     -4.369635988     -4.349813064
H      -4.936906310     -3.762821818     -2.837387703
H      -5.696677827     -4.689913540     -5.251440695
H      -3.146883771     -3.494224532     -3.817161199
H      -2.897016956     -4.930879445     -5.197604743
           6
  t=       173.00000    1    1
C      -5.005403724     -4.137189178     -4.148465875
C      -3.537190607     -4.388966661     -4.359614581
H      -4.946319553     -3.789197079     -2.800926292
H      -5.712302813     -4.716729899     -5.262093215
H      -3.192885155     -3.487566548     -3.842323046
H      -2.888797537     -4.942889581     -5.246040941
           6
  t=       173.50000    1    1
C      -5.026176480     -4.142674077     -4.163889797
C      -3.539795452     -4.407895418     -4.369718606
H      -4.961898688     -3.818925771     -2.778750630
H      -5.725077441     -4.737454075     -5.258617136
H      -3.234465365     -3.483356469     -3.867116665
H      -2.885875328     -4.951313861     -5.288287489
           6
  t=       174.00000    1    1
C      -5.045751770     -4.148961670     -4.179495218
C      -3.543299698     -4.426369655     -4.380181771
H      -4.983424413     -3.851951428     -2.771243421
H      -5.735236111     -4.752093876     -5.241452204
H      -3.270767328     -3.481409133     -3.891454839
H      -2.888452360     -4.956114083     -5.323567802
           6
  t=       174.50000    1    1
C      -5.064086677     -4.156134828     -4.195236771
C      -3.547815994     -4.444310606     -4.391033558
H      -5.010593236     -3.888073961     -2.778647692
H      -5.742942271     -4.760665914     -5.211074014
H      -3.301062523     -3.481690184     -3.915212320
H      -2.896566332     -4.957459151     -5.351477784
           6
  t=       175.00000    1    1
C      -5.081157429     -4.164273018     -4.211066784
C      -3.553441619     -4.461622909     -4.402283809
H      -5.042950709     -3.926952290     -2.801061712
H      -5.748345958     -4.763260689     -5.168138560
H      -3.324831789     -3.484355718     -3.938235125
H      -2.910164899     -4.955632976     -5.371867933
           6
  t=       175.50000    1    1
C      -5.096951638     -4.173440520     -4.226935153
C      -3.560255754     -4.478203121     -4.413929956
H      -5.079862853     -3.968119926     -2.838238992
H      -5.751702376     -4.760142890     -5.113674898
H      -3.341764282     -3.489730912     -3.960390840
H      -2.929141811     -4.950978810     -5.384715718
           6
  t=       176.00000    1    1
C      -5.111438331     -4.183679988     -4.242783210
C      -3.568331413     -4.493939904     -4.425959868
H      -5.120616041     -4.011042735     -2.889509105
H      -5.753625571     -4.751857770     -5.049230240
H      -3.351630645     -3.498242109     -3.981620983
H      -2.953325050     -4.943877614     -5.390046444
           6
  t=       176.50000    1    1
C      -5.124516541     -4.195000206     -4.258503568
C      -3.577750999     -4.508712323     -4.438352693
H      -5.164528886     -4.055041408     -2.953764750
H      -5.755565442     -4.739518413     -4.977299560
H      -3.354212696     -3.510342450     -4.001878975
H      -2.982385508     -4.934778831     -5.388047098
           6
  t=       177.00000    1    1
C      -5.135996488     -4.207311945     -4.273877844
C      -3.588578284     -4.522437628     -4.451075847
H      -5.211032788     -4.099189045     -3.029569400
H      -5.760129964     -4.725274013     -4.901707904
H      -3.349626409     -3.526312057     -4.020991064
H      -3.015669292     -4.924229294     -5.379493312
           6
  t=       177.50000    1    1
C      -5.145522324     -4.220406011     -4.288593927
C      -3.600889648     -4.535028642     -4.464079596
H      -5.259807266     -4.142501976     -3.115267780
H      -5.771595414     -4.712666149     -4.827427359
H      -3.338108087     -3.546326610     -4.038621898
H      -3.052314338     -4.913026872     -5.365715284
           6
  t=       178.00000    1    1
C      -5.152637857     -4.233928992     -4.302365608
C      -3.614732886     -4.546416011     -4.477267766
H      -5.310396045     -4.183671983     -3.207305351
H      -5.796098245     -4.706960114     -4.760892884
H      -3.319973274     -3.570391352     -4.054327012
H      -3.091191284     -4.902246778     -5.348833382
           6
  t=       178.50000    1    1
C      -5.156988683     -4.247559390     -4.315147247
C      -3.630114784     -4.556564460     -4.490454387
H      -5.362470680     -4.221146868     -3.300930258
H      -5.839094389     -4.712847563     -4.706826400
H      -3.295707429     -3.598435605     -4.067661554
H      -3.130829264     -4.893071433     -5.332082226
           6
  t=       179.00000    1    1
C      -5.158591230     -4.261215551     -4.327439732
C      -3.647045484     -4.565494978     -4.503355887
H      -5.415840084     -4.253187043     -3.388646679
H      -5.901342018     -4.731772594     -4.666306244
H      -3.266366959     -3.630130551     -4.078108446
H      -3.169288186     -4.886848019     -5.319806859
           6
  t=       179.50000    1    1
C      -5.157846266     -4.275118506     -4.340138411
C      -3.665584047     -4.573218414     -4.515682637
H      -5.470978137     -4.278057412     -3.460760277
H      -5.977849037     -4.761544349     -4.637926182
H      -3.233198362     -3.665097552     -4.085099731
H      -3.204360603     -4.885118093     -5.316458302
           6
  t=       180.00000    1    1
C      -5.155331723     -4.289619100     -4.354016655
C      -3.685766118     -4.579715988     -4.527205722
H      -5.529199753     -4.294492678     -3.509467770
H      -6.060696845     -4.798300039     -4.619802455
H      -3.197230089     -3.703167004     -4.088415970
H      -3.234310576     -4.889222596     -5.325455455
           6
  t=       180.50000    1    1
C      -5.151651771     -4.305014479     -4.369326966
C      -3.707514244     -4.584982913     -4.537842294
H      -5.591131028     -4.301801834     -3.532547032
H      -6.142715757     -4.838588062     -4.610730699
H      -3.159267274     -3.744375292     -4.088284731
H      -3.258600343     -4.899784084     -5.347975713
           6
  t=       181.00000    1    1
C      -5.147458141     -4.321471589     -4.385731264
C      -3.730579539     -4.589091271     -4.547724045
H      -5.655003983     -4.299779646     -3.534269462
H      -6.218973254     -4.880064745     -4.610045348
H      -3.120264835     -3.788828865     -4.085173711
H      -3.278175337     -4.916396842     -5.382404774
           6
  t=       181.50000    1    1
C      -5.143490628     -4.339059550     -4.402585421
C      -3.754570237     -4.592181310     -4.557151081
H      -5.717078824     -4.288655730     -3.522149546
H      -6.286089974     -4.921085236     -4.617320322
H      -3.081286005     -3.836587331     -4.079620539
H      -3.294944488     -4.937921721     -5.425215874
           6
  t=       182.00000    1    1
C      -5.140407491     -4.357744387     -4.419260096
C      -3.779027686     -4.594427416     -4.566476893
H      -5.773562250     -4.269232336     -3.503398050
H      -6.342207033     -4.960634010     -4.632140480
H      -3.043444887     -3.887645878     -4.072224171
H      -3.311067396     -4.962903733     -5.472301368
           6
  t=       182.50000    1    1
C      -5.138653631     -4.377410307     -4.435311225
C      -3.803532179     -4.596021487     -4.576003269
H      -5.821760242     -4.242899602     -3.483454986
H      -6.386514160     -4.998044195     -4.653817957
H      -3.008023431     -3.941964604     -4.063770561
H      -3.328466234     -4.989752679     -5.519818459
           6
  t=       183.00000    1    1
C      -5.138518821     -4.397900810     -4.450486110
C      -3.827717844     -4.597150806     -4.585936583
H      -5.859967230     -4.211292406     -3.465758691
H      -6.418759651     -5.032836269     -4.681633849
H      -2.976477792     -3.999450266     -4.055211522
H      -3.348548844     -5.017039614     -5.564647919
           6
  t=       183.50000    1    1
C      -5.140170803     -4.419053090     -4.464651424
C      -3.851285275     -4.597984481     -4.596405323
H      -5.887339313     -4.175735049     -3.452502210
H      -6.439049983     -5.064939775     -4.714791227
H      -2.950215942     -4.060096593     -4.047359983
H      -3.372213602     -5.043441904     -5.604638311
           6
  t=       184.00000    1    1
C      -5.143756598     -4.440719737     -4.477723011
C      -3.873948226     -4.598678780     -4.607504515
H      -5.903651803     -4.137259792     -3.445073840
H      -6.447557752     -5.094417889     -4.752543254
H      -2.930464546     -4.123812277     -4.040839784
H      -3.399944840     -5.067849841     -5.638394848
           6
  t=       184.50000    1    1
C      -5.149457420     -4.462760519     -4.489645579
C      -3.895410908     -4.599390250     -4.619306110
H      -5.909083976     -4.097000904     -3.444446086
H      -6.444279390     -5.121090395     -4.794060333
H      -2.918268912     -4.190234491     -4.036165474
H      -3.431886829     -5.089477823     -5.665061557
           6
  t=       185.00000    1    1
C      -5.157492546     -4.485039908     -4.500394264
C      -3.915372947     -4.600276103     -4.631858733
H      -5.904151656     -4.056440648     -3.451476048
H      -6.428951694     -5.144326554     -4.838211883
H      -2.914464767     -4.258715374     -4.033792640
H      -3.467917503     -5.107863808     -5.684173216
           6
  t=       185.50000    1    1
C      -5.168068767     -4.507435705     -4.509978787
C      -3.933572055     -4.601483365     -4.645188009
H      -5.889603087     -4.017090345     -3.466670668
H      -6.401328442     -5.163371597     -4.883828975
H      -2.919548886     -4.328417213     -4.034074654
H      -3.507699386     -5.122793091     -5.695617247
           6
  t=       186.00000    1    1
C      -5.181333244     -4.529843805     -4.518438778
C      -3.949823918     -4.603137657     -4.659300508
H      -5.866262901     -3.980301410     -3.490024663
H      -6.361349156     -5.177564330     -4.929989510
H      -2.933648538     -4.398339715     -4.037234864
H      -3.550783723     -5.134319401     -5.699547200
           6
  t=       186.50000    1    1
C      -5.197359015     -4.552179850     -4.525821396
C      -3.964039215     -4.605346785     -4.674196110
H      -5.834944747     -3.947139570     -3.521310155
H      -6.309032252     -5.186437540     -4.975949004
H      -2.956585339     -4.467476659     -4.043274986
H      -3.596710899     -5.142571032     -5.696373209
           6
  t=       187.00000    1    1
C      -5.216083197     -4.574363950     -4.532181958
C      -3.976253786     -4.608201929     -4.689861994
H      -5.796616425     -3.918470136     -3.560126399
H      -6.244768412     -5.189754506     -5.021088880
H      -2.987842031     -4.534817968     -4.051936818
H      -3.644961878     -5.147794960     -5.686866437
           6
  t=       187.50000    1    1
C      -5.237281117     -4.596289128     -4.537579691
C      -3.986616265     -4.611775386     -4.706261393
H      -5.752504114     -3.895135209     -3.605881528
H      -6.169781848     -5.187593946     -5.065000861
H      -3.026581341     -4.599338428     -4.062782141
H      -3.694829649     -5.150508798     -5.672197601
           6
  t=       188.00000    1    1
C      -5.260504528     -4.617813820     -4.542093644
C      -3.995436867     -4.616089426     -4.723294453
H      -5.704195283     -3.877818089     -3.657653942
H      -6.086571882     -5.180614744     -5.107675576
H      -3.071407549     -4.660179054     -4.075196498
H      -3.745267834     -5.151650814     -5.654160061
           6
  t=       188.50000    1    1
C      -5.285176682     -4.638747603     -4.545761569
C      -4.003092412     -4.621124073     -4.740814225
H      -5.653510643     -3.866998655     -3.714396129
H      -5.998764008     -5.170159345     -5.149790422
H      -3.120588073     -4.716710541     -4.088344371
H      -3.794945135     -5.152535038     -5.635260596
           6
  t=       189.00000    1    1
C      -5.310580582     -4.658854204     -4.548555578
C      -4.010014506     -4.626810618     -4.758630373
H      -5.602512473     -3.862735979     -3.774646458
H      -5.911199623     -5.158452395     -5.193366929
H      -3.172047896     -4.768464190     -4.101021602
H      -3.842433472     -5.154980526     -5.618743728
           6
  t=       189.50000    1    1
C      -5.335944187     -4.677883275     -4.550378296
C      -4.016643440     -4.633034295     -4.776518426
H      -5.553465745     -3.864342992     -3.836381841
H      -5.829365048     -5.148560161     -5.242051304
H      -3.223410277     -4.815278313     -4.111763112
H      -3.886311344     -5.161120333     -5.608286478
           6
  t=       190.00000    1    1
C      -5.360619340     -4.695692801     -4.551149210
C      -4.023371122     -4.639667085     -4.794258903
H      -5.508707902     -3.870110964     -3.897074512
H      -5.757464123     -5.143220948     -5.300011426
H      -3.272319586     -4.857338696     -4.119116964
H      -3.925446471     -5.172956764     -5.607275253
           6
  t=       190.50000    1    1
C      -5.384233401     -4.712382701     -4.551015577
C      -4.030519780     -4.646632054     -4.811674094
H      -5.470228732     -3.877531983     -3.954190858
H      -5.697349062     -5.143075823     -5.368948582
H      -3.316727818     -4.894996286     -4.121855204
H      -3.958645575     -5.191731797     -5.618133231
           6
  t=       191.00000    1    1
C      -5.406647761     -4.728311032     -4.550543314
C      -4.038301210     -4.653990521     -4.828652673
H      -5.439440791     -3.883571403     -4.005513965
H      -5.648651645     -5.146331322     -5.446013069
H      -3.355040094     -4.928504891     -4.119289711
H      -3.985587069     -5.217022607     -5.641198376
           6
  t=       191.50000    1    1
C      -5.427764212     -4.743910228     -4.550488855
C      -4.046842205     -4.661940011     -4.845144871
H      -5.417267075     -3.884881200     -4.049280957
H      -5.611530953     -5.150635717     -5.526005633
H      -3.386247706     -4.957983845     -4.111454129
H      -4.005857035     -5.246903229     -5.674978780
           6
  t=       192.00000    1    1
C      -5.447568316     -4.759533183     -4.551435584
C      -4.056183560     -4.670723203     -4.861239151
H      -5.403819090     -3.878720041     -4.084495260
H      -5.585841822     -5.154073587     -5.604269816
H      -3.410424047     -4.983493469     -4.099013735
H      -4.019101645     -5.278873427     -5.716456713
           6
  t=       192.50000    1    1
C      -5.466095815     -4.775351153     -4.553728474
C      -4.066310411     -4.680558206     -4.877056243
H      -5.398549882     -3.864294471     -4.111505954
H      -5.571161998     -5.155207451     -5.677115272
H      -3.428497255     -5.004970304     -4.083180954
H      -4.025113195     -5.310588068     -5.762211835
           6
  t=       193.00000    1    1
C      -5.483386115     -4.791348199     -4.557511884
C      -4.077173530     -4.691603395     -4.892674621
H      -5.400636107     -3.842941457     -4.131769232
H      -5.566965928     -5.153010823     -5.741999366
H      -3.441821223     -5.022186176     -4.065553083
H      -4.024003726     -5.340267609     -5.809078071
           6
  t=       193.50000    1    1
C      -5.499454518     -4.807375940     -4.562820954
C      -4.088710587     -4.703973092     -4.908110818
H      -5.409328977     -3.817368242     -4.147167790
H      -5.572719858     -5.146817830     -5.797320094
H      -3.451762190     -5.034752914     -4.047838218
H      -4.016249930     -5.366664697     -5.854450941
           6
  t=       194.00000    1    1
C      -5.514292391     -4.823229437     -4.569653417
C      -4.100864829     -4.717755083     -4.923337412
H      -5.424095346     -3.790549149     -4.159418662
H      -5.587950121     -5.136340742     -5.842085835
H      -3.459501165     -5.042308604     -4.031686468
H      -4.002456701     -5.388850591     -5.896308680
           6
  t=       194.50000    1    1
C      -5.527896921     -4.838708668     -4.577989323
C      -4.113583760     -4.733004706     -4.938313482
H      -5.444494018     -3.765064491     -4.169818209
H      -5.612112102     -5.121616185     -5.875838071
H      -3.465955502     -5.044627882     -4.018514824
H      -3.983351555     -5.406157756     -5.933121756
           6
  t=       195.00000    1    1
C      -5.540279810     -4.853642747     -4.587804971
C      -4.126823471     -4.749744318     -4.952999054
H      -5.470122882     -3.742923567     -4.179243844
H      -5.644578788     -5.102885463     -5.898471494
H      -3.471736921     -5.041650712     -4.009414862
H      -3.959735665     -5.418165430     -5.963785236
           6
  t=       195.50000    1    1
C      -5.551461510     -4.867888462     -4.599080958
C      -4.140553430     -4.767959919     -4.967352516
H      -5.500585556     -3.725697564     -4.188293801
H      -5.684657394     -5.080516071     -5.910054434
H      -3.477204134     -5.033492031     -4.005182685
H      -3.932459576     -5.424693272     -5.987563475
           6
  t=       196.00000    1    1
C      -5.561471476     -4.881325435     -4.611812189
C      -4.154747522     -4.787597990     -4.981319023
H      -5.535407117     -3.714675122     -4.197393279
H      -5.731713841     -5.054992298     -5.910685543
H      -3.482597705     -5.020418775     -4.006433409
H      -3.902351965     -5.425773515     -6.004031749
           6
  t=       196.50000    1    1
C      -5.570354478     -4.893848005     -4.626020669
C      -4.169365418     -4.808571068     -4.994819850
H      -5.573966699     -3.710926796     -4.206780002
H      -5.785169522     -5.027021118     -5.900425202
H      -3.488167202     -5.002798167     -4.013687280
H      -3.870309794     -5.421562640     -6.013047556
           6
  t=       197.00000    1    1
C      -5.578174483     -4.905344598     -4.641762017
C      -4.184333950     -4.830777482     -5.007749187
H      -5.615576879     -3.715366842     -4.216454072
H      -5.844518740     -4.997610459     -5.879290067
H      -3.494194391     -4.981036741     -4.027367230
H      -3.837354060     -5.412272859     -6.014769253
           6
  t=       197.50000    1    1
C      -5.585043942     -4.915692385     -4.659079395
C      -4.199517620     -4.854112856     -5.020002012
H      -5.659605399     -3.728730881     -4.226126570
H      -5.909193073     -4.968002823     -5.847558822
H      -3.501009979     -4.955522574     -4.047724058
H      -3.804629342     -5.398245289     -6.009693400
           6
  t=       198.00000    1    1
C      -5.591165657     -4.924787163     -4.677923014
C      -4.214698263     -4.878488584     -5.031555897
H      -5.705511755     -3.751562663     -4.235176094
H      -5.978042840     -4.939248239     -5.806060431
H      -3.509211779     -4.926374713     -4.074850719
H      -3.773411085     -5.380064535     -5.998379976
           6
  t=       198.50000    1    1
C      -5.596795081     -4.932532084     -4.698120447
C      -4.229628144     -4.903784728     -5.042492211
H      -5.752904363     -3.784343179     -4.242841022
H      -6.049471601     -4.912271641     -5.756275079
H      -3.519554094     -4.893831327     -4.108526679
H      -3.744841053     -5.358669675     -5.981415995
           6
  t=       199.00000    1    1
C      -5.602117174     -4.938865157     -4.719401234
C      -4.244159064     -4.929826790     -5.052897107
H      -5.801408547     -3.827350576     -4.248619920
H      -6.122214370     -4.887821768     -5.700531042
H      -3.532528858     -4.858401882     -4.148029720
H      -3.719628917     -5.335342267     -5.959892936
           6
  t=       199.50000    1    1
C      -5.607217663     -4.943828531     -4.741442485
C      -4.258275298     -4.956394245     -5.062792507
H      -5.850383264     -3.880127646     -4.252303375
H      -6.196018223     -4.866410561     -5.641986588
H      -3.548122167     -4.820735579     -4.192079347
H      -3.697848461     -5.311503844     -5.935728719
           6
  t=       200.00000    1    1
C      -5.612138607     -4.947515328     -4.763968360
C      -4.272020547     -4.983277252     -5.072167704
H      -5.899000137     -3.941611385     -4.253216404
H      -6.271236287     -4.848597819     -5.583960555
H      -3.566109298     -4.781265520     -4.239179932
H      -3.679177747     -5.288615313     -5.911189487
