           6
  t=         0.00000    2    2
C      -0.662091249      0.001598808     -0.006326128
C       0.684204332     -0.000219360      0.001788799
H      -1.311716972      0.898125240      0.015923498
H      -1.310332750     -0.873947552      0.035413222
H       1.146819299      0.909169571      0.015808878
H       1.211738199     -0.949784303     -0.013080181
           6
  t=         0.50000    2    2
C      -0.666366103      0.002067775     -0.005350058
C       0.686658969     -0.000738527      0.001741122
H      -1.307362003      0.899765095      0.009884216
H      -1.299861169     -0.876551464      0.032593038
H       1.150300528      0.918345219      0.016336645
H       1.215119221     -0.957397463     -0.015810196
           6
  t=         1.00000    2    2
C      -0.672122459      0.002612312     -0.004385297
C       0.689962684     -0.001719420      0.001677636
H      -1.300947863      0.900806360      0.002794220
H      -1.288372807     -0.879895332      0.030847250
H       1.157868722      0.931691531      0.018021138
H       1.218873075     -0.963241434     -0.019397491
           6
  t=         1.50000    2    2
C      -0.679161618      0.003233279     -0.003431142
C       0.694080570     -0.003053053      0.001598832
H      -1.292919036      0.901550817     -0.005417990
H      -1.276415231     -0.884339553      0.030271370
H       1.168729144      0.947588166      0.020893298
H       1.222834871     -0.966946145     -0.023911259
           6
  t=         2.00000    2    2
C      -0.687244801      0.003920391     -0.002487490
C       0.698954165     -0.004596232      0.001506795
H      -1.283852088      0.902424066     -0.014846646
H      -1.264552388     -0.890224003      0.030984138
H       1.181948523      0.964188032      0.024991972
H       1.226929799     -0.968333948     -0.029440889
           6
  t=         2.50000    2    2
C      -0.696109014      0.004650078     -0.001554113
C       0.704497561     -0.006195505      0.001405268
H      -1.274407751      0.903936217     -0.025605385
H      -1.253312302     -0.897807665      0.033115713
H       1.196595746      0.979700891      0.030356308
H       1.231167608     -0.967413333     -0.036089397
           6
  t=         3.00000    2    2
C      -0.705485374      0.005384853     -0.000629763
C       0.710600027     -0.007702931      0.001299617
H      -1.265272800      0.906619224     -0.037824467
H      -1.243137849     -0.907199915      0.036795414
H       1.211828200      0.992578291      0.037021015
H       1.235636096     -0.964374575     -0.043969358
           6
  t=         3.50000    2    2
C      -0.715113991      0.006076099      0.000288604
C       0.717128526     -0.008985426      0.001196676
H      -1.257089165      0.910941641     -0.051649834
H      -1.234351465     -0.918310138      0.042143256
H       1.226941792      1.001605900      0.045017686
H       1.240492174     -0.959568980     -0.053204141
           6
  t=         4.00000    2    2
C      -0.724755229      0.006670528      0.001206085
C       0.723931303     -0.009930132      0.001104723
H      -1.250381242      0.917208555     -0.067234541
H      -1.227138720     -0.930823757      0.049259207
H       1.241389263      1.005934162      0.054375039
H       1.245945893     -0.953476492     -0.063928747
           6
  t=         4.50000    2    2
C      -0.734204543      0.007119507      0.002129478
C       0.730849752     -0.010449605      0.001033534
H      -1.245493384      0.925463951     -0.084722759
H      -1.221553621     -0.944213120      0.058211492
H       1.254786063      1.005086816      0.065118946
H       1.252232782     -0.946654952     -0.076290591
           6
  t=         5.00000    2    2
C      -0.743301645      0.007388548      0.003066462
C       0.737730240     -0.010487823      0.000994301
H      -1.242558877      0.935434035     -0.104231258
H      -1.217546666     -0.957791929      0.069027560
H       1.266913728      0.998957090      0.077274444
H       1.259575799     -0.939666662     -0.090450255
           6
  t=         5.50000    2    2
C      -0.751921706      0.007462575      0.004024527
C       0.744424337     -0.010023684      0.000999238
H      -1.241517307      0.946540730     -0.125834711
H      -1.215009661     -0.970795540      0.081691360
H       1.277714518      0.987772401      0.090870704
H       1.268145264     -0.932997400     -0.106580973
           6
  t=         6.00000    2    2
C      -0.759965861      0.007346971      0.005010009
C       0.750789619     -0.009075373      0.001060443
H      -1.242157944      0.957962032     -0.149553649
H      -1.213813340     -0.982456478      0.096141751
H       1.287291789      0.972076242      0.105947766
H       1.278016915     -0.926983616     -0.124860749
           6
  t=         6.50000    2    2
C      -0.767352973      0.007064747      0.006027430
C       0.756691110     -0.007703373      0.001187873
H      -1.244179104      0.968728171     -0.175353320
H      -1.213836041     -0.992067703      0.112278188
H       1.295914014      0.952709974      0.122570657
H       1.289140404     -0.921757416     -0.145461366
           6
  t=         7.00000    1    1
C      -0.774015475      0.006651912      0.007079385
C       0.762004015     -0.006010822      0.001386659
H      -1.247250254      0.977828954     -0.203162335
H      -1.214984302     -0.999031226      0.129980533
H       1.304023072      0.930787672      0.140858465
H       1.301331792     -0.917220792     -0.168545204
           6
  t=         7.50000    1    1
C      -0.784165321      0.001557892      0.003522962
C       0.761721473     -0.008722862     -0.002972211
H      -1.305593238      0.929831622     -0.285426680
H      -1.271739070     -1.057761115      0.092883386
H       1.257289626      0.853200953      0.104597642
H       1.259358044     -0.968005711     -0.246719711
           6
  t=         8.00000    1    1
C      -0.793092930     -0.003943459     -0.000204559
C       0.759683634     -0.012270898     -0.007550904
H      -1.363791116      0.880016292     -0.364544160
H      -1.326777299     -1.110086710      0.054408430
H       1.215571529      0.783811333      0.068268676
H       1.216859057     -1.016758957     -0.321937037
           6
  t=         8.50000    1    1
C      -0.800952271     -0.010006560     -0.004223243
C       0.755244401     -0.017947535     -0.012542923
H      -1.421003197      0.828476874     -0.439760470
H      -1.378320119     -1.153925467      0.015136863
H       1.186178222      0.735018834      0.033141569
H       1.173439171     -1.060814715     -0.393066322
           6
  t=         9.00000    1    1
C      -0.807900885     -0.016700773     -0.008661890
C       0.747806820     -0.026882551     -0.018056336
H      -1.476108913      0.775176290     -0.510233933
H      -1.424997356     -1.188153455     -0.024274772
H       1.175641115      0.717957656     -0.000540485
H       1.129066548     -1.098105486     -0.459026529
           6
  t=         9.50000    1    1
C      -0.814147446     -0.024066845     -0.013642547
C       0.737229840     -0.039378716     -0.024094338
H      -1.527760875      0.720127017     -0.575158313
H      -1.465670666     -1.212213725     -0.063126000
H       1.185448627      0.734796140     -0.033632921
H       1.083934261     -1.127275800     -0.518976607
           6
  t=        10.00000    1    1
C      -0.819893449     -0.032135592     -0.019276578
C       0.723877958     -0.054808940     -0.030647327
H      -1.574619158      0.663531046     -0.633743938
H      -1.499410969     -1.225956817     -0.100765127
H       1.211091649      0.777389009     -0.067039879
H       1.038340111     -1.147636849     -0.572241208
           6
  t=        10.50000    1    1
C      -0.825327826     -0.040919924     -0.025657183
C       0.708387528     -0.072093812     -0.037758831
H      -1.615478269      0.605797638     -0.685290057
H      -1.525523022     -1.229611832     -0.136620252
H       1.244942072      0.832698902     -0.100886656
H       0.992680147     -1.159039495     -0.618338481
           6
  t=        11.00000    1    1
C      -0.830618191     -0.050423346     -0.032873888
C       0.691302476     -0.090340756     -0.045501312
H      -1.649344668      0.547548921     -0.729156307
H      -1.543451529     -1.223649180     -0.170151008
H       1.280545035      0.890222391     -0.134732935
H       0.947376388     -1.161725922     -0.656959276
           6
  t=        11.50000    1    1
C      -0.835903402     -0.060640328     -0.041001112
C       0.673004049     -0.108952880     -0.053926268
H      -1.675634752      0.489654539     -0.764925235
H      -1.552819811     -1.208884999     -0.200872211
H       1.313664858      0.943285829     -0.168059690
H       0.902816000     -1.156254236     -0.688024870
           6
  t=        12.00000    1    1
C      -0.841294546     -0.071568877     -0.050096760
C       0.653726820     -0.127548855     -0.063066323
H      -1.694111229      0.433305452     -0.792385685
H      -1.553288727     -1.186400366     -0.228310630
H       1.341789805      0.987958111     -0.200443579
H       0.859462857     -1.143370773     -0.711564293
           6
  t=        12.50000    1    1
C      -0.846864042     -0.083198771     -0.060193157
C       0.633603418     -0.145880196     -0.072937115
H      -1.704881303      0.379651521     -0.811503838
H      -1.544656795     -1.157277415     -0.252086725
H       1.363503766      1.022076023     -0.231540516
H       0.817921365     -1.124062703     -0.727763460
           6
  t=        13.00000    1    1
C      -0.852634468     -0.095496909     -0.071295364
C       0.612705050     -0.163757616     -0.083532551
H      -1.708342265      0.329787302     -0.822432038
H      -1.527116827     -1.122841481     -0.271917805
H       1.378053787      1.044553758     -0.261054794
H       0.778955107     -1.099663363     -0.737060722
           6
  t=        13.50000    1    1
C      -0.858579574     -0.108390393     -0.083371223
C       0.591074649     -0.181002112     -0.094812340
H      -1.705206698      0.285176065     -0.825717869
H      -1.501489117     -1.085373232     -0.287503737
H       1.385192823      1.055072402     -0.288735698
H       0.743519675     -1.072037982     -0.740322625
           6
  t=        14.00000    1    1
C      -0.864619669     -0.121747087     -0.096344849
C       0.568751583     -0.197399812     -0.106690931
H      -1.696503553      0.247397191     -0.822242004
H      -1.469318735     -1.048076375     -0.298673832
H       1.384955586      1.053708563     -0.314344159
H       0.712735688     -1.043761763     -0.739001888
           6
  t=        14.50000    1    1
C      -0.870612921     -0.135365464     -0.110098381
C       0.545782628     -0.212659368     -0.119022246
H      -1.683571471      0.218003402     -0.813133359
H      -1.432684229     -1.015002996     -0.305517652
H       1.377382275      1.040555069     -0.337622637
H       0.687732751     -1.018301139     -0.735282551
           6
  t=        15.00000    1    1
C      -0.876345762     -0.148951928     -0.124467185
C       0.522233692     -0.226415381     -0.131609876
H      -1.668011300      0.198456287     -0.799692384
H      -1.394180328     -0.991230786     -0.308555443
H       1.362339097      1.015527062     -0.358298871
H       0.669510111     -0.999807503     -0.731918278
           6
  t=        15.50000    1    1
C      -0.881554090     -0.162129755     -0.139242521
C       0.498212719     -0.238299790     -0.144261349
H      -1.651662281      0.190044978     -0.783328651
H      -1.356864621     -0.982642692     -0.308765750
H       1.339435518      0.978328497     -0.376097798
H       0.658921899     -0.992265605     -0.731576730
           6
  t=        16.00000    1    1
C      -0.886011390     -0.174549151     -0.154206764
C       0.473885403     -0.248059165     -0.156856532
H      -1.636575839      0.193754141     -0.765476297
H      -1.323500950     -0.994473661     -0.307263515
H       1.308197178      0.928723589     -0.390780843
H       0.656584353     -0.998377196     -0.735971988
           6
  t=        16.50000    1    1
C      -0.889642464     -0.186049352     -0.169185957
C       0.449510804     -0.255635903     -0.169405175
H      -1.624801170      0.210129231     -0.747387138
H      -1.295770785     -1.029419841     -0.304914452
H       1.268326554      0.866848868     -0.402163795
H       0.662542727     -1.018730124     -0.745127398
           6
  t=        17.00000    1    1
C      -0.892605659     -0.196799476     -0.184101063
C       0.425458022     -0.261181545     -0.182054479
H      -1.617971436      0.239205282     -0.729800260
H      -1.273649681     -1.085965062     -0.302086963
H       1.219791394      0.793387479     -0.410114264
H       0.675926757     -1.051737851     -0.757255629
           6
  t=        17.50000    1    1
C      -0.895282752     -0.207283911     -0.198973515
C       0.402137323     -0.265093658     -0.195024324
H      -1.616732188      0.280085873     -0.712684352
H      -1.255682804     -1.157977206     -0.298797118
H       1.163234985      0.710183378     -0.414747168
H       0.694944377     -1.093970943     -0.769381604
           6
  t=        18.00000    1    1
C      -0.898155427     -0.218073323     -0.213889513
C       0.379910018     -0.267909059     -0.208517983
H      -1.620620836      0.331201115     -0.695357124
H      -1.240284873     -1.237695688     -0.294890740
H       1.100154500      0.620050111     -0.416435737
H       0.717484857     -1.141237223     -0.778519289
           6
  t=        18.50000    1    1
C      -0.901697924     -0.229595618     -0.228951219
C       0.358996768     -0.270222161     -0.222660563
H      -1.628212815      0.390321581     -0.676660289
H      -1.226570929     -1.318375038     -0.290368593
H       1.033151093      0.526921399     -0.415855724
H       0.741659135     -1.189804862     -0.782442393
           6
  t=        19.00000    1    1
C      -0.906383055     -0.242074137     -0.244254113
C       0.339421613     -0.272746063     -0.237475865
H      -1.637437744      0.454224792     -0.655255257
H      -1.214458942     -1.394662095     -0.285345177
H       0.966989163      0.437061234     -0.414070553
H       0.765897791     -1.236910218     -0.779890267
           6
  t=        19.50000    1    1
C      -0.912628893     -0.255547850     -0.259862553
C       0.320830126     -0.276454594     -0.252841062
H      -1.646221487      0.519751287     -0.630073208
H      -1.204291063     -1.463399600     -0.279985612
H       0.910298671      0.360674746     -0.413204372
H       0.789043719     -1.280688014     -0.770339167
           6
  t=        20.00000    1    1
C      -0.920841776     -0.269977682     -0.275792458
C       0.302536759     -0.282581674     -0.268503564
H      -1.652779960      0.583487063     -0.600538567
H      -1.196845001     -1.522224784     -0.274508059
H       0.875988779      0.311466000     -0.416447282
H       0.810191988     -1.319553709     -0.753776474
           6
  t=        20.50000    1    1
C      -0.931336975     -0.285292910     -0.292020404
C       0.284154841     -0.291892180     -0.284286783
H      -1.655855002      0.642361536     -0.566667237
H      -1.192995921     -1.569500768     -0.269044228
H       0.872906812      0.297834718     -0.425634689
H       0.828476361     -1.352202005     -0.730602483
           6
  t=        21.00000    1    1
C      -0.944342929     -0.301397387     -0.308491164
C       0.266006193     -0.304342108     -0.300203692
H      -1.654543838      0.693777229     -0.528929965
H      -1.193346962     -1.604048614     -0.263640161
H       0.900462179      0.318625763     -0.440045436
H       0.843075080     -1.377729228     -0.701525023
           6
  t=        21.50000    1    1
C      -0.959915535     -0.318123457     -0.325125818
C       0.249063853     -0.319115298     -0.316434353
H      -1.648367518      0.735621761     -0.488006907
H      -1.197918427     -1.625363067     -0.258447218
H       0.948054471      0.363180322     -0.456930177
H       0.853201556     -1.395592249     -0.667256757
           6
  t=        22.00000    1    1
C      -0.978035288     -0.335299017     -0.341832925
C       0.234449570     -0.335207463     -0.333168566
H      -1.637367193      0.766306195     -0.444730395
H      -1.206482479     -1.633205802     -0.253591737
H       1.002537562      0.418127674     -0.473449517
H       0.858216434     -1.405087249     -0.628506401
           6
  t=        22.50000    1    1
C      -0.998639744     -0.352784176     -0.358503225
C       0.222869012     -0.351954744     -0.350494590
H      -1.621799758      0.784603399     -0.400238666
H      -1.219159885     -1.627615545     -0.248913877
H       1.055472103      0.474545471     -0.487763460
H       0.857784128     -1.405603210     -0.586385799
           6
  t=        23.00000    1    1
C      -1.021555537     -0.370478178     -0.375038610
C       0.214591881     -0.368954363     -0.368387708
H      -1.602168798      0.789865181     -0.355439511
H      -1.236278542     -1.608815616     -0.244513343
H       1.102236760      0.527668617     -0.499352865
H       0.852078017     -1.397503484     -0.541870112
           6
  t=        23.50000    1    1
C      -1.046470260     -0.388322495     -0.391331808
C       0.209587437     -0.385885495     -0.386774599
H      -1.579134420      0.781693798     -0.310791830
H      -1.258484769     -1.576973003     -0.241204911
H       1.140127936      0.574866492     -0.508784977
H       0.841751875     -1.382112991     -0.495270332
           6
  t=        24.00000    1    1
C      -1.072900406     -0.406127852     -0.407265806
C       0.207636637     -0.402358092     -0.405600959
H      -1.553363663      0.759451819     -0.267027131
H      -1.286449153     -1.533701651     -0.239489890
H       1.166697936      0.613557672     -0.516363556
H       0.827439730     -1.361501907     -0.447091233
           6
  t=        24.50000    1    1
C      -1.100217770     -0.423551925     -0.422803022
C       0.208258501     -0.418055307     -0.424782552
H      -1.525674030      0.723247145     -0.225007358
H      -1.320568195     -1.482785652     -0.238922512
H       1.180486295      0.641830440     -0.522218092
H       0.810061788     -1.337936829     -0.398238695
           6
  t=        25.00000    1    1
C      -1.127757140     -0.440198174     -0.437999643
C       0.210765642     -0.432814485     -0.444197503
H      -1.497152538      0.674531137     -0.185508534
H      -1.361118933     -1.429394878     -0.238255792
H       1.181395147      0.658966616     -0.526486241
H       0.791344182     -1.313644231     -0.349828738
           6
  t=        25.50000    1    1
C      -1.154934277     -0.455629587     -0.452961840
C       0.214516154     -0.446515029     -0.463725591
H      -1.469213627      0.615632384     -0.149092290
H      -1.408717397     -1.379741969     -0.235997921
H       1.169823172      0.664854647     -0.529491804
H       0.773605874     -1.291272798     -0.302635153
           6
  t=        26.00000    1    1
C      -1.181185508     -0.469389528     -0.467815762
C       0.218951805     -0.459028537     -0.483288261
H      -1.443571187      0.549486405     -0.116024655
H      -1.464552663     -1.340764374     -0.230688244
H       1.146151288      0.659545661     -0.531797567
H       0.759304034     -1.273842877     -0.256722665
           6
  t=        26.50000    1    1
C      -1.205932864     -0.481197958     -0.482703829
C       0.223534289     -0.470292955     -0.502845068
H      -1.422079777      0.479952936     -0.086147755
H      -1.529889761     -1.318261556     -0.221029331
H       1.111030670      0.643481818     -0.534025106
H       0.750434506     -1.263933158     -0.211709915
           6
  t=        27.00000    1    1
C      -1.228707516     -0.491243624     -0.497742824
C       0.227817322     -0.480343368     -0.522366859
H      -1.406433105      0.412174823     -0.058633071
H      -1.605020666     -1.314110374     -0.206619248
H       1.065302204      0.617305659     -0.536671359
H       0.747873438     -1.262785030     -0.167286218
           6
  t=        27.50000    1    1
C      -1.249299570     -0.500190969     -0.512984672
C       0.231561808     -0.489323870     -0.541810032
H      -1.397899223      0.351993590     -0.031782063
H      -1.688609318     -1.325724819     -0.188544146
H       1.009814427      0.581633886     -0.540097816
H       0.751052237     -1.269808516     -0.123603326
           6
  t=        28.00000    1    1
C      -1.267718307     -0.508858839     -0.528420419
C       0.234653571     -0.497481697     -0.561092864
H      -1.397250827      0.304132150     -0.003466511
H      -1.777787046     -1.347788524     -0.168945682
H       0.945476387      0.537204925     -0.544573270
H       0.758436966     -1.283078180     -0.081459468
           6
  t=        28.50000    1    1
C      -1.284146237     -0.517902913     -0.543961889
C       0.237004709     -0.505168798     -0.580087217
H      -1.404551967      0.270832245      0.027895616
H      -1.868713172     -1.374568099     -0.150403288
H       0.873671017      0.485401723     -0.550340995
H       0.768090192     -1.299945586     -0.042191522
           6
  t=        29.00000    1    1
C      -1.298836254     -0.527638899     -0.559437480
C       0.238477510     -0.512812333     -0.598637977
H      -1.419086090      0.251406884      0.062399621
H      -1.957761596     -1.401665288     -0.135140906
H       0.796519213      0.428793879     -0.557614793
H       0.778202704     -1.317839785     -0.007350064
           6
  t=        29.50000    1    1
C      -1.312036776     -0.538081097     -0.574602683
C       0.238841394     -0.520952221     -0.616614437
H      -1.439717486      0.243029408      0.098542985
H      -2.042211847     -1.426342292     -0.124689083
H       0.717269853      0.372013044     -0.566438928
H       0.787377033     -1.334699690      0.021671286
           6
  t=        30.00000    1    1
C      -1.323969771     -0.549090241     -0.589159843
C       0.237734079     -0.530337876     -0.633940333
H      -1.465263608      0.242016682      0.133685369
H      -2.119967617     -1.446899286     -0.120062352
H       0.640556641      0.322906010     -0.576482542
H       0.794662345     -1.349118477      0.043741029
           6
  t=        30.50000    1    1
C      -1.334827636     -0.560514909     -0.602837140
C       0.234741361     -0.541902635     -0.650590501
H      -1.494591704      0.245134957      0.165150277
H      -2.189348982     -1.462281645     -0.121955055
H       0.571442402      0.292028406     -0.587015833
H       0.799411205     -1.360155566      0.057961439
           6
  t=        31.00000    1    1
C      -1.344772043     -0.572227352     -0.615429307
C       0.229628996     -0.556425311     -0.666593613
H      -1.526732707      0.250040592      0.190814624
H      -2.249384193     -1.472129816     -0.130716057
H       0.513088034      0.288503736     -0.597092135
H       0.801239507     -1.367192540      0.063753568
           6
  t=        31.50000    1    1
C      -1.353943164     -0.584143858     -0.626805024
C       0.222463423     -0.574070593     -0.681961612
H      -1.560773510      0.255176010      0.209235610
H      -2.299534638     -1.476462982     -0.146495822
H       0.465153732      0.314461538     -0.606190850
H       0.799913899     -1.369817261      0.060767596
           6
  t=        32.00000    1    1
C      -1.362469726     -0.596199904     -0.636882836
C       0.213531697     -0.594239483     -0.696671401
H      -1.595825648      0.259390898      0.219431276
H      -2.339550342     -1.475556442     -0.169293652
H       0.424738685      0.363272188     -0.614554099
H       0.795310181     -1.367880800      0.048981119
           6
  t=        32.50000    1    1
C      -1.370468066     -0.608335933     -0.645616974
C       0.203122056     -0.615947753     -0.710683423
H      -1.631093479      0.261789155      0.220684495
H      -2.369317606     -1.469867665     -0.198962796
H       0.388867807      0.424050703     -0.622882255
H       0.787445793     -1.361582023      0.028648168
           6
  t=        33.00000    1    1
C      -1.378043243     -0.620501900     -0.652985867
C       0.191406379     -0.638245590     -0.723980450
H      -1.665899843      0.261683629      0.212451393
H      -2.388759867     -1.459928899     -0.235259734
H       0.355741774      0.486804576     -0.631896357
H       0.776570101     -1.351622988      0.000327815
           6
  t=        33.50000    1    1
C      -1.385293763     -0.632666911     -0.659000730
C       0.178437980     -0.660382312     -0.736592691
H      -1.699653139      0.258611417      0.194409009
H      -2.397830580     -1.446269229     -0.277835497
H       0.324626765      0.544491682     -0.642091984
H       0.763317310     -1.339282575     -0.035016766
           6
  t=        34.00000    1    1
C      -1.392304233     -0.644818643     -0.663697664
C       0.164169336     -0.681790880     -0.748590382
H      -1.731853907      0.252267645      0.166431127
H      -2.396432365     -1.429366890     -0.326299790
H       0.295480382      0.592651742     -0.653754088
H       0.748707347     -1.326220904     -0.076097639
           6
  t=        34.50000    1    1
C      -1.399127962     -0.656956589     -0.667138302
C       0.148470663     -0.702052142     -0.760088027
H      -1.762152701      0.242530050      0.128644174
H      -2.384492985     -1.409716586     -0.380213708
H       0.268636161      0.628820411     -0.666975738
H       0.734166723     -1.314357189     -0.121288277
           6
  t=        35.00000    1    1
C      -1.405772550     -0.669074346     -0.669415235
C       0.131152429     -0.720835153     -0.771253778
H      -1.790304696      0.229535147      0.081439753
H      -2.362282707     -1.388054898     -0.439025997
H       0.244476297      0.651805410     -0.681672555
H       0.721687619     -1.305918796     -0.168508983
           6
  t=        35.50000    1    1
C      -1.412182660     -0.681140942     -0.670658659
C       0.111999831     -0.737843601     -0.782278578
H      -1.816082639      0.213692427      0.025437152
H      -2.330887543     -1.365659965     -0.501999246
H       0.223287883      0.660980286     -0.697662568
H       0.713741843     -1.303310451     -0.215471831
           6
  t=        36.00000    1    1
C      -1.418217483     -0.693091257     -0.671034671
C       0.090833417     -0.752831343     -0.793310310
H      -1.839274790      0.195709094     -0.038508225
H      -2.292592360     -1.344587435     -0.568249353
H       0.205265174      0.656052103     -0.714749022
H       0.712668719     -1.308599662     -0.260371795
           6
  t=        36.50000    1    1
C      -1.423635638     -0.704822630     -0.670746104
C       0.067594838     -0.765649542     -0.804393947
H      -1.859801240      0.176690090     -0.109157732
H      -2.251067167     -1.327804452     -0.636882769
H       0.190505192      0.636925314     -0.732770692
H       0.719780394     -1.322825458     -0.302549552
           6
  t=        37.00000    1    1
C      -1.428107710     -0.716200050     -0.670013982
C       0.042413468     -0.776288688     -0.815453230
H      -1.877871452      0.158173906     -0.184902873
H      -2.211153911     -1.319077203     -0.707214560
H       0.179003534      0.603658695     -0.751560266
H       0.734665894     -1.345541007     -0.342740823
           6
  t=        37.50000    1    1
C      -1.431294495     -0.727106975     -0.669026234
C       0.015592787     -0.784874140     -0.826334997
H      -1.894050280      0.142007948     -0.264016571
H      -2.177774958     -1.322206944     -0.779088773
H       0.170693798      0.556555341     -0.770897873
H       0.755220825     -1.374990454     -0.382634275
           6
  t=        38.00000    1    1
C      -1.432979675     -0.737527214     -0.667905416
C      -0.012459164     -0.791629586     -0.836873415
H      -1.909209719      0.130179518     -0.344963075
H      -2.154252529     -1.339830619     -0.852905721
H       0.165455514      0.496309532     -0.790510561
H       0.778320197     -1.408745991     -0.424153948
           6
  t=        38.50000    1    1
C      -1.433244993     -0.747623940     -0.666744924
C      -0.041272282     -0.796858958     -0.846940620
H      -1.924285774      0.124410158     -0.426624955
H      -2.140733363     -1.371992771     -0.928919891
H       0.163079840      0.424308917     -0.810099588
H       0.800628061     -1.444306404     -0.468872258
           6
  t=        39.00000    1    1
C      -1.432478406     -0.757701459     -0.665680500
C      -0.070367972     -0.800906231     -0.856462568
H      -1.939920891      0.125616006     -0.508469639
H      -2.134537131     -1.416163784     -1.006263149
H       0.163399592      0.342786271     -0.829329102
H       0.819193693     -1.479625499     -0.517790576
           6
  t=        39.50000    1    1
C      -1.431257714     -0.768077436     -0.664909104
C      -0.099281936     -0.804168913     -0.865418713
H      -1.956199671      0.133436669     -0.590252221
H      -2.131911394     -1.468401395     -1.082933951
H       0.166545873      0.255163359     -0.847974440
H       0.831570591     -1.513185148     -0.571277926
           6
  t=        40.00000    1    1
C      -1.430219642     -0.778963523     -0.664649964
C      -0.127613128     -0.807153537     -0.873832294
H      -1.972531602      0.146178367     -0.671779525
H      -2.129520141     -1.524675049     -1.156456810
H       0.173266344      0.166619505     -0.865927610
H       0.835892849     -1.543943783     -0.629221807
           6
  t=        40.50000    1    1
C      -1.429972477     -0.790417541     -0.665094228
C      -0.155075356     -0.810537766     -0.881763479
H      -1.987843791      0.161185651     -0.752737053
H      -2.125159593     -1.581672683     -1.224610179
H       0.185329854      0.084695843     -0.883160043
H       0.830952928     -1.571335377     -0.691192218
           6
  t=        41.00000    1    1
C      -1.431057047     -0.802382776     -0.666397615
C      -0.181504280     -0.815107377     -0.889292916
H      -2.001053893      0.175677130     -0.832495479
H      -2.117643119     -1.637042973     -1.285728719
H       0.205668382      0.018345887     -0.899755824
H       0.816035991     -1.595196100     -0.756583299
           6
  t=        41.50000    1    1
C      -1.433982255     -0.814741664     -0.668692324
C      -0.206746107     -0.821532262     -0.896516192
H      -2.011350926      0.187296728     -0.909975075
H      -2.106316488     -1.689206583     -1.338662026
H       0.237518450     -0.024975170     -0.916003948
H       0.790671678     -1.615623033     -0.824621930
           6
  t=        42.00000    1    1
C      -1.439156999     -0.827352990     -0.672076060
C      -0.230525065     -0.829970128     -0.903550623
H      -2.018290259      0.194182215     -0.983909607
H      -2.090850997     -1.736994869     -1.382742528
H       0.281728326     -0.044031757     -0.932215119
H       0.754824657     -1.632961647     -0.894369103
           6
  t=        42.50000    1    1
C      -1.446908994     -0.840104996     -0.676623934
C      -0.252311273     -0.840021362     -0.910528930
H      -2.021680776      0.195011686     -1.053053086
H      -2.071130085     -1.779489306     -1.417574017
H       0.335370325     -0.044076544     -0.948497107
H       0.708705999     -1.647649246     -0.964882811
           6
  t=        43.00000    1    1
C      -1.457478470     -0.852928288     -0.682377086
C      -0.271466245     -0.851080517     -0.917590576
H      -2.021571055      0.189045697     -1.116358640
H      -2.047277948     -1.816063123     -1.443040705
H       0.393411831     -0.032608160     -0.964724835
H       0.652775597     -1.660115689     -1.035298755
           6
  t=        43.50000    1    1
C      -1.471000030     -0.865782514     -0.689348283
C      -0.287470691     -0.862630128     -0.924864458
H      -2.018209099      0.176079884     -1.173049604
H      -2.019696953     -1.846474728     -1.459253952
H       0.451133464     -0.015853519     -0.980594420
H       0.587819421     -1.670818060     -1.104898108
           6
  t=        44.00000    1    1
C      -1.487465267     -0.878642102     -0.697551394
C      -0.300050812     -0.874295462     -0.932451782
H      -2.011940246      0.156273271     -1.222539397
H      -1.989026614     -1.870803386     -1.466408347
H       0.504990893      0.001882820     -0.995687558
H       0.515003952     -1.680301472     -1.173119979
           6
  t=        44.50000    1    1
C      -1.506680906     -0.891498070     -0.707015622
C      -0.309213327     -0.885807083     -0.940418503
H      -2.003176319      0.129993594     -1.264436095
H      -1.956078596     -1.889185766     -1.464660917
H       0.552433163      0.017704476     -1.009509491
H       0.435880696     -1.689218140     -1.239560132
           6
  t=        45.00000    1    1
C      -1.528312581     -0.904353722     -0.717789320
C      -0.315177626     -0.896971774     -0.948793940
H      -1.992380236      0.097659216     -1.298476577
H      -1.921692628     -1.901622333     -1.454058156
H       0.591646454      0.029723361     -1.021565455
H       0.352196121     -1.698360825     -1.304004470
           6
  t=        45.50000    1    1
C      -1.551935856     -0.917217090     -0.729916013
C      -0.318296767     -0.907635122     -0.957570822
H      -1.980169879      0.059839064     -1.324510719
H      -1.886744140     -1.908129677     -1.434710962
H       0.621365636      0.036645050     -1.031456851
H       0.265858133     -1.708731656     -1.366458810
           6
  t=        46.00000    1    1
C      -1.577054421     -0.930085327     -0.743383938
C      -0.319010548     -0.917655264     -0.966701370
H      -1.967507996      0.017454740     -1.342614935
H      -1.852345995     -1.909091374     -1.407206758
H       0.640782016      0.037496095     -1.038987269
H       0.179077685     -1.721619536     -1.427165209
           6
  t=        46.50000    1    1
C      -1.603129277     -0.942943107     -0.758112215
C      -0.317762048     -0.926908863     -0.976104070
H      -1.955769708     -0.028145433     -1.353180788
H      -1.819772362     -1.905450260     -1.372710367
H       0.649477444      0.031569453     -1.044144068
H       0.093779225     -1.738375169     -1.486514957
           6
  t=        47.00000    1    1
C      -1.629603714     -0.955764750     -0.773938882
C      -0.314947824     -0.935338340     -0.985704179
H      -1.946700946     -0.075104583     -1.357050620
H      -1.790592432     -1.898788377     -1.332885936
H       0.647321106      0.018289136     -1.047044693
H       0.011500391     -1.759689490     -1.544704606
           6
  t=        47.50000    1    1
C      -1.655913729     -0.968501626     -0.790597887
C      -0.310925710     -0.942995626     -0.995488704
H      -1.942193473     -0.120847896     -1.355695331
H      -1.766730058     -1.891744584     -1.289780272
H       0.634380298     -0.002774200     -1.047809946
H      -0.066467139     -1.785029757     -1.601420689
           6
  t=        48.00000    1    1
C      -1.681534187     -0.981068987     -0.807717777
C      -0.306036370     -0.950040809     -1.005518434
H      -1.944077633     -0.162017061     -1.351282679
H      -1.749472236     -1.888225979     -1.245714872
H       0.611009735     -0.031728887     -1.046514498
H      -0.139558872     -1.812841161     -1.655801043
           6
  t=        48.50000    1    1
C      -1.706009153     -0.993352093     -0.824879064
C      -0.300650347     -0.956708647     -1.015879832
H      -1.954038628     -0.194868885     -1.346438869
H      -1.739588375     -1.892987993     -1.202939185
H       0.578128249     -0.068156697     -1.043315026
H      -0.207256496     -1.841099555     -1.706781533
           6
  t=        49.00000    1    1
C      -1.728984244     -1.005229127     -0.841716985
C      -0.295179979     -0.963286243     -1.026637237
H      -1.973450127     -0.216096852     -1.343701532
H      -1.737395612     -1.910538801     -1.163029399
H       0.537415508     -0.110878487     -1.038533417
H      -0.268858323     -1.867812955     -1.753506219
           6
  t=        49.50000    1    1
C      -1.750213367     -1.016634851     -0.858037525
C      -0.290079050     -0.970106703     -1.037821919
H      -2.003217707     -0.223702686     -1.344765175
H      -1.742779811     -1.943388930     -1.126307938
H       0.491321356     -0.157812544     -1.032622948
H      -0.323547961     -1.891358992     -1.795444097
           6
  t=        50.00000    1    1
C      -1.769547139     -1.027603102     -0.873856502
C      -0.285813472     -0.977537890     -1.049456319
H      -2.043556452     -0.217798138     -1.349925007
H      -1.755598035     -1.990804631     -1.091964358
H       0.442829692     -0.206111012     -1.026083100
H      -0.370465503     -1.910420983     -1.832155059
           6
  t=        50.50000    1    1
C      -1.786911382     -1.038232496     -0.889350491
C      -0.282884552     -0.986015138     -1.061572055
H      -2.093936318     -0.200958339     -1.358024437
H      -1.775867195     -2.048921459     -1.058807046
H       0.395824055     -0.251737379     -1.019289885
H      -0.408918101     -1.923962401     -1.863130532
           6
  t=        51.00000    1    1
C      -1.802296124     -1.048601240     -0.904756021
C      -0.281863483     -0.996051607     -1.074210090
H      -2.153043829     -0.177375346     -1.367024180
H      -1.803471353     -2.112653543     -1.025985812
H       0.355292586     -0.289184429     -1.012295337
H      -0.438636000     -1.931337717     -1.887901452
           6
  t=        51.50000    1    1
C      -1.815765439     -1.058758218     -0.920292598
C      -0.283340685     -1.008150118     -1.087422063
H      -2.218776846     -0.151624313     -1.374686477
H      -1.837818770     -2.177033476     -0.993167026
H       0.326475723     -0.312436629     -1.004742789
H      -0.459754751     -1.932380792     -1.906164996
           6
  t=        52.00000    1    1
C      -1.827450911     -1.068763302     -0.936120321
C      -0.287722685     -1.022597441     -1.101258043
H      -2.288775215     -0.127550309     -1.379112183
H      -1.878068733     -2.237782183     -0.960321353
H       0.312725301     -0.317525557     -0.996071533
H      -0.472415107     -1.927363555     -1.917906055
           6
  t=        52.50000    1    1
C      -1.837525877     -1.078674188     -0.952320130
C      -0.295048854     -1.039259928     -1.115719154
H      -2.360724184     -0.108274231     -1.378893180
H      -1.923505838     -2.291388490     -0.927650629
H       0.313395615     -0.305074406     -0.986094464
H      -0.476466959     -1.916958164     -1.923540187
           6
  t=        53.00000    1    1
C      -1.846188336     -1.088524667     -0.968899719
C      -0.305029099     -1.057625483     -1.130729769
H      -2.432576914     -0.096082235     -1.373152445
H      -1.973422248     -2.335371075     -0.895566597
H       0.324368366     -0.279901659     -0.975316398
H      -0.471644056     -1.902240569     -1.923837303
           6
  t=        53.50000    1    1
C      -1.853655255     -1.098335854     -0.985825261
C      -0.317225772     -1.077013211     -1.146146308
H      -2.502635919     -0.092236664     -1.361454951
H      -2.026719514     -2.368306110     -0.864754585
H       0.340390469     -0.248349114     -0.964703539
H      -0.458118813     -1.884892225     -1.919694832
           6
  t=        54.00000    1    1
C      -1.860144798     -1.108133462     -1.003043578
C      -0.331221947     -1.096752475     -1.161778161
H      -2.569452061     -0.097263184     -1.343682290
H      -2.082272408     -2.389532698     -0.835908940
H       0.356920987     -0.216025087     -0.955299304
H      -0.436293035     -1.867124732     -1.912398309
           6
  t=        54.50000    1    1
C      -1.865875851     -1.117958009     -1.020486924
C      -0.346679873     -1.116230774     -1.177377324
H      -2.631661071     -0.111353321     -1.319952824
H      -2.139039911     -2.398728930     -0.809716141
H       0.370685017     -0.187046834     -0.948049786
H      -0.406713446     -1.851766762     -1.903959186
           6
  t=        55.00000    1    1
C      -1.871072292     -1.127861029     -1.038078496
C      -0.363342123     -1.134886589     -1.192640143
H      -2.687932923     -0.134514642     -1.290564404
H      -2.196009860     -2.395797970     -0.786878566
H       0.379578047     -0.164079699     -0.943692497
H      -0.370017515     -1.842319092     -1.897173097
           6
  t=        55.50000    1    1
C      -1.875953775     -1.137890290     -1.055741365
C      -0.381025025     -1.152230592     -1.207257759
H      -2.737077543     -0.166541027     -1.255946196
H      -2.252209038     -2.380986258     -0.768050030
H       0.382319577     -0.148739714     -0.942743928
H      -0.326659259     -1.842386840     -1.895037527
           6
  t=        56.00000    1    1
C      -1.880717342     -1.148085123     -1.073397199
C      -0.399624141     -1.167923498     -1.221010136
H      -2.778107111     -0.207024505     -1.216647213
H      -2.306720745     -2.354829337     -0.753808265
H       0.378150904     -0.141981001     -0.945576877
H      -0.276681063     -1.854462449     -1.899608174
           6
  t=        56.50000    1    1
C      -1.885530985     -1.158482980     -1.090960592
C      -0.419080589     -1.181861003     -1.233861471
H      -2.810229675     -0.255260197     -1.173362679
H      -2.358647055     -2.318126520     -0.744644767
H       0.366618083     -0.144320322     -0.952469138
H      -0.220018754     -1.878731337     -1.910864826
           6
  t=        57.00000    1    1
C      -1.890536686     -1.169124000     -1.108338769
C      -0.439300142     -1.194190191     -1.245982052
H      -2.832878822     -0.310131629     -1.126963597
H      -2.407104134     -2.272029865     -0.740935022
H       0.347495699     -0.155867656     -0.963555998
H      -0.157328109     -1.912817037     -1.926502054
           6
  t=        57.50000    1    1
C      -1.895857741     -1.180043983     -1.125435758
C      -0.460097758     -1.205206088     -1.257664928
H      -2.845670507     -0.370198292     -1.078406226
H      -2.451289844     -2.218071015     -0.742978398
H       0.320687397     -0.176417758     -0.978819191
H      -0.090434707     -1.952891638     -1.942934223
           6
  t=        58.00000    1    1
C      -1.901592178     -1.191261365     -1.142154972
C      -0.481213099     -1.215234996     -1.269218886
H      -2.848498012     -0.433725420     -1.028660558
H      -2.490640469     -2.158276154     -0.750978013
H       0.286250377     -0.205501726     -0.998102573
H      -0.022000230     -1.995024874     -1.956615850
           6
  t=        58.50000    1    1
C      -1.907800964     -1.202770032     -1.158407219
C      -0.502375295     -1.224564570     -1.280890072
H      -2.841641615     -0.498552532     -0.978684629
H      -2.524901358     -2.095328569     -0.764942936
H       0.244475265     -0.242404507     -1.021138316
H       0.045209215     -2.036054200     -1.964977456
           6
  t=        59.00000    1    1
C      -1.914479799     -1.214535921     -1.174141751
C      -0.523349413     -1.233435683     -1.292842089
H      -2.825815119     -0.562040484     -0.929257202
H      -2.554260727     -2.032643365     -0.784599660
H       0.195894579     -0.286118778     -1.047562158
H       0.108712478     -2.073746718     -1.966533266
           6
  t=        59.50000    1    1
C      -1.921521631     -1.226492725     -1.189364264
C      -0.543959734     -1.242061224     -1.305175038
H      -2.802335557     -0.621112966     -0.880730535
H      -2.579615735     -1.974344790     -0.809429166
H       0.141356685     -0.335182865     -1.076898143
H       0.166505997     -2.106769532     -1.960665407
           6
  t=        60.00000    1    1
C      -1.928717798     -1.238550779     -1.204139097
C      -0.564102282     -1.250664279     -1.317955124
H      -2.772982999     -0.672545770     -0.832881786
H      -2.602764643     -1.924936118     -0.838763522
H       0.082259191     -0.387430169     -1.108512930
H       0.217045180     -2.134420373     -1.947342441
           6
  t=        60.50000    1    1
C      -1.935796227     -1.250605344     -1.218574511
C      -0.583778305     -1.259545195     -1.331236461
H      -2.739669273     -0.713265404     -0.784977893
H      -2.626309389     -1.888885739     -0.871892291
H       0.021002481     -0.439477532     -1.141492961
H       0.259216367     -2.156356726     -1.926986613
           6
  t=        61.00000    1    1
C      -1.942539126     -1.262564643     -1.232763749
C      -0.603100735     -1.269125076     -1.345078990
H      -2.703868583     -0.740827330     -0.736014874
H      -2.652919563     -1.869705831     -0.908480744
H      -0.038883115     -0.486368965     -1.174557096
H       0.292383539     -2.172542751     -1.900392506
           6
  t=        61.50000    1    1
C      -1.948926397     -1.274377904     -1.246710734
C      -0.622220720     -1.279905290     -1.359548574
H      -2.666065656     -0.754080937     -0.685128743
H      -2.684333652     -1.868901716     -0.949006869
H      -0.093415215     -0.522104211     -1.206249825
H       0.316349078     -2.183254851     -1.868570072
           6
  t=        62.00000    1    1
C      -1.955338022     -1.286026603     -1.260236981
C      -0.641100894     -1.292387386     -1.374720959
H      -2.625613034     -0.752959495     -0.632618003
H      -2.720399599     -1.886196289     -0.994669831
H      -0.139240863     -0.540945276     -1.235079026
H       0.331043020     -2.188819294     -1.832737967
           6
  t=        62.50000    1    1
C      -1.962131475     -1.297541449     -1.273150844
C      -0.659710223     -1.306944581     -1.390649085
H      -2.582007101     -0.739092098     -0.580109159
H      -2.759508930     -1.919131547     -1.045822784
H      -0.173896032     -0.539304807     -1.259559126
H       0.335778982     -2.188839296     -1.794054877
           6
  t=        63.00000    1    1
C      -1.969517379     -1.309033033     -1.285333740
C      -0.678014196     -1.323552365     -1.407282377
H      -2.534683033     -0.715442527     -0.529017518
H      -2.799472854     -1.963591332     -1.102627148
H      -0.197342608     -0.517551701     -1.279483144
H       0.329863738     -2.183072605     -1.753166692
           6
  t=        63.50000    1    1
C      -1.977866742     -1.320600070     -1.296622506
C      -0.695626544     -1.341789900     -1.424512381
H      -2.482994127     -0.685222746     -0.481057315
H      -2.837729184     -2.015363954     -1.165228682
H      -0.212555977     -0.480318943     -1.295715866
H       0.312881938     -2.171724272     -1.710585120
           6
  t=        64.00000    1    1
C      -1.987518070     -1.332301667     -1.306889234
C      -0.712071328     -1.361072166     -1.442200153
H      -2.426949332     -0.651330441     -0.438339697
H      -2.871797133     -2.070776333     -1.232971873
H      -0.223421101     -0.434330933     -1.309171826
H       0.284609121     -2.155111917     -1.667119740
           6
  t=        64.50000    1    1
C      -1.998647855     -1.344178898     -1.316092098
C      -0.727007034     -1.380817267     -1.460190078
H      -2.367237019     -0.616374166     -0.402697319
H      -2.899893879     -2.126575353     -1.304566169
H      -0.233358445     -0.386002429     -1.320666047
H       0.245404918     -2.133909595     -1.623766056
           6
  t=        65.00000    1    1
C      -2.011319238     -1.356255737     -1.324227660
C      -0.740265639     -1.400539941     -1.478337094
H      -2.305140618     -0.582715458     -0.375717352
H      -2.920758973     -2.179899903     -1.378432387
H      -0.244617457     -0.340220266     -1.330859328
H       0.196292036     -2.109226612     -1.581624748
           6
  t=        65.50000    1    1
C      -2.025506743     -1.368536301     -1.331329464
C      -0.751895384     -1.419838997     -1.496513642
H      -2.242125589     -0.552106353     -0.358441257
H      -2.933631251     -2.228680958     -1.453073751
H      -0.258334483     -0.300206931     -1.340245267
H       0.139382365     -2.082888859     -1.541777799
           6
  t=        66.00000    1    1
C      -2.041101302     -1.381014611     -1.337464621
C      -0.762163281     -1.438339333     -1.514615435
H      -2.179778092     -0.526026809     -0.351487113
H      -2.938256913     -2.271253964     -1.527018084
H      -0.274956807     -0.267864978     -1.349259211
H       0.078337594     -2.057719231     -1.505086930
           6
  t=        66.50000    1    1
C      -2.057922418     -1.393674654     -1.342731657
C      -0.771553982     -1.455618638     -1.532569956
H      -2.119822334     -0.505628701     -0.355028794
H      -2.934721558     -2.306414865     -1.598881873
H      -0.294486565     -0.244419350     -1.358368604
H       0.018593815     -2.037767875     -1.471984421
           6
  t=        67.00000    1    1
C      -2.075740924     -1.406493381     -1.347252338
C      -0.780724107     -1.471198750     -1.550357937
H      -2.064118381     -0.491773576     -0.368919784
H      -2.923343490     -2.333352995     -1.667357025
H      -0.316560625     -0.230734156     -1.368062447
H      -0.032940271     -2.028092073     -1.442214549
           6
  t=        67.50000    1    1
C      -2.094295144     -1.419435959     -1.351165192
C      -0.790327955     -1.484659183     -1.568029332
H      -2.014403003     -0.485031816     -0.392713698
H      -2.904809628     -2.351735275     -1.731322518
H      -0.340607962     -0.227256199     -1.378799194
H      -0.069733701     -2.033433162     -1.414640375
           6
  t=        68.00000    1    1
C      -2.113317263     -1.432447367     -1.354615346
C      -0.800754381     -1.495783162     -1.585654002
H      -1.972226782     -0.485834835     -0.425882105
H      -2.880019608     -2.361657779     -1.789776014
H      -0.365998135     -0.234191644     -1.390923269
H      -0.088524361     -2.056296119     -1.387886530
           6
  t=        68.50000    1    1
C      -2.132553097     -1.445462773     -1.357759171
C      -0.811970533     -1.504662566     -1.603230738
H      -1.938929021     -0.494518735     -0.467797719
H      -2.850023799     -2.363497368     -1.841785528
H      -0.392140287     -0.251594681     -1.404683616
H      -0.090933713     -2.095591488     -1.361414462
           6
  t=        69.00000    1    1
C      -2.151768516     -1.458425248     -1.360760888
C      -0.823638501     -1.511628971     -1.620644364
H      -1.915541464     -0.511178264     -0.517754126
H      -2.815983337     -2.357798510     -1.886542504
H      -0.418637203     -0.279475098     -1.420199591
H      -0.081982315     -2.147397699     -1.336035399
           6
  t=        69.50000    1    1
C      -2.170743572     -1.471307592     -1.363790230
C      -0.835345234     -1.517111575     -1.637711723
H      -1.902782560     -0.535378226     -0.574748615
H      -2.779152530     -2.345257941     -1.923510021
H      -0.445221880     -0.317770645     -1.437512903
H      -0.067507023     -2.206725365     -1.313407190
           6
  t=        70.00000    1    1
C      -2.189261783     -1.484098713     -1.367008806
C      -0.846732892     -1.521577142     -1.654253571
H      -1.901215788     -0.566020737     -0.637308379
H      -2.741016756     -2.326939905     -1.952579463
H      -0.471502543     -0.365985634     -1.456574213
H      -0.052694189     -2.268674154     -1.295370773
           6
  t=        70.50000    1    1
C      -2.207096353     -1.496776053     -1.370551320
C      -0.857585863     -1.525461519     -1.670137974
H      -1.911263904     -0.601563564     -0.703738024
H      -2.703444865     -2.304486659     -1.974165796
H      -0.496837969     -0.422940607     -1.477167654
H      -0.041165013     -2.329398922     -1.283389397
           6
  t=        71.00000    1    1
C      -2.224011529     -1.509300800     -1.374510067
C      -0.867845620     -1.529156542     -1.685289161
H      -1.932951705     -0.640059783     -0.772329181
H      -2.668811033     -2.280271921     -1.989409754
H      -0.520358880     -0.486535400     -1.498805288
H      -0.034896364     -2.386366485     -1.278321777
           6
  t=        71.50000    1    1
C      -2.239799469     -1.521686438     -1.378964190
C      -0.877541104     -1.533092801     -1.699693626
H      -1.966127383     -0.678325365     -0.840699759
H      -2.639811314     -2.257148646     -2.000178579
H      -0.540770236     -0.553405337     -1.520803349
H      -0.034770746     -2.437981173     -1.280584383
           6
  t=        72.00000    1    1
C      -2.254324341     -1.534079469     -1.384007201
C      -0.886763092     -1.537837456     -1.713409121
H      -2.010546827     -0.711237506     -0.905523856
H      -2.618711445     -2.237837486     -2.008755900
H      -0.556241607     -0.618473592     -1.542230948
H      -0.041133832     -2.483218179     -1.290347987
           6
  t=        72.50000    1    1
C      -2.267501670     -1.546774663     -1.389749246
C      -0.895716093     -1.544073012     -1.726548004
H      -2.065573089     -0.732133774     -0.963280728
H      -2.606947122     -2.224574310     -2.017429142
H      -0.564561149     -0.675009021     -1.561736830
H      -0.053968413     -2.521590347     -1.307545857
           6
  t=        73.00000    1    1
C      -2.279213552     -1.560118355     -1.396278053
C      -0.904707615     -1.552492956     -1.739224292
H      -2.130478437     -0.734315207     -1.011205101
H      -2.605596062     -2.219270996     -2.028352344
H      -0.563272325     -0.715595043     -1.577774497
H      -0.073121814     -2.552911146     -1.331931842
           6
  t=        73.50000    1    1
C      -2.289291650     -1.574304243     -1.403560828
C      -0.914052395     -1.563556310     -1.751487483
H      -2.205000402     -0.714321900     -1.048853135
H      -2.615364150     -2.223096538     -2.043177808
H      -0.550298271     -0.734876970     -1.589286481
H      -0.098483007     -2.577048577     -1.363155853
           6
  t=        74.00000    1    1
C      -2.297592017     -1.589148714     -1.411396516
C      -0.923923565     -1.577206520     -1.763268383
H      -2.289201715     -0.674827849     -1.078896347
H      -2.636166731     -2.236254337     -2.062613141
H      -0.525256969     -0.732993854     -1.596334014
H      -0.130108175     -2.593847930     -1.400997773
           6
  t=        74.50000    1    1
C      -2.304127769     -1.604173967     -1.419560108
C      -0.934211916     -1.592946423     -1.774410811
H      -2.383023857     -0.623102026     -1.105193203
H      -2.667349223     -2.258089353     -2.086136523
H      -0.489668909     -0.715299214     -1.600104065
H      -0.168334952     -2.602959135     -1.445476108
           6
  t=        75.00000    1    1
C      -2.309153749     -1.618891911     -1.427962190
C      -0.944550077     -1.610050767     -1.784760173
H      -2.484691139     -0.567342091     -1.131000812
H      -2.707461292     -2.286758090     -2.111878907
H      -0.447971281     -0.689872457     -1.602237997
H      -0.213293023     -2.604406417     -1.496468951
           6
  t=        75.50000    1    1
C      -2.313093483     -1.632970115     -1.436673442
C      -0.954629092     -1.627855758     -1.794224110
H      -2.591526743     -0.514563270     -1.158267822
H      -2.754419446     -2.319753542     -2.137141875
H      -0.404018076     -0.663382829     -1.604189023
H      -0.264523516     -2.598882979     -1.553531190
           6
  t=        76.00000    1    1
C      -2.316393759     -1.646246985     -1.445852952
C      -0.964306048     -1.645839734     -1.802783587
H      -2.700229459     -0.469573351     -1.187916893
H      -2.805902033     -2.354638581     -2.159216850
H      -0.360912589     -0.640303197     -1.606746846
H      -0.320925115     -2.587686769     -1.615990184
           6
  t=        76.50000    1    1
C      -2.319467053     -1.658681147     -1.455668434
C      -0.973557652     -1.663549327     -1.810478239
H      -2.808004717     -0.435227772     -1.220061302
H      -2.859646453     -2.389246490     -2.175914087
H      -0.320890534     -0.623625973     -1.610438443
H      -0.380681903     -2.573031837     -1.682924757
           6
  t=        77.00000    1    1
C      -2.322668758     -1.670295006     -1.466253806
C      -0.982476445     -1.680531943     -1.817378687
H      -2.912578025     -0.413124497     -1.254422708
H      -2.913584738     -2.421781169     -2.185721931
H      -0.285494628     -0.615166009     -1.615624520
H      -0.441256206     -2.558427444     -1.753326960
           6
  t=        77.50000    1    1
C      -2.326284358     -1.681137260     -1.477686803
C      -0.991275332     -1.696285171     -1.823565223
H      -3.012082712     -0.403998572     -1.290576862
H      -2.965966482     -2.450919883     -2.187845296
H      -0.255732795     -0.615929966     -1.622464432
H      -0.499318507     -2.548860937     -1.826373783
           6
  t=        78.00000    1    1
C      -2.330528059     -1.691282168     -1.489991267
C      -1.000234713     -1.710290478     -1.829096150
H      -3.104998595     -0.407783658     -1.328010989
H      -3.015277375     -2.475767922     -2.182090997
H      -0.232312528     -0.626469673     -1.630950610
H      -0.551302264     -2.550035352     -1.901799927
           6
  t=        78.50000    1    1
C      -2.335564874     -1.700803421     -1.503168509
C      -1.009575774     -1.722159599     -1.833969781
H      -3.189967231     -0.423999573     -1.366194378
H      -3.060134748     -2.495806823     -2.168539275
H      -0.215861485     -0.647137159     -1.640961580
H      -0.594719091     -2.566345662     -1.980181841
           6
  t=        79.00000    1    1
C      -2.341561272     -1.709749411     -1.517203276
C      -1.019302654     -1.731845581     -1.838168911
H      -3.265714702     -0.452231818     -1.404601754
H      -3.099385476     -2.510780212     -2.147466657
H      -0.206867922     -0.678129569     -1.652406766
H      -0.629474890     -2.598248456     -2.062245583
           6
  t=        79.50000    1    1
C      -2.348673817     -1.718157188     -1.532070015
C      -1.029230140     -1.739678198     -1.841750456
H      -3.331163405     -0.492054949     -1.442753185
H      -3.132088208     -2.520617496     -2.119267160
H      -0.205621722     -0.719465558     -1.665203900
H      -0.657640088     -2.641850145     -2.147785632
           6
  t=        80.00000    1    1
C      -2.357047334     -1.726063131     -1.547721340
C      -1.039098741     -1.746202804     -1.844887032
H      -3.385546776     -0.542793960     -1.480242825
H      -3.157519987     -2.525494747     -2.084477589
H      -0.212152962     -0.770833127     -1.679204553
H      -0.682040447     -2.691029940     -2.235327269
           6
  t=        80.50000    1    1
C      -2.366794226     -1.733504258     -1.564095119
C      -1.048699654     -1.751986173     -1.847825018
H      -3.428373141     -0.603441612     -1.516697622
H      -3.175211934     -2.525883284     -2.043780649
H      -0.226200825     -0.831454376     -1.694155034
H      -0.705046017     -2.739907064     -2.322619107
           6
  t=        81.00000    1    1
C      -2.377971026     -1.740518400     -1.581119617
C      -1.057944146     -1.757522683     -1.850819997
H      -3.459394437     -0.672680811     -1.551690263
H      -3.185016834     -2.522520470     -1.998100567
H      -0.247076675     -0.899884156     -1.709758234
H      -0.728124398     -2.784164761     -2.407270650
           6
  t=        81.50000    1    1
C      -2.390586590     -1.747125881     -1.598714639
C      -1.066868990     -1.763231876     -1.854098845
H      -3.478483657     -0.749059418     -1.584741120
H      -3.187087284     -2.516429189     -1.948586435
H      -0.273503989     -0.973935942     -1.725674974
H      -0.751982818     -2.821177512     -2.487203819
           6
  t=        82.00000    1    1
C      -2.404586235     -1.753296708     -1.616784617
C      -1.075650559     -1.769506959     -1.857852990
H      -3.485545470     -0.831011672     -1.615338922
H      -3.181962954     -2.509275036     -1.896677660
H      -0.303292034     -1.050509453     -1.741465400
H      -0.776917654     -2.849617833     -2.560788086
           6
  t=        82.50000    1    1
C      -2.419822139     -1.758936394     -1.635214942
C      -1.084648841     -1.776784868     -1.862246966
H      -3.480458827     -0.916883222     -1.643007754
H      -3.170805255     -2.503577989     -1.844104755
H      -0.332723622     -1.125203486     -1.756563649
H      -0.803077639     -2.868940799     -2.626739840
           6
  t=        83.00000    1    1
C      -2.436049600     -1.763905421     -1.653886255
C      -1.094383580     -1.785529718     -1.867422212
H      -3.463271900     -1.005008701     -1.667481210
H      -3.155524250     -2.502452922     -1.792472340
H      -0.356535083     -1.192740222     -1.770254582
H      -0.830490870     -2.879106898     -2.684172905
           6
  t=        83.50000    1    1
C      -2.452924253     -1.768067818     -1.672703457
C      -1.105458407     -1.796176631     -1.873505365
H      -3.434762105     -1.093064800     -1.688565901
H      -3.138398613     -2.509627482     -1.743030396
H      -0.368680380     -1.247907262     -1.781805031
H      -0.859058011     -2.880359625     -2.732388048
           6
  t=        84.00000    1    1
C      -2.470037291     -1.771394111     -1.691595581
C      -1.118343858     -1.808996199     -1.880597557
H      -3.397259997     -1.177688491     -1.706288087
H      -3.121400030     -2.528641497     -1.696391175
H      -0.364321791     -1.287227176     -1.790713307
H      -0.888578949     -2.873126524     -2.770889036
           6
  t=        84.50000    1    1
C      -2.486938853     -1.774080814     -1.710515205
C      -1.133117377     -1.823961892     -1.888755423
H      -3.355402780     -1.254142625     -1.720874920
H      -3.105379023     -2.561831773     -1.652585036
H      -0.342630732     -1.310545193     -1.797009906
H      -0.918832183     -2.857937250     -2.799278046
           6
  t=        85.00000    1    1
C      -2.503078947     -1.776645660     -1.729422868
C      -1.149403053     -1.840765358     -1.897982329
H      -3.317008520     -1.316420010     -1.732680160
H      -3.089724204     -2.609127036     -1.611435574
H      -0.307581414     -1.320850924     -1.801277198
H      -0.949669546     -2.835385726     -2.817225484
           6
  t=        85.50000    1    1
C      -2.517748688     -1.779891983     -1.748273555
C      -1.166591054     -1.858965826     -1.908247578
H      -3.292953298     -1.357740494     -1.741884840
H      -3.072830840     -2.667966152     -1.573082841
H      -0.265735031     -1.322406660     -1.804333931
H      -0.980971938     -2.806230749     -2.824493672
           6
  t=        86.00000    1    1
C      -2.530284359     -1.784653480     -1.767010022
C      -1.184059272     -1.878114773     -1.919499246
H      -3.293786851     -1.372625724     -1.748318668
H      -3.053160521     -2.734227784     -1.538140340
H      -0.223594402     -1.319134837     -1.806942606
H      -1.012546658     -2.771560000     -2.821177672
           6
  t=        86.50000    1    1
C      -2.540584457     -1.791402090     -1.785572256
C      -1.201292934     -1.897822994     -1.931664238
H      -3.322986173     -1.360387470     -1.751472356
H      -3.029991848     -2.803324994     -1.507556690
H      -0.186071322     -1.313913631     -1.809745630
H      -1.044069668     -2.732784621     -2.807781873
           6
  t=        87.00000    1    1
C      -2.549270103     -1.800095228     -1.803887467
C      -1.217915720     -1.917753696     -1.944630670
H      -3.374820585     -1.325729353     -1.750981803
H      -3.003459681     -2.871292485     -1.482263399
H      -0.156378758     -1.308668943     -1.813256776
H      -1.075006848     -2.691760904     -2.785425551
           6
  t=        87.50000    1    1
C      -2.557349146     -1.810344965     -1.821847368
C      -1.233701041     -1.937571039     -1.958219758
H      -3.438353883     -1.276130967     -1.747087713
H      -2.974090791     -2.935382821     -1.462992741
H      -0.136445754     -1.304659353     -1.817871342
H      -1.104529363     -2.651122356     -2.756161127
           6
  t=        88.00000    1    1
C      -2.565714092     -1.821721273     -1.839322580
C      -1.248562099     -1.956867801     -1.972113621
H      -3.503548533     -1.218783296     -1.740485036
H      -2.942526566     -2.993565721     -1.450291662
H      -0.127245140     -1.302649972     -1.823872146
H      -1.131459950     -2.614919530     -2.723793260
           6
  t=        88.50000    1    1
C      -2.574947880     -1.833878951     -1.856217330
C      -1.262513240     -1.975117169     -1.985811568
H      -3.563575155     -1.159294276     -1.731927486
H      -2.909577556     -3.044471547     -1.444384300
H      -0.129003522     -1.303031298     -1.831363675
H      -1.154473791     -2.588914286     -2.694346898
           6
  t=        89.00000    1    1
C      -2.585348084     -1.846596320     -1.872476964
C      -1.275618395     -1.991702331     -1.998683525
H      -3.614831639     -1.101252834     -1.721970668
H      -2.876001557     -3.087292897     -1.445361435
H      -0.141641841     -1.306019906     -1.840386413
H      -1.172186659     -2.580099692     -2.675294155
           6
  t=        89.50000    1    1
C      -2.597048507     -1.859721631     -1.888067741
C      -1.287943922     -2.006104591     -2.010186209
H      -3.655647849     -1.047094118     -1.711022581
H      -2.842550639     -3.121439048     -1.453261935
H      -0.164915223     -1.311751777     -1.851017173
H      -1.183376490     -2.594484157     -2.672986984
           6
  t=        90.00000    1    1
C      -2.610081944     -1.873166058     -1.902960061
C      -1.299498529     -2.018153759     -2.020185285
H      -3.685221620     -0.998668972     -1.699502741
H      -2.810137826     -3.146346540     -1.468045109
H      -0.198575887     -1.320366908     -1.863351973
H      -1.187685638     -2.633726639     -2.688903955
           6
  t=        90.50000    1    1
C      -2.624367966     -1.886911227     -1.917143799
C      -1.310217645     -2.028135369     -2.029057714
H      -3.703414699     -0.957323965     -1.687803851
H      -2.780046398     -3.161558536     -1.489463958
H      -0.242257875     -1.331895654     -1.877434295
H      -1.186062799     -2.693723675     -2.718484766
           6
  t=        91.00000    1    1
C      -2.639751402     -1.900986908     -1.930621641
C      -1.320019215     -2.036598274     -2.037418228
H      -3.710650001     -0.923840511     -1.676235243
H      -2.753760321     -3.166772635     -1.517077512
H      -0.295378596     -1.346169987     -1.893221812
H      -1.180010416     -2.767269579     -2.754546424
           6
  t=        91.50000    1    1
C      -2.656049477     -1.915426909     -1.943401169
C      -1.328873202     -2.044101819     -2.045815558
H      -3.707541983     -0.898746032     -1.665098167
H      -2.732760176     -3.161848668     -1.550285574
H      -0.356981938     -1.362793275     -1.910578391
H      -1.170925350     -2.847305924     -2.790895187
           6
  t=        92.00000    1    1
C      -2.673082350     -1.930227522     -1.955501757
C      -1.336846309     -2.051114707     -2.054631197
H      -3.694535990     -0.882606619     -1.654742590
H      -2.718411132     -3.147016337     -1.588336122
H      -0.425491088     -1.381013513     -1.929293184
H      -1.159922003     -2.928248185     -2.823367338
           6
  t=        92.50000    1    1
C      -2.690685681     -1.945320080     -1.966955058
C      -1.344142490     -2.058017163     -2.064090542
H      -3.671848996     -0.876090032     -1.645580629
H      -2.711829539     -3.123107169     -1.630383597
H      -0.498337941     -1.399495569     -1.949093377
H      -1.147763153     -3.006219806     -2.849606213
           6
  t=        93.00000    1    1
C      -2.708696000     -1.960569962     -1.977794026
C      -1.351124489     -2.065162995     -2.074339484
H      -3.639582164     -0.879928397     -1.638118562
H      -2.713932246     -3.091733649     -1.675540489
H      -0.571557529     -1.415970537     -1.969565347
H      -1.135021261     -3.078533283     -2.868275613
           6
  t=        93.50000    1    1
C      -2.726948387     -1.975771130     -1.988048849
C      -1.358280686     -2.072931227     -2.085484871
H      -3.597733780     -0.894960175     -1.632971003
H      -2.725634194     -3.055461664     -1.722914469
H      -0.639820513     -1.426915865     -1.990173435
H      -1.122258184     -3.143245611     -2.878556039
           6
  t=        94.00000    1    1
C      -2.745276885     -1.990613513     -1.997757888
C      -1.366139886     -2.081744213     -2.097596314
H      -3.546316570     -0.922049849     -1.630785502
H      -2.747819562     -3.018055386     -1.771581263
H      -0.697359095     -1.427772889     -2.010379935
H      -1.110021242     -3.198948857     -2.879975357
           6
  t=        94.50000    1    1
C      -2.763484633     -2.004669409     -2.006992595
C      -1.375116715     -2.091985114     -2.110690397
H      -3.485867915     -0.961508524     -1.631990208
H      -2.781173936     -2.984842559     -1.820527371
H      -0.739929164     -1.414380715     -2.029869956
H      -1.098736775     -3.244695790     -2.872384810
           6
  t=        95.00000    1    1
C      -2.781337026     -2.017451674     -2.015864929
C      -1.385309739     -2.103793274     -2.124704626
H      -3.417802579     -1.012522626     -1.636577654
H      -2.826106389     -2.962541699     -1.868813925
H      -0.766955141     -1.385553499     -2.048847433
H      -1.088777514     -3.279911607     -2.855937360
           6
  t=        95.50000    1    1
C      -2.798583928     -2.028543120     -2.024484209
C      -1.396497452     -2.116990780     -2.139526581
H      -3.344117010     -1.073322564     -1.644058741
H      -2.882823677     -2.957634259     -1.916111771
H      -0.781473107     -1.344147466     -2.068020171
H      -1.080524102     -3.304119236     -2.830780423
           6
  t=        96.00000    1    1
C      -2.814918927     -2.037891779     -2.032949596
C      -1.408360254     -2.131251238     -2.155077626
H      -3.267836129     -1.140467045     -1.653187318
H      -2.951301166     -2.973288043     -1.962633548
H      -0.787895242     -1.295550423     -2.087948887
H      -1.074023441     -3.316712815     -2.797142234
           6
  t=        96.50000    1    1
C      -2.829972407     -2.046112310     -2.041388894
C      -1.420659664     -2.146249865     -2.171329221
H      -3.193000133     -1.208302774     -1.661598228
H      -3.031021657     -3.006528254     -2.009018716
H      -0.790265997     -1.245299037     -2.108757812
H      -1.068953934     -3.317329664     -2.755441468
           6
  t=        97.00000    1    1
C      -2.843371818     -2.054449585     -2.050065314
C      -1.433302560     -2.161696404     -2.188263831
H      -3.124166783     -1.268400613     -1.665500083
H      -3.120275206     -3.049663343     -2.055650724
H      -0.791725884     -1.197843149     -2.130122037
H      -1.064876091     -3.306265792     -2.706483555
           6
  t=        97.50000    1    1
C      -2.854816463     -2.064424212     -2.059436722
C      -1.446239792     -2.177325902     -2.205822483
H      -3.065834154     -1.309431440     -1.659627888
H      -3.216546348     -3.094961630     -2.102206308
H      -0.794585845     -1.156581274     -2.151546168
H      -1.061664997     -3.284221477     -2.651599054
           6
  t=        98.00000    1    1
C      -2.864302349     -2.077200496     -2.069947179
C      -1.459377992     -2.192954120     -2.223906170
H      -3.020519060     -1.322005683     -1.639268333
H      -3.316995473     -3.137017067     -2.148016013
H      -0.800126436     -1.123624018     -2.172582466
H      -1.059523030     -3.252203586     -2.592506974
           6
  t=        98.50000    1    1
C      -2.872229509     -2.092970826     -2.081653570
C      -1.472630746     -2.208428469     -2.242379493
H      -2.987267671     -1.305910177     -1.604209405
H      -3.418507726     -3.172351279     -2.192445224
H      -0.809024800     -1.100063008     -2.192897979
H      -1.058104745     -3.212337811     -2.531322384
           6
  t=        99.00000    1    1
C      -2.879130656     -2.111038857     -2.094171678
C      -1.485974892     -2.223495366     -2.261058944
H      -2.963512029     -1.270584943     -1.559583085
H      -3.518122311     -3.198289463     -2.234893883
H      -0.822068958     -1.086829972     -2.212464443
H      -1.056079203     -3.168246229     -2.470306494
           6
  t=        99.50000    1    1
C      -2.885414665     -2.130531191     -2.107034946
C      -1.499474751     -2.237752509     -2.279767756
H      -2.947367049     -1.226979479     -1.511628913
H      -3.613282075     -3.213112643     -2.274804357
H      -0.840131399     -1.084846300     -2.231390860
H      -1.051377740     -3.124977734     -2.411333999
           6
  t=       100.00000    1    1
C      -2.891359488     -2.150777598     -2.119894251
C      -1.513301980     -2.250689685     -2.298374057
H      -2.937801745     -1.183305726     -1.465219189
H      -3.701894703     -3.215957869     -2.311706408
H      -0.863757614     -1.094571598     -2.249831649
H      -1.041220771     -3.088789538     -2.355579820
           6
  t=       100.50000    1    1
C      -2.897175767     -2.171330706     -2.132521408
C      -1.527668965     -2.261849138     -2.316832414
H      -2.934300014     -1.144874329     -1.423756756
H      -3.782250966     -3.206549126     -2.345169170
H      -0.893110566     -1.116006745     -2.267884131
H      -1.022629978     -3.065431326     -2.303235007
           6
  t=       101.00000    1    1
C      -2.903050533     -2.191898787     -2.144785792
C      -1.542675218     -2.271074256     -2.335187616
H      -2.936445836     -1.114541826     -1.389203393
H      -3.853292132     -3.185428908     -2.374975925
H      -0.927942392     -1.148582486     -2.285638616
H      -0.993913623     -3.057415582     -2.253486988
           6
  t=       101.50000    1    1
C      -2.909141308     -2.212284110     -2.156606669
C      -1.558208130     -2.278610788     -2.353488770
H      -2.943809661     -1.093641753     -1.362756357
H      -3.914408127     -3.153623864     -2.401058893
H      -0.967762394     -1.191229240     -2.303072410
H      -0.956066880     -3.062879550     -2.205605807
           6
  t=       102.00000    1    1
C      -2.915578203     -2.232348348     -2.167937610
C      -1.573976973     -2.284974153     -2.371720588
H      -2.955916979     -1.082603459     -1.345097509
H      -3.965205444     -3.112390493     -2.423442465
H      -1.011904311     -1.242414500     -2.320065042
H      -0.912537882     -3.077176573     -2.159741108
           6
  t=       102.50000    1    1
C      -2.922479278     -2.252002998     -2.178771881
C      -1.589648351     -2.290761964     -2.389800736
H      -2.972350787     -1.081229406     -1.336413158
H      -4.005287213     -3.062962151     -2.442144064
H      -1.059418002     -1.299989613     -2.336460785
H      -0.867656493     -3.095353114     -2.116906166
           6
  t=       103.00000    1    1
C      -2.929964845     -2.271185326     -2.189134214
C      -1.604984054     -2.296568807     -2.407615581
H      -2.992722523     -1.089055594     -1.336604670
H      -4.034261558     -3.006504997     -2.457135576
H      -1.108755050     -1.360643149     -2.352080276
H      -0.825156431     -3.113681063     -2.078466443
           6
  t=       103.50000    1    1
C      -2.938157771     -2.289834711     -2.199060579
C      -1.619915394     -2.302998380     -2.425066224
H      -3.016569606     -1.105695913     -1.345557397
H      -4.051885947     -2.944193248     -2.468362024
H      -1.157426817     -1.419339576     -2.366638598
H      -0.787585859     -3.129936697     -2.045626284
           6
  t=       104.00000    1    1
C      -2.947171959     -2.307878323     -2.208575066
C      -1.634531536     -2.310675619     -2.442096892
H      -3.043304605     -1.130988513     -1.363297899
H      -4.058176374     -2.877304329     -2.475811109
H      -1.202080980     -1.469440906     -2.379672352
H      -0.756448835     -3.143063732     -2.019212389
           6
  t=       104.50000    1    1
C      -2.957078187     -2.325224469     -2.217680759
C      -1.649021651     -2.320212868     -2.458706010
H      -3.072184128     -1.164755454     -1.389867553
H      -4.053682427     -2.807463126     -2.479672884
H      -1.239077001     -1.503506645     -2.390510687
H      -0.732482251     -3.152851809     -1.999646183
           6
  t=       105.00000    1    1
C      -2.967868436     -2.341767416     -2.226360148
C      -1.663540155     -2.332054827     -2.474922608
H      -3.102401812     -1.206507817     -1.425076366
H      -4.039755337     -2.736753111     -2.480493734
H      -1.265760013     -1.515721437     -2.398487509
H      -0.716051661     -3.159482702     -1.987100079
           6
  t=       105.50000    1    1
C      -2.979449714     -2.357391193     -2.234570470
C      -1.678051459     -2.346271550     -2.490748058
H      -3.133260860     -1.255549035     -1.468572588
H      -4.018608576     -2.667503676     -2.479163663
H      -1.281764084     -1.504870087     -2.403320728
H      -0.707538486     -3.163085924     -1.981811145
           6
  t=       106.00000    1    1
C      -2.991621623     -2.371985063     -2.242245982
C      -1.692292260     -2.362491422     -2.506127101
H      -3.164305971     -1.311048389     -1.519906746
H      -3.993625138     -2.602015096     -2.476865949
H      -1.289241816     -1.475289633     -2.405319771
H      -0.707387711     -3.163602413     -1.984177958
           6
  t=       106.50000    1    1
C      -3.004052857     -2.385473532     -2.249310062
C      -1.705898616     -2.380099182     -2.520979792
H      -3.195192316     -1.371843973     -1.578375049
H      -3.969809205     -2.542496340     -2.475121080
H      -1.291415074     -1.434319053     -2.405155030
H      -0.716002495     -3.160876959     -1.994579017
           6
  t=       107.00000    1    1
C      -3.016317714     -2.397860168     -2.255707212
C      -1.718553220     -2.398469662     -2.535228305
H      -3.225189524     -1.435892878     -1.642687489
H      -3.953603954     -2.491158490     -2.475921030
H      -1.291274971     -1.389228350     -2.403501027
H      -0.733532346     -3.154878162     -2.013226500
           6
  t=       107.50000    1    1
C      -3.028026719     -2.409263951     -2.261439599
C      -1.730018877     -2.417118598     -2.548807311
H      -3.253543843     -1.500460550     -1.711038551
H      -3.950921424     -2.449438109     -2.481139858
H      -1.291121855     -1.345583848     -2.400964156
H      -0.759985845     -3.145690297     -2.040198068
           6
  t=       108.00000    1    1
C      -3.038930679     -2.419996694     -2.266643977
C      -1.740185521     -2.435698939     -2.561667155
H      -3.279543450     -1.561122282     -1.780518289
H      -3.965380393     -2.418196916     -2.492269701
H      -1.292517354     -1.307064653     -2.398057012
H      -0.795175196     -3.133617112     -2.075361120
           6
  t=       108.50000    1    1
C      -3.048983809     -2.430622520     -2.271647736
C      -1.749072582     -2.453955816     -2.573775391
H      -3.303209547     -1.610863738     -1.846820322
H      -3.996931858     -2.397970629     -2.509994777
H      -1.296316378     -1.275861088     -2.395248597
H      -0.838587341     -3.119261964     -2.118354331
           6
  t=       109.00000    1    1
C      -3.058325859     -2.441848145     -2.276895727
C      -1.756817837     -2.471665911     -2.585125743
H      -3.325857041     -1.641362271     -1.905461174
H      -4.041912549     -2.388967736     -2.533796005
H      -1.302784008     -1.253245288     -2.393010106
H      -0.888998655     -3.103706830     -2.168483156
           6
  t=       109.50000    1    1
C      -3.067196565     -2.454269948     -2.282770396
C      -1.763674002     -2.488569702     -2.595752579
H      -3.349370350     -1.645694656     -1.953415531
H      -4.095062369     -2.391329310     -2.562414434
H      -1.311813527     -1.240096445     -2.391846602
H      -0.944023619     -3.088840813     -2.224560176
           6
  t=       110.00000    1    1
C      -3.075916583     -2.468023567     -2.289421909
C      -1.770036619     -2.504335255     -2.605741119
H      -3.374481866     -1.622565884     -1.990825792
H      -4.151301774     -2.405023972     -2.594234995
H      -1.323142152     -1.237071280     -2.392206781
H      -0.999738191     -3.077672568     -2.284804586
           6
  t=       110.50000    1    1
C      -3.084879794     -2.482687146     -2.296788584
C      -1.776486762     -2.518526502     -2.615226143
H      -3.399965394     -1.577509365     -2.020518180
H      -4.206558974     -2.429728184     -2.627579202
H      -1.336452324     -1.244625500     -2.394431155
H      -1.050140667     -3.074759276     -2.346857123
           6
  t=       111.00000    1    1
C      -3.094481062     -2.497574640     -2.304757086
C      -1.783693596     -2.530663315     -2.624345292
H      -3.423788734     -1.519301884     -2.045739783
H      -4.257641995     -2.464842967     -2.660911884
H      -1.351375189     -1.263022454     -2.398761227
H      -1.088145460     -3.085555488     -2.408474751
           6
  t=       111.50000    1    1
C      -3.105035437     -2.512065177     -2.313256554
C      -1.792188327     -2.540373109     -2.633166027
H      -3.444360193     -1.455976802     -2.068769349
H      -4.301976982     -2.509557278     -2.692954320
H      -1.367586200     -1.292334723     -2.405322212
H      -1.108158943     -3.114604057     -2.468572731
           6
  t=       112.00000    1    1
C      -3.116750430     -2.525712845     -2.322256256
C      -1.802102950     -2.547585747     -2.641625394
H      -3.460771250     -1.393748969     -2.090993971
H      -4.337456049     -2.562784460     -2.722670544
H      -1.384926795     -1.332474824     -2.414174140
H      -1.109310651     -3.163013318     -2.527856238
           6
  t=       112.50000    1    1
C      -3.129748415     -2.538217734     -2.331750757
C      -1.813108184     -2.552623183     -2.649581834
H      -3.472616373     -1.337168056     -2.113154420
H      -4.362449694     -2.623348453     -2.749282955
H      -1.403382312     -1.383207364     -2.425374066
H      -1.096115692     -3.227382379     -2.588056595
           6
  t=       113.00000    1    1
C      -3.144058845     -2.549414028     -2.341743156
C      -1.824625762     -2.556123506     -2.656949110
H      -3.479956287     -1.288906381     -2.135432785
H      -4.376244824     -2.690226709     -2.772383335
H      -1.422822581     -1.443749567     -2.438854599
H      -1.075896139     -3.301216815     -2.650457945
           6
  t=       113.50000    1    1
C      -3.159652457     -2.559212607     -2.352246554
C      -1.836157688     -2.558804413     -2.663758633
H      -3.483285269     -1.250809621     -2.157848248
H      -4.378516553     -2.762298841     -2.791607095
H      -1.442715249     -1.512436639     -2.454334713
H      -1.055297560     -3.377966199     -2.715156336
           6
  t=       114.00000    1    1
C      -3.176445035     -2.567571742     -2.363270638
C      -1.847463138     -2.561359109     -2.670141238
H      -3.483308808     -1.224485355     -2.180434164
H      -4.369100260     -2.838193640     -2.806629685
H      -1.461955159     -1.586129818     -2.471199786
H      -1.038757353     -3.452770153     -2.781383188
           6
  t=       114.50000    1    1
C      -3.194314596     -2.574489532     -2.374824450
C      -1.858551018     -2.564508890     -2.676283190
H      -3.480551580     -1.210707641     -2.203072090
H      -4.348265434     -2.916910380     -2.817356423
H      -1.478588766     -1.659683508     -2.488346738
H      -1.028782234     -3.522428862     -2.848127477
           6
  t=       115.00000    1    1
C      -3.213112156     -2.579999163     -2.386904222
C      -1.869622755     -2.569103997     -2.682422985
H      -3.475634860     -1.210000535     -2.225720711
H      -4.316488652     -2.997297217     -2.823762423
H      -1.489432627     -1.725590036     -2.504111068
H      -1.026832944     -3.584551155     -2.914322967
           6
  t=       115.50000    1    1
C      -3.232673269     -2.584145336     -2.399490756
C      -1.881001226     -2.576033811     -2.688828224
H      -3.469468461     -1.222940956     -2.248510539
H      -4.274451137     -3.077947283     -2.825796868
H      -1.490282661     -1.775300007     -2.516440360
H      -1.033634692     -3.637386160     -2.978982491
           6
  t=       116.00000    1    1
C      -3.252802476     -2.586983940     -2.412562020
C      -1.892995450     -2.585964334     -2.695729835
H      -3.463203354     -1.250029851     -2.271572357
H      -4.223081601     -3.157379748     -2.823447059
H      -1.477328620     -1.802440091     -2.523662448
H      -1.049564926     -3.679685276     -3.041170989
           6
  t=       116.50000    1    1
C      -3.273242021     -2.588606196     -2.426101966
C      -1.905707788     -2.599011881     -2.703242243
H      -3.458050906     -1.291362447     -2.294782108
H      -4.163712668     -3.234289512     -2.816926889
H      -1.449524532     -1.806637065     -2.525565591
H      -1.074977240     -3.710558659     -3.099838130
           6
  t=       117.00000    1    1
C      -3.293683852     -2.589142605     -2.440102788
C      -1.918972632     -2.614747946     -2.711353021
H      -3.455135209     -1.346491425     -2.317777932
H      -4.098125277     -3.307785342     -2.806691708
H      -1.409241356     -1.793367301     -2.523423659
H      -1.110239623     -3.729419441     -3.153857657
           6
  t=       117.50000    1    1
C      -3.313797819     -2.588815294     -2.454544764
C      -1.932486920     -2.632412899     -2.719965614
H      -3.455197795     -1.413593262     -2.339964194
H      -4.028591607     -3.377669047     -2.793571296
H      -1.361255685     -1.770806773     -2.519324245
H      -1.155106918     -3.736518042     -3.202293341
           6
  t=       118.00000    1    1
C      -3.333254345     -2.587913375     -2.469394687
C      -1.945897184     -2.651349863     -2.729007925
H      -3.459163959     -1.489377660     -2.360620274
H      -3.957390407     -3.444089450     -2.778524912
H      -1.310880227     -1.746143270     -2.515143204
H      -1.209201346     -3.732190341     -3.244285466
           6
  t=       118.50000    1    1
C      -3.351715448     -2.586885599     -2.484637221
C      -1.958923659     -2.671089053     -2.738416551
H      -3.468560777     -1.568458202     -2.379159356
H      -3.886595940     -3.507180941     -2.762262906
H      -1.262418487     -1.724359933     -2.512096624
H      -1.271978881     -3.716955831     -3.279432649
           6
  t=       119.00000    1    1
C      -3.368859709     -2.586447106     -2.500315519
C      -1.971453816     -2.691281825     -2.748131713
H      -3.485035603     -1.643110147     -2.394785902
H      -3.817720113     -3.566621624     -2.745169074
H      -1.218634129     -1.708357346     -2.510961994
H      -1.342687426     -3.691593545     -3.307567226
           6
  t=       119.50000    1    1
C      -3.384406328     -2.587630137     -2.516537069
C      -1.983451824     -2.711606224     -2.758103968
H      -3.510455507     -1.702621648     -2.406089640
H      -3.752182388     -3.621705412     -2.727394398
H      -1.181226299     -1.699779316     -2.512268348
H      -1.420114154     -3.657414066     -3.328727822
           6
  t=       120.00000    1    1
C      -3.398114137     -2.591570210     -2.533446360
C      -1.994894459     -2.731728166     -2.768279081
H      -3.547120936     -1.735481719     -2.411208167
H      -3.691541964     -3.671549456     -2.708944187
H      -1.151122434     -1.699570356     -2.516363803
H      -1.502622389     -3.616317092     -3.343347991
           6
  t=       120.50000    1    1
C      -3.409817667     -2.598867152     -2.551135825
C      -2.005807638     -2.751238211     -2.778537725
H      -3.596687849     -1.736430352     -2.408773980
H      -3.637421675     -3.715491577     -2.689875724
H      -1.128971089     -1.708356628     -2.523545659
H      -1.587947660     -3.571330051     -3.352761077
           6
  t=       121.00000    1    1
C      -3.419456960     -2.609248030     -2.569590193
C      -2.016395879     -2.769574930     -2.788608282
H      -3.658356685     -1.710702727     -2.399135463
H      -3.591216459     -3.753115911     -2.670083708
H      -1.115349524     -1.726802340     -2.534033274
H      -1.673194783     -3.526911426     -3.359923141
           6
  t=       121.50000    1    1
C      -3.427159185     -2.621879898     -2.588666926
C      -2.027038872     -2.786049880     -2.798043706
H      -3.729090578     -1.670060035     -2.384188324
H      -3.553443749     -3.783629851     -2.649321040
H      -1.110500855     -1.755358061     -2.547846778
H      -1.754600518     -3.489770395     -3.370190727
           6
  t=       122.00000    1    1
C      -3.433214152     -2.635898252     -2.608151571
C      -2.038021070     -2.799945035     -2.806306767
H      -3.805246679     -1.625669592     -2.366079285
H      -3.524442212     -3.806423954     -2.627427192
H      -1.114612625     -1.794176865     -2.564852560
H      -1.828438758     -3.468052957     -3.390668075
           6
  t=       122.50000    1    1
C      -3.437917732     -2.650619261     -2.627832894
C      -2.049438767     -2.810744042     -2.812973669
H      -3.883255744     -1.585598958     -2.346634938
H      -3.504639121     -3.821744880     -2.604391332
H      -1.127892564     -1.843199572     -2.584828842
H      -1.892970833     -3.467805078     -3.427327999
           6
  t=       123.00000    1    1
C      -3.441565779     -2.665558635     -2.647511769
C      -2.061144319     -2.818528094     -2.818087121
H      -3.960029248     -1.554806318     -2.327290547
H      -3.494027011     -3.830369136     -2.580607745
H      -1.150340780     -1.901846947     -2.607493443
H      -1.949526632     -3.488674455     -3.480486941
           6
  t=       123.50000    1    1
C      -3.444475888     -2.680403588     -2.666996378
C      -2.072874025     -2.823936035     -2.822189948
H      -4.033213803     -1.535843223     -2.309133546
H      -3.492548228     -3.833216771     -2.556656367
H      -1.181450573     -1.968828705     -2.632457966
H      -2.000381677     -3.524594587     -3.544683466
           6
  t=       124.00000    1    1
C      -3.446965916     -2.694940834     -2.686114539
C      -2.084433110     -2.827777014     -2.825976242
H      -4.101115095     -1.529892721     -2.292992493
H      -3.500247034     -3.831198179     -2.532991813
H      -1.220113834     -2.042287957     -2.659272859
H      -2.046827546     -3.568228793     -3.612865009
           6
  t=       124.50000    1    1
C      -3.449317154     -2.709022208     -2.704719831
C      -2.095772290     -2.830791350     -2.830029987
H      -4.162574735     -1.537319780     -2.279498017
H      -3.517213382     -3.825131292     -2.509875653
H      -1.264409701     -2.119696246     -2.687393509
H      -2.089089028     -3.613866742     -3.679470154
           6
  t=       125.00000    1    1
C      -3.451758871     -2.722560070     -2.722685954
C      -2.107029085     -2.833642985     -2.834770279
H      -4.216973944     -1.557732333     -2.269067231
H      -3.543422177     -3.815742622     -2.487551685
H      -1.310864439     -2.197320060     -2.716075813
H      -2.126913150     -3.658040460     -3.741093217
           6
  t=       125.50000    1    1
C      -3.454481978     -2.735499893     -2.739894670
C      -2.118583138     -2.837019809     -2.840510618
H      -4.264013030     -1.590313744     -2.262013988
H      -3.578554216     -3.803708006     -2.466441385
H      -1.353537314     -2.269781155     -2.744371515
H      -2.160061045     -3.698722034     -3.795620459
           6
  t=       126.00000    1    1
C      -3.457638284     -2.747806290     -2.756236843
C      -2.131068314     -2.841623504     -2.847462094
H      -4.303515274     -1.634000989     -2.258619807
H      -3.621968429     -3.789749983     -2.447150816
H      -1.383922612     -2.330433083     -2.771296813
H      -2.188494379     -3.734959059     -3.841933250
           6
  t=       126.50000    1    1
C      -3.461358288     -2.759463522     -2.771617555
C      -2.145165326     -2.848006090     -2.855731006
H      -4.335265251     -1.687628686     -2.259119154
H      -3.672799465     -3.774620244     -2.430420315
H      -1.393277353     -2.373518897     -2.796246153
H      -2.212370754     -3.766532004     -3.879526720
           6
  t=       127.00000    1    1
C      -3.465802745     -2.770470347     -2.785959201
C      -2.161149363     -2.856357101     -2.865329466
H      -4.358957304     -1.750003537     -2.263712651
H      -3.729872893     -3.758954619     -2.416999169
H      -1.377604263     -2.397328547     -2.819311225
H      -2.231972952     -3.793464779     -3.908139653
           6
  t=       127.50000    1    1
C      -3.471176150     -2.780837273     -2.799199671
C      -2.178651730     -2.866472467     -2.876210161
H      -4.374178332     -1.819914531     -2.272582259
H      -3.791839754     -3.743265570     -2.407547374
H      -1.340320438     -2.404824673     -2.841081494
H      -2.247602513     -3.815799707     -3.927644484
           6
  t=       128.00000    1    1
C      -3.477708650     -2.790587036     -2.811284759
C      -2.196855180     -2.877937243     -2.888320372
H      -4.380455414     -1.896186814     -2.285860910
H      -3.857488482     -3.727962462     -2.402637589
H      -1.289906911     -2.401444521     -2.862225160
H      -2.259458598     -3.833538466     -3.937941525
           6
  t=       128.50000    1    1
C      -3.485631884     -2.799753757     -2.822160537
C      -2.214901382     -2.890354947     -2.901635863
H      -4.377439395     -1.977605962     -2.303589160
H      -3.925693242     -3.713351050     -2.402812325
H      -1.235222885     -2.392381608     -2.883152523
H      -2.267624424     -3.846713986     -3.938968753
           6
  t=       129.00000    1    1
C      -3.495139522     -2.808391695     -2.831790354
C      -2.232112643     -2.903448104     -2.916151280
H      -4.365277989     -2.062278225     -2.325505433
H      -3.995037969     -3.699996686     -2.408721067
H      -1.183224882     -2.381444197     -2.903984496
H      -2.272179283     -3.855506173     -3.930717889
           6
  t=       129.50000    1    1
C      -3.506372260     -2.816603407     -2.840168785
C      -2.248044212     -2.917078690     -2.931882013
H      -4.344708321     -2.147410426     -2.350952853
H      -4.063962970     -3.688741478     -2.421003505
H      -1.138337457     -2.370926099     -2.924669202
H      -2.273144229     -3.859994883     -3.913139241
           6
  t=       130.00000    1    1
C      -3.519369025     -2.824560449     -2.847327502
C      -2.262422350     -2.931205020     -2.948859340
H      -4.317160630     -2.229802943     -2.378932914
H      -4.131092436     -3.680108325     -2.440091384
H      -1.103299399     -2.362184648     -2.945074933
H      -2.270523966     -3.859952015     -3.886181190
           6
  t=       130.50000    1    1
C      -3.533989253     -2.832535626     -2.853379691
C      -2.275102413     -2.945819692     -2.967102236
H      -4.285525718     -2.305306479     -2.407627082
H      -4.195266517     -3.674515263     -2.466226033
H      -1.079688982     -2.355960904     -2.964997017
H      -2.264407714     -3.855205325     -3.850050843
           6
  t=       131.00000    1    1
C      -3.549825928     -2.840926904     -2.858597119
C      -2.286052203     -2.960896669     -2.986588870
H      -4.255137057     -2.368153558     -2.433508820
H      -4.255586257     -3.672581252     -2.499515500
H      -1.068227833     -2.352575523     -2.984176365
H      -2.254872887     -3.846150857     -3.805447597
           6
  t=       131.50000    1    1
C      -3.566199130     -2.850219711     -2.863410280
C      -2.295368266     -2.976348364     -3.007215243
H      -4.233545912     -2.411725683     -2.451387448
H      -4.311365260     -3.674783835     -2.539997560
H      -1.069009782     -2.352110133     -3.002407481
H      -2.241912039     -3.834107434     -3.753839450
           6
  t=       132.00000    1    1
C      -3.582378538     -2.860872492     -2.868280399
C      -2.303227189     -2.991980906     -3.028767317
H      -4.228222075     -2.430239738     -2.455931259
H      -4.362007591     -3.681203828     -2.587639852
H      -1.081940884     -2.354676847     -3.019623996
H      -2.225343413     -3.821512639     -3.697711462
           6
  t=       132.50000    1    1
C      -3.598004214     -2.873105798     -2.873467515
C      -2.309832758     -3.007447829     -3.050903299
H      -4.242060842     -2.421477284     -2.444525528
H      -4.406908837     -3.691380480     -2.642306322
H      -1.106973823     -2.360460081     -3.035875716
H      -2.204784056     -3.812361616     -3.640738727
           6
  t=       133.00000    1    1
C      -3.613253234     -2.886804269     -2.878915192
C      -2.315401152     -3.022229742     -3.073179690
H      -4.271608814     -2.387918297     -2.418682008
H      -4.445362878     -3.704353107     -2.703772325
H      -1.144177854     -2.369598582     -3.051256754
H      -2.179638375     -3.812559829     -3.587497096
           6
  t=       133.50000    1    1
C      -3.628705759     -2.901571915     -2.884315017
C      -2.320140273     -3.035749619     -3.095180693
H      -4.308972133     -2.335941542     -2.383312464
H      -4.476616205     -3.718834281     -2.771622140
H      -1.193569172     -2.382104807     -3.065880161
H      -2.149147213     -3.828597585     -3.542006954
           6
  t=       134.00000    1    1
C      -3.645047226     -2.916974393     -2.889318554
C      -2.324202726     -3.047617436     -3.116700148
H      -4.345939818     -2.272996037     -2.343559375
H      -4.499894974     -3.733124261     -2.845785590
H      -1.254840798     -2.397578853     -3.080166431
H      -2.112616556     -3.864948428     -3.505383835
           6
  t=       134.50000    1    1
C      -3.662552995     -2.932688401     -2.893735074
C      -2.327804733     -3.057875573     -3.137762059
H      -4.377848327     -2.205292440     -2.303910162
H      -4.514829208     -3.745696449     -2.924875713
H      -1.326758338     -2.415428663     -3.094079865
H      -2.070456769     -3.920867745     -3.476549681
           6
  t=       135.00000    1    1
C      -3.681140688     -2.948409771     -2.897484453
C      -2.331205460     -3.067022200     -3.158490493
H      -4.402675171     -2.137281076     -2.269572683
H      -4.521392736     -3.756467846     -3.005142762
H      -1.407029563     -2.434958599     -3.105879728
H      -2.024902212     -3.990372143     -3.455263466
           6
  t=       135.50000    1    1
C      -3.700640599     -2.963905900     -2.900621595
C      -2.334743438     -3.075798081     -3.179040081
H      -4.418845926     -2.072270986     -2.241989661
H      -4.520400872     -3.765543357     -3.085737133
H      -1.492024647     -2.453646880     -3.115538013
H      -1.978330128     -4.066514404     -3.438463324
           6
  t=       136.00000    1    1
C      -3.720790991     -2.979066763     -2.903261671
C      -2.338856178     -3.084994029     -3.199511065
H      -4.426242131     -2.012751416     -2.221785542
H      -4.512859944     -3.772508824     -3.165747163
H      -1.576391178     -2.467784913     -3.122979496
H      -1.933110636     -4.142815962     -3.423944940
           6
  t=       136.50000    1    1
C      -3.741336714     -2.993832901     -2.905525931
C      -2.344066850     -3.095369707     -3.219959292
H      -4.425315431     -1.960455792     -2.209292946
H      -4.499951567     -3.777166100     -3.244270274
H      -1.653373799     -2.472358054     -3.127757379
H      -1.891172159     -4.214412798     -3.410614806
           6
  t=       137.00000    1    1
C      -3.762022527     -3.008176417     -2.907532616
C      -2.350900230     -3.107599456     -3.240412034
H      -4.416586241     -1.916786688     -2.204819173
H      -4.483108614     -3.779478530     -3.320482663
H      -1.716336897     -2.461697304     -3.129065174
H      -1.853985341     -4.277905179     -3.398062037
           6
  t=       137.50000    1    1
C      -3.782618780     -3.022081313     -2.909392910
C      -2.359595505     -3.122080101     -3.260868385
H      -4.400604402     -1.882982693     -2.208556557
H      -4.463933578     -3.779442184     -3.393728378
H      -1.762029870     -2.432269904     -3.126222215
H      -1.822534817     -4.331053369     -3.386116889
           6
  t=       138.00000    1    1
C      -3.802938993     -3.035529680     -2.911202467
C      -2.369951622     -3.138739639     -3.281262976
H      -4.377955824     -1.860117917     -2.220661689
H      -4.443878755     -3.777033891     -3.463442839
H      -1.792409166     -2.385567874     -3.119278034
H      -1.797443636     -4.372385799     -3.374776944
           6
  t=       138.50000    1    1
C      -3.822834284     -3.048508494     -2.913055903
C      -2.381493099     -3.157082776     -3.301444080
H      -4.349360696     -1.848894312     -2.241094665
H      -4.424076976     -3.772250880     -3.529143931
H      -1.812750699     -2.327697894     -3.109304648
H      -1.779022612     -4.401153548     -3.364172725
           6
  t=       139.00000    1    1
C      -3.842181499     -3.061006221     -2.915052121
C      -2.393756674     -3.176475592     -3.321209798
H      -4.315620241     -1.849754854     -2.269670951
H      -4.405432316     -3.765137958     -3.590396498
H      -1.828243833     -2.265967939     -3.097904069
H      -1.767364587     -4.417251873     -3.354549166
           6
  t=       139.50000    1    1
C      -3.860868552     -3.073005467     -2.917295576
C      -2.406420231     -3.196352529     -3.340348660
H      -4.277572482     -1.863072433     -2.306163477
H      -4.388765898     -3.755830915     -3.646783270
H      -1.842403428     -2.206664621     -3.086669426
H      -1.762469381     -4.420831763     -3.346232655
           6
  t=       140.00000    1    1
C      -3.878788306     -3.084496396     -2.919903452
C      -2.419320212     -3.216294853     -3.358667915
H      -4.236109623     -1.889015724     -2.350206381
H      -4.374799493     -3.744578719     -3.697932219
H      -1.856940282     -2.154109372     -3.076857987
H      -1.764237752     -4.412260824     -3.339604237
           6
  t=       140.50000    1    1
C      -3.895831056     -3.095508802     -2.923016121
C      -2.432408168     -3.236015867     -3.376003178
H      -4.192189434     -1.927233715     -2.401135785
H      -4.364145385     -3.731671343     -3.743538227
H      -1.872404119     -2.110788535     -3.069341300
H      -1.772434418     -4.392174935     -3.335047474
           6
  t=       141.00000    1    1
C      -3.911876519     -3.106127763     -2.926793198
C      -2.445689248     -3.255306895     -3.392220461
H      -4.146920517     -1.976666055     -2.457927965
H      -4.357373050     -3.717356570     -3.783384485
H      -1.888872919     -2.078110182     -3.064736532
H      -1.786675205     -4.361451357     -3.332880379
           6
  t=       141.50000    1    1
C      -3.926788146     -3.116494567     -2.931406111
C      -2.459197604     -3.273987296     -3.407211376
H      -4.101585950     -2.035544340     -2.519272106
H      -4.355039562     -3.701792270     -3.817326530
H      -1.906296637     -2.056971367     -3.063522677
H      -1.806390163     -4.321272466     -3.333328085
           6
  t=       142.00000    1    1
C      -3.940414886     -3.126857014     -2.937059000
C      -2.473008752     -3.291871817     -3.420885811
H      -4.057642677     -2.100813119     -2.583398699
H      -4.357601811     -3.685061167     -3.845240169
H      -1.924539912     -2.047899335     -3.066096245
H      -1.830700867     -4.273338463     -3.336529053
           6
  t=       142.50000    1    1
C      -3.952630231     -3.137607077     -2.943990402
C      -2.487234998     -3.308740406     -3.433173786
H      -4.016618649     -2.167633095     -2.647997143
H      -4.365298326     -3.667243117     -3.866991584
H      -1.943334005     -2.051208982     -3.072841727
H      -1.858278777     -4.220045343     -3.342534747
           6
  t=       143.00000    1    1
C      -3.963364977     -3.149323269     -2.952455519
C      -2.502033003     -3.324291113     -3.444024978
H      -3.979854237     -2.228624348     -2.710260699
H      -4.378138620     -3.648525760     -3.882532329
H      -1.962507733     -2.067218406     -3.084154265
H      -1.886903108     -4.164971866     -3.351363931
           6
  t=       143.50000    1    1
C      -3.972618943     -3.162737450     -2.962667721
C      -2.517637814     -3.338118200     -3.453431337
H      -3.948119932     -2.273886143     -2.767311933
H      -4.396036919     -3.629365331     -3.892113352
H      -1.982233705     -2.096109008     -3.100266106
H      -1.912917934     -4.113495137     -3.362964321
           6
  t=       144.00000    1    1
C      -3.980443092     -3.178500079     -2.974707805
C      -2.534364633     -3.349783353     -3.461455673
H      -3.921402373     -2.294031086     -2.817301285
H      -4.418875396     -3.610427981     -3.896282086
H      -2.002869767     -2.137696592     -3.121067567
H      -1.931733506     -4.071992749     -3.377036536
           6
  t=       144.50000    1    1
C      -3.986882531     -3.196728962     -2.988488318
C      -2.552534498     -3.358927979     -3.468186714
H      -3.899451266     -2.285755919     -2.860056432
H      -4.446738095     -3.592589569     -3.895865293
H      -2.024726006     -2.191619110     -3.146323552
H      -1.938843118     -4.046123310     -3.393146075
           6
  t=       145.00000    1    1
C      -3.991956130     -3.216825410     -3.003768466
C      -2.572308299     -3.365458170     -3.473691362
H      -3.882516933     -2.254176586     -2.896844165
H      -4.479868345     -3.576841639     -3.892012187
H      -2.047918654     -2.256970627     -3.175686845
H      -1.931494902     -4.038938011     -3.411296148
           6
  t=       145.50000    1    1
C      -3.995650948     -3.237829892     -3.020268173
C      -2.593541917     -3.369646603     -3.477999557
H      -3.871534141     -2.208844905     -2.929242091
H      -4.518658850     -3.564113155     -3.885999254
H      -2.072307219     -2.332169645     -3.208659449
H      -1.910373392     -4.049721910     -3.432111247
           6
  t=       146.00000    1    1
C      -3.997980962     -3.258830666     -3.037735402
C      -2.615778593     -3.372161692     -3.481188255
H      -3.867429451     -2.158914362     -2.958485350
H      -4.563412134     -3.555140108     -3.878896595
H      -2.097462077     -2.414404396     -3.244252137
H      -1.879955158     -4.074296689     -3.456361515
           6
  t=       146.50000    1    1
C      -3.999028653     -3.279135823     -3.056003965
C      -2.638484713     -3.373902642     -3.483416591
H      -3.870781341     -2.111161667     -2.985284135
H      -4.614179827     -3.550397133     -3.871150213
H      -2.122152163     -2.499228008     -3.280971317
H      -1.846216698     -4.107387843     -3.484468431
           6
  t=       147.00000    1    1
C      -3.998958894     -3.298285281     -3.074977221
C      -2.661327675     -3.375929563     -3.484939302
H      -3.881749795     -2.070066564     -3.010058095
H      -4.670515123     -3.549912006     -3.862566755
H      -2.143391404     -2.579552627     -3.316810789
H      -1.814429519     -4.144425929     -3.516328063
           6
  t=       147.50000    1    1
C      -3.997994707     -3.315995553     -3.094621504
C      -2.684270270     -3.379352260     -3.486053540
H      -3.900111258     -2.038293099     -3.032947414
H      -4.731360095     -3.553479300     -3.852463938
H      -2.156377651     -2.646306413     -3.349678486
H      -1.788463179     -4.182178052     -3.551434962
           6
  t=       148.00000    1    1
C      -3.996452630     -3.332152040     -3.114916097
C      -2.707472086     -3.385113835     -3.487047724
H      -3.925041185     -2.016964032     -3.054079843
H      -4.794962365     -3.560767578     -3.839886561
H      -2.155541830     -2.690868569     -3.377950232
H      -1.770790301     -4.218601522     -3.589050900
           6
  t=       148.50000    1    1
C      -3.994738691     -3.346705149     -3.135847851
C      -2.730926034     -3.393669862     -3.488119609
H      -3.955617393     -2.006478313     -3.073409453
H      -4.859307164     -3.571498221     -3.823811487
H      -2.137699360     -2.709274412     -3.401327161
H      -1.762778783     -4.252703132     -3.628344103
           6
  t=       149.00000    1    1
C      -3.993322799     -3.359637169     -3.157394079
C      -2.754154074     -3.404818483     -3.489366333
H      -3.990960045     -2.006756446     -3.090747664
H      -4.922451033     -3.585486546     -3.803396332
H      -2.105148202     -2.704801180     -3.420795615
H      -1.765050855     -4.284086152     -3.668472069
           6
  t=       149.50000    1    1
C      -3.992713846     -3.370961566     -3.179509171
C      -2.776306385     -3.417957230     -3.490851051
H      -4.030275319     -2.017456423     -3.105926279
H      -4.982554816     -3.602566161     -3.778077183
H      -2.064272229     -2.685263405     -3.437676882
H      -1.777918033     -4.312462805     -3.708636543
           6
  t=       150.00000    1    1
C      -3.993444335     -3.380708294     -3.202123665
C      -2.796492369     -3.432478958     -3.492648786
H      -4.072697197     -2.038311350     -3.118879020
H      -5.037930364     -3.622544401     -3.747602008
H      -2.021736420     -2.658326125     -3.452951592
H      -1.801536417     -4.337505218     -3.748108960
           6
  t=       150.50000    1    1
C      -3.996065536     -3.388906188     -3.225141258
C      -2.813946082     -3.447947128     -3.494858900
H      -4.117179931     -2.069227660     -3.129617624
H      -5.087007663     -3.645218966     -3.712044877
H      -1.982611839     -2.629573273     -3.467203388
H      -1.836008730     -4.358783399     -3.786183423
           6
  t=       151.00000    1    1
C      -4.001110425     -3.395589758     -3.248438468
C      -2.828079966     -3.464094789     -3.497596220
H      -4.162618870     -2.110058725     -3.138346980
H      -5.128307916     -3.670389443     -3.671727762
H      -1.950102328     -2.602657022     -3.480621999
H      -1.881364925     -4.375761900     -3.822246461
           6
  t=       151.50000    1    1
C      -4.009016405     -3.400796379     -3.271874098
C      -2.838501505     -3.480798071     -3.500982629
H      -4.208063962     -2.160424097     -3.145133484
H      -5.160601236     -3.697813818     -3.627385030
H      -1.926021845     -2.579732528     -3.493390981
H      -1.937436138     -4.387938698     -3.855543893
           6
  t=       152.00000    1    1
C      -4.020040454     -3.404579909     -3.295321071
C      -2.845061894     -3.498010777     -3.505112288
H      -4.252783170     -2.219533757     -3.150066102
H      -5.182998661     -3.727273734     -3.579932581
H      -1.911236445     -2.561969252     -3.505556495
H      -2.003688357     -4.395061394     -3.885416912
           6
  t=       152.50000    1    1
C      -4.034212384     -3.407037289     -3.318685072
C      -2.847873734     -3.515693722     -3.510026591
H      -4.296264947     -2.285914902     -3.153369397
H      -5.195011069     -3.758694405     -3.530278114
H      -1.906078282     -2.550097896     -3.516957057
H      -2.079093156     -4.397258690     -3.911525328
           6
  t=       153.00000    1    1
C      -4.051346844     -3.408341116     -3.341897256
C      -2.847281290     -3.533767067     -3.515716143
H      -4.338278108     -2.357120237     -3.155232640
H      -5.196558840     -3.792186176     -3.479374493
H      -1.910584112     -2.544671092     -3.527380274
H      -2.162030998     -4.395209627     -3.933871680
           6
  t=       153.50000    1    1
C      -4.071083614     -3.408794654     -3.364910623
C      -2.843793902     -3.552047049     -3.522116096
H      -4.379046455     -2.429326956     -3.155782367
H      -5.187953100     -3.827984396     -3.428125673
H      -1.924726188     -2.546328059     -3.536544636
H      -2.250217852     -4.390438518     -3.953039730
           6
  t=       154.00000    1    1
C      -4.092977840     -3.408823570     -3.387708393
C      -2.837936656     -3.570210093     -3.529122847
H      -4.419407417     -2.497337433     -3.154691387
H      -5.169875286     -3.866469022     -3.377423855
H      -1.948774665     -2.556039227     -3.544197634
H      -2.340908682     -4.385576084     -3.970151428
           6
  t=       154.50000    1    1
C      -4.116478201     -3.408937548     -3.410325591
C      -2.830284283     -3.587769545     -3.536597091
H      -4.460729322     -2.555171062     -3.150415956
H      -5.143490349     -3.908112740     -3.328534560
H      -1.983116322     -2.574859355     -3.550486228
H      -2.430904483     -4.384801089     -3.986580596
           6
  t=       155.00000    1    1
C      -4.140820645     -3.409695903     -3.432861071
C      -2.821700592     -3.604188292     -3.544281065
H      -4.504495318     -2.597293253     -3.140541918
H      -5.110649780     -3.953230460     -3.283021911
H      -2.026618676     -2.602539597     -3.556174256
H      -2.516814402     -4.393317492     -4.004306955
           6
  t=       155.50000    1    1
C      -4.165353942     -3.411481557     -3.455398281
C      -2.812939062     -3.619030387     -3.551872678
H      -4.551896125     -2.619973498     -3.123673260
H      -5.072960628     -4.002393514     -3.241708290
H      -2.077414318     -2.638420251     -3.561703020
H      -2.596489760     -4.415576006     -4.026068089
           6
  t=       156.00000    1    1
C      -4.189653093     -3.414306432     -3.477908324
C      -2.804511967     -3.632129863     -3.559209261
H      -4.602943837     -2.623720462     -3.099900373
H      -5.031821666     -4.056020736     -3.205007384
H      -2.133464364     -2.681620972     -3.567385162
H      -2.669518580     -4.453365029     -4.053329928
           6
  t=       156.50000    1    1
C      -4.213531930     -3.417891897     -3.500201543
C      -2.796806269     -3.643731645     -3.566330772
H      -4.656146857     -2.612782711     -3.071018978
H      -4.988323012     -4.114046694     -3.173271352
H      -2.192193158     -2.730370271     -3.573624392
H      -2.736485450     -4.504674559     -4.085324635
           6
  t=       157.00000    1    1
C      -4.236968778     -3.421907861     -3.521976812
C      -2.790225665     -3.654432167     -3.573401119
H      -4.709295274     -2.592750176     -3.039919668
H      -4.943112858     -4.175760326     -3.146967224
H      -2.250008410     -2.781323835     -3.580991257
H      -2.797992299     -4.564796345     -4.119759103
           6
  t=       157.50000    1    1
C      -4.259943518     -3.426152430     -3.542882045
C      -2.785362758     -3.665054841     -3.580604222
H      -4.760347425     -2.568909076     -3.009927855
H      -4.896557669     -4.239587632     -3.126585450
H      -2.301815614     -2.828899736     -3.590133074
H      -2.853987313     -4.628194330     -4.154173977
           6
  t=       158.00000    1    1
C      -4.282301410     -3.430567843     -3.562531926
C      -2.783034947     -3.676480641     -3.588125716
H      -4.808048030     -2.545311432     -2.984345288
H      -4.849188387     -4.303479786     -3.112435835
H      -2.341535038     -2.865778017     -3.601425449
H      -2.903378523     -4.690376110     -4.186961388
           6
  t=       158.50000    1    1
C      -4.303859864     -3.435159365     -3.580677619
C      -2.783931185     -3.689517317     -3.596146005
H      -4.851941355     -2.524264191     -2.965285905
H      -4.801673034     -4.365865147     -3.104425218
H      -2.364032089     -2.884522933     -3.614812151
H      -2.945054593     -4.748354537     -4.216972230
           6
  t=       159.00000    1    1
C      -4.324522329     -3.439987710     -3.597214431
C      -2.788328985     -3.704551737     -3.604755539
H      -4.891692245     -2.507558481     -2.953790445
H      -4.754728568     -4.425017090     -3.102384274
H      -2.367277835     -2.881851947     -3.630425293
H      -2.978506341     -4.800014358     -4.243372691
           6
  t=       159.50000    1    1
C      -4.344253550     -3.445138959     -3.612152694
C      -2.796033178     -3.721347712     -3.613999217
H      -4.927049000     -2.496442513     -2.950174248
H      -4.709097984     -4.479406645     -3.105971846
H      -2.353409712     -2.861318463     -3.648212910
H      -3.003850725     -4.843871598     -4.265582426
           6
  t=       160.00000    1    1
C      -4.362995874     -3.450727047     -3.625509785
C      -2.806667609     -3.739278321     -3.623933585
H      -4.957988942     -2.491566046     -2.954549971
H      -4.665696431     -4.527807367     -3.114820374
H      -2.326548288     -2.830562904     -3.667816081
H      -3.021243791     -4.878975067     -4.283334425
           6
  t=       160.50000    1    1
C      -4.380691884     -3.456873219     -3.637322862
C      -2.819806070     -3.757674059     -3.634613739
H      -4.984544746     -2.493175115     -2.966843986
H      -4.625593636     -4.569237467     -3.128447500
H      -2.291196144     -2.797402129     -3.688682602
H      -3.030843289     -4.904776586     -4.296637610
           6
  t=       161.00000    1    1
C      -4.397319175     -3.463670450     -3.647668408
C      -2.835026386     -3.776009382     -3.646063587
H      -5.006548874     -2.501340132     -2.986783351
H      -4.589743534     -4.603003778     -3.146336526
H      -2.251580510     -2.767882479     -3.710283692
H      -3.032933075     -4.921006896     -4.305614187
           6
  t=       161.50000    1    1
C      -4.412841985     -3.471203009     -3.656621257
C      -2.852022818     -3.793920349     -3.658296996
H      -5.023773119     -2.516031820     -3.014065226
H      -4.559090945     -4.628654572     -3.168007811
H      -2.210835687     -2.745927743     -3.732190220
H      -3.027731420     -4.927555692     -4.310418804
           6
  t=       162.00000    1    1
C      -4.427205968     -3.479542176     -3.664252903
C      -2.870608366     -3.811165867     -3.671322547
H      -5.036045146     -2.537168601     -3.048349459
H      -4.534430283     -4.646007850     -3.193087681
H      -2.170966252     -2.733740067     -3.754077707
H      -3.015487493     -4.924507851     -4.311135647
           6
  t=       162.50000    1    1
C      -4.440341845     -3.488744283     -3.670639184
C      -2.890673234     -3.827569368     -3.685135842
H      -5.043341626     -2.564574045     -3.089203490
H      -4.516268425     -4.655111777     -3.221343392
H      -2.133215409     -2.732396715     -3.775686347
H      -2.996608334     -4.912347059     -4.307838559
           6
  t=       163.00000    1    1
C      -4.452180252     -3.498859526     -3.675871904
C      -2.912115587     -3.842962226     -3.699703723
H      -5.045830554     -2.597868351     -3.136021042
H      -4.504890758     -4.656192282     -3.252666211
H      -2.098535950     -2.742396991     -3.796815241
H      -2.971727711     -4.892139063     -4.300744645
           6
  t=       163.50000    1    1
C      -4.462644514     -3.509954815     -3.680068534
C      -2.934790729     -3.857136260     -3.714962789
H      -5.043954099     -2.636290107     -3.187938118
H      -4.500729656     -4.649709185     -3.286942038
H      -2.067880945     -2.763998810     -3.817303610
H      -2.941655819     -4.865610876     -4.290348506
           6
  t=       164.00000    1    1
C      -4.471656702     -3.522098524     -3.683406392
C      -2.958482813     -3.869858841     -3.730814319
H      -5.038568448     -2.678462165     -3.243652469
H      -4.504430315     -4.636639750     -3.323854445
H      -2.042326269     -2.797151455     -3.837021400
H      -2.907315913     -4.835170296     -4.277462326
           6
  t=       164.50000    1    1
C      -4.479097067     -3.535391448     -3.686098899
C      -2.982961775     -3.880859460     -3.747148266
H      -5.031088770     -2.722205686     -3.301552834
H      -4.516885445     -4.618420519     -3.362854481
H      -2.022981946     -2.841671499     -3.855786369
H      -2.869458367     -4.803765329     -4.263196785
           6
  t=       165.00000    1    1
C      -4.484792788     -3.549981224     -3.688396781
C      -3.007995146     -3.889829090     -3.763825382
H      -5.023736106     -2.764153851     -3.359729669
H      -4.539123502     -4.597098187     -3.403197823
H      -2.010967764     -2.897205197     -3.873410589
H      -2.828543192     -4.774992908     -4.249065361
           6
  t=       165.50000    1    1
C      -4.488537571     -3.566020141     -3.690579915
C      -3.033352949     -3.896480926     -3.780677626
H      -5.019535822     -2.799656740     -3.416139634
H      -4.572019446     -4.575707036     -3.444072443
H      -2.007416982     -2.963072587     -3.889787492
H      -2.784735258     -4.752751477     -4.236697357
           6
  t=       166.00000    1    1
C      -4.490171962     -3.583545071     -3.692893722
C      -3.058808435     -3.900690930     -3.797567296
H      -5.021527929     -2.823967294     -3.469224551
H      -4.616003207     -4.558258365     -3.484815057
H      -2.013287638     -3.037999074     -3.904920117
H      -2.738208483     -4.740090023     -4.227027697
           6
  t=       166.50000    1    1
C      -4.489656906     -3.602353762     -3.695471909
C      -3.084141189     -3.902593749     -3.814450018
H      -5.031406364     -2.834381775     -3.518488706
H      -4.671057001     -4.549010253     -3.525157583
H      -2.029334725     -3.120170068     -3.918920861
H      -2.689623453     -4.738074361     -4.219643279
           6
  t=       167.00000    1    1
C      -4.487151979     -3.622029815     -3.698323255
C      -3.109086408     -3.902595555     -3.831389133
H      -5.048623759     -2.831478057     -3.564439527
H      -4.736837454     -4.551047671     -3.565226232
H      -2.056056009     -3.207373123     -3.931903704
H      -2.640626991     -4.745375966     -4.212937149
           6
  t=       167.50000    1    1
C      -4.483034359     -3.642130830     -3.701377978
C      -3.133312003     -3.901279427     -3.848505904
H      -5.070761257     -2.818412137     -3.607864654
H      -4.812770134     -4.564918849     -3.605524114
H      -2.093305261     -3.296453245     -3.943910742
H      -2.593821377     -4.759769307     -4.204963007
           6
  t=       168.00000    1    1
C      -4.477840087     -3.662373469     -3.704547822
C      -3.156522088     -3.899267051     -3.865915138
H      -5.094735212     -2.799237601     -3.649397575
H      -4.897497414     -4.588347667     -3.646568318
H      -2.139899954     -3.383570189     -3.954868796
H      -2.551968784     -4.779285533     -4.194327097
           6
  t=       168.50000    1    1
C      -4.472253248     -3.682670026     -3.707771431
C      -3.178540141     -3.897145191     -3.883678099
H      -5.117639673     -2.777735307     -3.689528350
H      -4.988256799     -4.617046490     -3.688424767
H      -2.193246124     -3.464920279     -3.964623196
H      -2.517283670     -4.802288464     -4.180629200
           6
  t=       169.00000    1    1
C      -4.467026680     -3.703033005     -3.711045976
C      -3.199351431     -3.895440147     -3.901791537
H      -5.137182035     -2.756919204     -3.728482281
H      -5.081314996     -4.646436403     -3.730666207
H      -2.248942444     -3.536631343     -3.973103346
H      -2.491398208     -4.827795032     -4.164214307
           6
  t=       169.50000    1    1
C      -4.462822489     -3.723475143     -3.714430590
C      -3.219151264     -3.894606019     -3.920203347
H      -5.151786651     -2.739056846     -3.766226564
H      -5.173046451     -4.672985633     -3.772481184
H      -2.300835799     -3.594967062     -3.980377146
H      -2.475450082     -4.855243116     -4.145775004
           6
  t=       170.00000    1    1
C      -4.460186272     -3.743962183     -3.718017912
C      -3.238289775     -3.895018556     -3.938841000
H      -5.160337413     -2.725993272     -3.802443209
H      -5.260572651     -4.694404376     -3.813020087
H      -2.341623410     -3.636784584     -3.986779935
H      -2.470063449     -4.884151188     -4.125903970
           6
  t=       170.50000    1    1
C      -4.459661899     -3.764407813     -3.721888451
C      -3.256982548     -3.896957676     -3.957659547
H      -5.162154471     -2.719070297     -3.836711514
H      -5.341774691     -4.709486796     -3.851453009
H      -2.364843915     -3.660101558     -3.992586150
H      -2.475448997     -4.914058709     -4.105153633
           6
  t=       171.00000    1    1
C      -4.461710687     -3.784696238     -3.726105103
C      -3.275156631     -3.900562703     -3.976641481
H      -5.157020841     -2.719063176     -3.868447922
H      -5.415058789     -4.717832009     -3.887222045
H      -2.367951571     -3.664728501     -3.998100641
H      -2.491335628     -4.944500409     -4.083819764
           6
  t=       171.50000    1    1
C      -4.466684605     -3.804705963     -3.730706796
C      -3.292361394     -3.905847141     -3.995788536
H      -5.145075251     -2.726338484     -3.897116587
H      -5.479282764     -4.719538874     -3.919948529
H      -2.353540353     -3.652171040     -4.003528168
H      -2.517308413     -4.974792015     -4.062127612
           6
  t=       172.00000    1    1
C      -4.474794768     -3.824322768     -3.735712265
C      -3.307931760     -3.912740730     -4.015096249
H      -5.126740706     -2.740968318     -3.922336813
H      -5.533747625     -4.715019770     -3.949376109
H      -2.327760651     -3.625175612     -4.009048246
H      -2.552902228     -5.003900798     -4.040364627
           6
  t=       172.50000    1    1
C      -4.486125432     -3.843446998     -3.741130146
C      -3.321231478     -3.921151908     -4.034537700
H      -5.102650916     -2.762820535     -3.943853849
H      -5.577958473     -4.704753195     -3.975350806
H      -2.297548474     -3.586968196     -4.014923164
H      -2.597619622     -5.030532939     -4.018895131
           6
  t=       173.00000    1    1
C      -4.500649495     -3.862000930     -3.746973235
C      -3.331792441     -3.931006757     -4.054058901
H      -5.073649241     -2.791508729     -3.961489606
H      -5.611429714     -4.689167138     -3.997775811
H      -2.268964008     -3.540642387     -4.021478174
H      -2.650943404     -5.053360151     -3.998159598
           6
  t=       173.50000    1    1
C      -4.518247115     -3.879935024     -3.753269060
C      -3.339358184     -3.942262437     -4.073581800
H      -5.040792037     -2.826275040     -3.975103122
H      -5.633628152     -4.668616498     -4.016564958
H      -2.246639612     -3.488948466     -4.029044662
H      -2.712202025     -5.071135877     -3.978655803
           6
  t=       174.00000    1    1
C      -4.538669012     -3.897230860     -3.760069840
C      -3.343925649     -3.954888651     -4.093002661
H      -5.005364713     -2.865779344     -3.984592611
H      -5.644224356     -4.643565262     -4.031644854
H      -2.233719968     -3.434222873     -4.037895445
H      -2.780301575     -5.082980322     -3.960899958
           6
  t=       174.50000    1    1
C      -4.561558548     -3.913895601     -3.767451034
C      -3.345710905     -3.968858933     -4.112203873
H      -4.968798567     -2.908024226     -3.989880790
H      -5.643154928     -4.614708672     -4.042948569
H      -2.232021781     -3.378254977     -4.048202067
H      -2.853732435     -5.088636273     -3.945367009
           6
  t=       175.00000    1    1
C      -4.586470891     -3.929964040     -3.775495002
C      -3.345094180     -3.984132925     -4.131062608
H      -4.932737098     -2.950235706     -3.990975572
H      -5.630688372     -4.583044141     -4.050462577
H      -2.242459476     -3.322812051     -4.060027687
H      -2.930437986     -5.088179359     -3.932481607
           6
  t=       175.50000    1    1
C      -4.612904234     -3.945489184     -3.784277334
C      -3.342515950     -4.000657022     -4.149445910
H      -4.899223768     -2.988868401     -3.988007260
H      -5.607556623     -4.549826465     -4.054271847
H      -2.265481901     -3.269636715     -4.073411921
H      -3.007924766     -5.082164677     -3.922672418
           6
  t=       176.00000    1    1
C      -4.640320666     -3.960491602     -3.793846132
C      -3.338388668     -4.018366139     -4.167193982
H      -4.870648492     -3.019870855     -3.981304081
H      -5.575390343     -4.516789178     -4.054637608
H      -2.301380474     -3.220480648     -4.088445873
H      -3.083375715     -5.071688895     -3.916589823
           6
  t=       176.50000    1    1
C      -4.668084577     -3.974879371     -3.804183064
C      -3.333118338     -4.037160474     -4.184109252
H      -4.849453891     -3.039532591     -3.971584239
H      -5.537518515     -4.486528870     -4.052200368
H      -2.350068668     -3.177020728     -4.105240304
H      -3.153841647     -5.058473563     -3.915336954
           6
  t=       177.00000    1    1
C      -4.695283851     -3.988407726     -3.815218719
C      -3.327288968     -4.056796424     -4.200026553
H      -4.837540151     -3.045392334     -3.959495159
H      -5.500367608     -4.462833181     -4.048417633
H      -2.410477447     -3.140582895     -4.123834838
H      -3.215974585     -5.045685604     -3.919564447
           6
  t=       177.50000    1    1
C      -4.720716043     -4.000676143     -3.826812877
C      -3.321614212     -4.076817163     -4.214899767
H      -4.835246163     -3.036876939     -3.945370886
H      -5.474343605     -4.451223625     -4.045819059
H      -2.480565438     -3.112001245     -4.144112676
H      -3.266895304     -5.037758455     -3.928745737
           6
  t=       178.00000    1    1
C      -4.743208098     -4.011145100     -3.838796632
C      -3.316687503     -4.096670249     -4.228826352
H      -4.841603317     -3.016029179     -3.928923150
H      -5.470650431     -4.457742920     -4.047388583
H      -2.558274760     -3.091955777     -4.165875212
H      -3.305332957     -5.038938114     -3.941235098
           6
  t=       178.50000    1    1
C      -4.762152309     -4.019327865     -3.851085671
C      -3.312916160     -4.115932041     -4.241938827
H      -4.855598521     -2.987165739     -3.909723721
H      -5.494871180     -4.485406580     -4.054740795
H      -2.641845534     -3.081051559     -4.188894249
H      -3.330865176     -5.052135014     -3.955499979
           6
  t=       179.00000    1    1
C      -4.777655977     -4.025098862     -3.863727961
C      -3.310629956     -4.134373489     -4.254327931
H      -4.876747458     -2.955004413     -3.887766766
H      -5.544214932     -4.532111737     -4.067271119
H      -2.729537658     -3.079698035     -4.212933734
H      -3.343299271     -5.078550419     -3.970734033
           6
  t=       179.50000    1    1
C      -4.790377736     -4.028747101     -3.876858426
C      -3.310118569     -4.151978590     -4.266030062
H      -4.904654879     -2.923398679     -3.863441272
H      -5.609601930     -4.591770423     -4.082784511
H      -2.819370217     -3.087877319     -4.237777139
H      -3.342791374     -5.117183627     -3.986918460
           6
  t=       180.00000    1    1
C      -4.801129318     -4.030749919     -3.890622538
C      -3.311663746     -4.168900239     -4.277035640
H      -4.938436917     -2.895424895     -3.837366952
H      -5.680987694     -4.657495396     -4.098739876
H      -2.908780094     -3.104826422     -4.263201766
H      -3.329803414     -5.165098865     -4.004578098
           6
  t=       180.50000    1    1
C      -4.810621441     -4.031600590     -3.905138654
C      -3.315507723     -4.185354587     -4.287345245
H      -4.976899070     -2.873705507     -3.810208161
H      -5.750555556     -4.723393014     -4.112922211
H      -2.994628072     -3.128886488     -4.288918332
H      -3.305130687     -5.218772920     -4.024135626
           6
  t=       181.00000    1    1
C      -4.819320090     -4.031756015     -3.920458279
C      -3.321777011     -4.201600119     -4.296971638
H      -5.018854741     -2.859534648     -3.782522009
H      -5.813733552     -4.785491501     -4.123975494
H      -3.074259744     -3.157801133     -4.314715872
H      -3.270126207     -5.274615513     -4.045835198
           6
  t=       181.50000    1    1
C      -4.827523529     -4.031590299     -3.936568094
C      -3.330547041     -4.217923529     -4.305916064
H      -5.063091807     -2.853464404     -3.754889823
H      -5.867744618     -4.841289120     -4.131265318
H      -3.145647813     -3.189137704     -4.340508150
H      -3.226353571     -5.329135077     -4.069959950
           6
  t=       182.00000    1    1
C      -4.835480994     -4.031405460     -3.953389771
C      -3.341837190     -4.234617913     -4.314182940
H      -5.108228000     -2.855760593     -3.727990132
H      -5.910813545     -4.889186243     -4.134685551
H      -3.207195145     -3.220332164     -4.366358796
H      -3.175366725     -5.379138260     -4.096754606
           6
  t=       182.50000    1    1
C      -4.843401019     -4.031450025     -3.970788600
C      -3.355530906     -4.251960863     -4.321790546
H      -5.152847756     -2.866334840     -3.702541810
H      -5.942283353     -4.928449502     -4.134525503
H      -3.257944760     -3.248733619     -4.392514660
H      -3.119099140     -5.421828658     -4.126351428
           6
  t=       183.00000    1    1
C      -4.851446792     -4.031922304     -3.988626604
C      -3.371438023     -4.270177340     -4.328757284
H      -5.195749250     -2.884944136     -3.679207836
H      -5.962102697     -4.958875229     -4.131147717
H      -3.297316666     -3.271994268     -4.419336119
H      -3.059705455     -5.454957173     -4.158789355
           6
  t=       183.50000    1    1
C      -4.859755625     -4.032990971     -4.006771567
C      -3.389347468     -4.289385574     -4.335096615
H      -5.236036300     -2.911294468     -3.658593423
H      -5.970366520     -4.980407321     -4.124913504
H      -3.324854160     -3.288598748     -4.447294432
H      -2.999322522     -5.476970644     -4.194045664
           6
  t=       184.00000    1    1
C      -4.868445242     -4.034804263     -4.025096100
C      -3.409043773     -4.309553857     -4.340829073
H      -5.273069217     -2.945031872     -3.641245159
H      -5.967243753     -4.993035675     -4.116194365
H      -3.340220160     -3.298332576     -4.476842992
H      -2.939922872     -5.487059098     -4.232022086
           6
  t=       184.50000    1    1
C      -4.877601916     -4.037498431     -4.043486611
C      -3.430319839     -4.330507157     -4.345992938
H      -5.306393751     -2.985692678     -3.627642063
H      -5.952949946     -4.996757334     -4.105353477
H      -3.343316985     -3.302399786     -4.508202635
H      -2.883282599     -5.484947220     -4.272553006
           6
  t=       185.00000    1    1
C      -4.887261026     -4.041199802     -4.061847250
C      -3.452967205     -4.351961094     -4.350655989
H      -5.335692224     -3.032578744     -3.618175940
H      -5.927830714     -4.991665744     -4.092767045
H      -3.334561759     -3.303111989     -4.541193406
H      -2.831019040     -5.470811390     -4.315384860
           6
  t=       185.50000    1    1
C      -4.897412392     -4.046034470     -4.080099640
C      -3.476760909     -4.373562307     -4.354923903
H      -5.360711651     -3.084626041     -3.613122888
H      -5.892408339     -4.978038599     -4.078843231
H      -3.315000291     -3.303373983     -4.575178050
H      -2.784618963     -5.445241220     -4.360145321
           6
  t=       186.00000    1    1
C      -4.908002351     -4.052117053     -4.098185612
C      -3.501437964     -4.394929789     -4.358943459
H      -5.381332144     -3.140197938     -3.612547497
H      -5.847561385     -4.956557932     -4.064027250
H      -3.286437591     -3.306110681     -4.609085262
H      -2.745291768     -5.409440578     -4.406340070
           6
  t=       186.50000    1    1
C      -4.918949036     -4.059567313     -4.116070842
C      -3.526727538     -4.415708036     -4.362878616
H      -5.397600346     -3.197171973     -3.616202995
H      -5.794380920     -4.928238217     -4.048797133
H      -3.250944397     -3.313722035     -4.641721314
H      -2.714031668     -5.364926535     -4.453386866
           6
  t=       187.00000    1    1
C      -4.930128750     -4.068489206     -4.133750331
C      -3.552347077     -4.435580755     -4.366894670
H      -5.409817965     -3.252947883     -3.623411317
H      -5.734532190     -4.894813227     -4.033636147
H      -3.210509470     -3.327886279     -4.672011925
H      -2.691723682     -5.313417472     -4.500644756
           6
  t=       187.50000    1    1
C      -4.941311627     -4.078893101     -4.151257626
C      -3.578012953     -4.454290855     -4.371145545
H      -5.418754174     -3.304742274     -3.633050902
H      -5.670716632     -4.859102037     -4.018924684
H      -3.167145448     -3.349527701     -4.699121911
H      -2.679003220     -5.256893289     -4.547456230
           6
  t=       188.00000    1    1
C      -4.952116728     -4.090626017     -4.168660757
C      -3.603452366     -4.471648123     -4.375778479
H      -5.425649126     -3.349707492     -3.643727370
H      -5.607136511     -4.825621317     -4.004745008
H      -3.122849800     -3.379034817     -4.722428768
H      -2.676220108     -5.197385845     -4.593190871
           6
  t=       188.50000    1    1
C      -4.962003469     -4.103299011     -4.186082986
C      -3.628410708     -4.487518460     -4.380933204
H      -5.431850762     -3.385077878     -3.654061971
H      -5.549986286     -4.801497083     -3.990375532
H      -3.079447800     -3.416219105     -4.741470837
H      -2.683481946     -5.136955695     -4.637276904
           6
  t=       189.00000    1    1
C      -4.970387442     -4.116322051     -4.203701861
C      -3.652701359     -4.501832014     -4.386728674
H      -5.438517462     -3.408865507     -3.663087120
H      -5.506119351     -4.795306543     -3.973966767
H      -3.038496214     -3.460071261     -4.756004748
H      -2.700407494     -5.077885819     -4.679241757
           6
  t=       189.50000    1    1
C      -4.976920125     -4.129125989     -4.221671886
C      -3.676211077     -4.514587407     -4.393241643
H      -5.446232510     -3.420418687     -3.670631268
H      -5.480273566     -4.813747565     -3.953165235
H      -3.001158088     -3.509487548     -4.765967767
H      -2.726014783     -5.022031985     -4.718917601
           6
  t=       190.00000    1    1
C      -4.981799833     -4.141518029     -4.239934198
C      -3.698802993     -4.525822551     -4.400524442
H      -5.454730387     -3.420574263     -3.677358291
H      -5.472425965     -4.857270780     -3.927228036
H      -2.968602590     -3.562833918     -4.771532625
H      -2.758690989     -4.971586330     -4.756288549
           6
  t=       190.50000    1    1
C      -4.985656763     -4.153747262     -4.258165044
C      -3.720358075     -4.535629771     -4.408598512
H      -5.463306275     -3.411186217     -3.684620248
H      -5.478213493     -4.919719433     -3.897905780
H      -2.941884658     -3.618084490     -4.772820720
H      -2.796358153     -4.928809272     -4.791732797
           6
  t=       191.00000    1    1
C      -4.989163651     -4.166188327     -4.275946439
C      -3.740833783     -4.544135949     -4.417422295
H      -5.471149887     -3.394494577     -3.693992516
H      -5.492575166     -4.993026001     -3.868074326
H      -2.921674188     -3.672998552     -4.769882447
H      -2.836708456     -4.895793088     -4.826224486
           6
  t=       191.50000    1    1
C      -4.992880940     -4.179119315     -4.292891392
C      -3.760231828     -4.551443347     -4.426929786
H      -5.477382971     -3.372838366     -3.707043858
H      -5.511648903     -5.070429285     -3.840337675
H      -2.908273116     -3.725368377     -4.762545249
H      -2.877481820     -4.874635504     -4.861161132
           6
  t=       192.00000    1    1
C      -4.997270893     -4.192659942     -4.308708911
C      -3.778533079     -4.557645082     -4.437062362
H      -5.481146374     -3.348791180     -3.725024649
H      -5.532945653     -5.146941550     -3.816476248
H      -2.901629537     -3.772986699     -4.750476091
H      -2.916798154     -4.867421876     -4.898010913
           6
  t=       192.50000    1    1
C      -5.002708561     -4.206800029     -4.323198801
C      -3.795665719     -4.562841056     -4.447784725
H      -5.481747022     -3.324649913     -3.748768126
H      -5.554865291     -5.219393803     -3.797638137
H      -2.901468160     -3.813886180     -4.733237792
H      -2.953612717     -4.875922528     -4.938035710
           6
  t=       193.00000    1    1
C      -5.009499622     -4.221480499     -4.336219418
C      -3.811499376     -4.567157773     -4.459089077
H      -5.478782888     -3.302269753     -3.778653737
H      -5.576010270     -5.285535344     -3.784860418
H      -2.907415661     -3.846679032     -4.710497769
H      -2.988009512     -4.901117328     -4.981932279
           6
  t=       193.50000    1    1
C      -5.017892743     -4.236631876     -4.347684479
C      -3.825811765     -4.570736786     -4.471018106
H      -5.472166964     -3.283321400     -3.814602901
H      -5.595340769     -5.343518797     -3.779024262
H      -2.919029379     -3.870698191     -4.682157408
H      -3.021243662     -4.942991157     -5.029516143
           6
  t=       194.00000    1    1
C      -5.028050665     -4.252178124     -4.357584434
C      -3.838319559     -4.573724507     -4.483667135
H      -5.462071233     -3.269079533     -3.856090554
H      -5.612469721     -5.392318238     -3.780596151
H      -2.935801012     -3.885981164     -4.648432754
H      -3.055475428     -5.000419211     -5.079607775
           6
  t=       194.50000    1    1
C      -5.040052573     -4.268045004     -4.365985820
C      -3.848754566     -4.576289386     -4.497138416
H      -5.448903080     -3.260501603     -3.902230102
H      -5.627445312     -5.431438628     -3.789682153
H      -2.957175684     -3.893156103     -4.609941345
H      -3.093056257     -5.071188299     -5.130358928
           6
  t=       195.00000    1    1
C      -5.053887625     -4.284192938     -4.373005543
C      -3.856955502     -4.578622725     -4.511509331
H      -5.433308158     -3.258158011     -3.951951601
H      -5.640399864     -5.460513393     -3.806175225
H      -2.982534697     -3.893409255     -4.567629282
H      -3.135877863     -5.152100464     -5.179685400
           6
  t=       195.50000    1    1
C      -5.069485954     -4.300634128     -4.378764764
C      -3.862870272     -4.580913946     -4.526848336
H      -5.416089496     -3.262182345     -4.004171767
H      -5.651440608     -5.479173593     -3.829931750
H      -3.011166014     -3.888011580     -4.522510089
H      -3.185195296     -5.239717626     -5.225541171
           6
  t=       196.00000    1    1
C      -5.086708615     -4.317429473     -4.383403593
C      -3.866592838     -4.583356333     -4.543184409
H      -5.398119995     -3.272153872     -4.057745388
H      -5.660632357     -5.487145677     -3.860777459
H      -3.042173741     -3.878117689     -4.475725719
H      -3.241502716     -5.330550694     -5.266088984
           6
  t=       196.50000    1    1
C      -5.105349409     -4.334693066     -4.387064070
C      -3.868347978     -4.586128741     -4.560516843
H      -5.380289748     -3.287181797     -4.111570685
H      -5.667965744     -5.484101364     -3.898548414
H      -3.074633857     -3.864703577     -4.428335488
H      -3.304622062     -5.421352050     -5.299851139
           6
  t=       197.00000    1    1
C      -5.125119495     -4.352562544     -4.389897228
C      -3.868481069     -4.589376187     -4.578812572
H      -5.363548781     -3.305937657     -4.164604897
H      -5.673480181     -5.469920860     -3.942996095
H      -3.107674463     -3.848821599     -4.381382970
H      -3.373762137     -5.509149608     -5.325669704
           6
  t=       197.50000    1    1
C      -5.145663582     -4.371163067     -4.392068276
C      -3.867404483     -4.593209166     -4.598000345
H      -5.348911541     -3.326776297     -4.215899999
H      -5.677471172     -5.444907176     -3.993693666
H      -3.140528887     -3.831488430     -4.335855570
H      -3.447699462     -5.591460844     -5.342812534
           6
  t=       198.00000    1    1
C      -5.166595735     -4.390563766     -4.393751831
C      -3.865532701     -4.597706749     -4.617980575
H      -5.337347744     -3.348037860     -4.264659838
H      -5.680629317     -5.409917078     -4.049981132
H      -3.172677615     -3.813674927     -4.292647277
H      -3.524953127     -5.666352058     -5.350947781
           6
  t=       198.50000    1    1
C      -5.187502619     -4.410693026     -4.395142443
C      -3.863251388     -4.602912830     -4.638620648
H      -5.329702062     -3.368387912     -4.310324603
H      -5.684275446     -5.366979361     -4.110789833
H      -3.203887921     -3.796467035     -4.252610495
H      -3.603920035     -5.732373270     -5.350113494
           6
  t=       199.00000    1    1
C      -5.207933916     -4.431256326     -4.396455455
C      -3.860914963     -4.608858159     -4.659765013
H      -5.326690258     -3.387041513     -4.352592499
H      -5.690641922     -5.319939962     -4.174574520
H      -3.234079939     -3.781157249     -4.216613247
H      -3.682874655     -5.788313977     -5.340576244
           6
  t=       199.50000    1    1
C      -5.227363846     -4.451676661     -4.397917258
C      -3.858885833     -4.615599387     -4.681250026
H      -5.328866275     -3.403746374     -4.391430083
H      -5.703244561     -5.275085766     -4.239381964
H      -3.263148972     -3.769245662     -4.185525892
H      -3.759798604     -5.832839885     -5.322704641
           6
  t=       200.00000    1    1
C      -5.245139078     -4.471085198     -4.399732698
C      -3.857565847     -4.623229434     -4.702908609
H      -5.336575725     -3.418599983     -4.427082222
H      -5.727195591     -5.241488417     -4.303295409
H      -3.290922799     -3.762327348     -4.160104398
H      -3.832402851     -5.864432299     -5.296964616
