6
Properties=species:S:1:pos:R:3:xtb2_normal_mode_displacements_0:R:3:xtb2_normal_mode_displacements_1:R:3:xtb2_normal_mode_displacements_2:R:3:xtb2_normal_mode_displacements_3:R:3:xtb2_normal_mode_displacements_4:R:3:xtb2_normal_mode_displacements_5:R:3:xtb2_normal_mode_displacements_6:R:3:xtb2_normal_mode_displacements_7:R:3:xtb2_normal_mode_displacements_8:R:3:xtb2_normal_mode_displacements_9:R:3:xtb2_normal_mode_displacements_10:R:3:xtb2_normal_mode_displacements_11:R:3:xtb2_normal_mode_displacements_12:R:3:xtb2_normal_mode_displacements_13:R:3:xtb2_normal_mode_displacements_14:R:3:xtb2_normal_mode_displacements_15:R:3:xtb2_normal_mode_displacements_16:R:3:xtb2_normal_mode_displacements_17:R:3 _ConfigSet_loc=" / 0 / 0" xtb2_normal_mode_frequencies="-0.01885457884661587 -2.074311550321983e-06 -3.910301536538368e-07 0.048067823278715754 0.05601379518107595 0.06019893782995857 0.10047277327585535 0.10702782938977562 0.11770782716505 0.12566531629227037 0.1315759736701009 0.1705956127986916 0.17535788901634686 0.20177362029606796 0.37668747117894025 0.3769683971532448 0.3817325138389717 0.3826455213877805" pbc="F F F"
C        0.00000000       0.00000000       0.00000000       0.00000000       0.00000000       0.28892717       0.00000252       0.40825653      -0.00000000       0.40824974      -0.00000252      -0.00000000       0.00000000       0.00000000       0.37030005       0.00000000       0.00000000      -0.00000000       0.00000000      -0.27645255       0.00000000       0.00000000       0.00000000       0.13028565      -0.00000000      -0.04022509       0.00000000      -0.00000000      -0.00000000       0.09564951      -0.00000000       0.10330284       0.00000000      -0.00000000      -0.00000000      -0.00000000      -0.08294137      -0.00000000      -0.00000000       0.06975735       0.00000000      -0.00000000       0.36099906       0.00000000      -0.00000000      -0.04676923      -0.00000000       0.00000000      -0.04113731      -0.00000000      -0.00000000      -0.00000000      -0.07035990       0.00000000       0.00000000      -0.07207960       0.00000000
C        1.33617246       0.00000000       0.00000000       0.00000000       0.00000000       0.28892717       0.00000252       0.40825653      -0.00000000       0.40824974      -0.00000252      -0.00000000       0.00000000      -0.00000000      -0.37030005       0.00000000      -0.00000000       0.00000000       0.00000000       0.27645255      -0.00000000       0.00000000       0.00000000       0.13028565      -0.00000000      -0.04022509       0.00000000      -0.00000000       0.00000000      -0.09564951       0.00000000      -0.10330284      -0.00000000       0.00000000       0.00000000       0.00000000       0.08294137      -0.00000000      -0.00000000       0.06975735      -0.00000000      -0.00000000      -0.36099906      -0.00000000      -0.00000000       0.04676922       0.00000000      -0.00000000      -0.04113731       0.00000000      -0.00000000      -0.00000000      -0.07035990       0.00000000      -0.00000000       0.07207960       0.00000000
H       -0.56503637       0.92382805       0.00000000       0.00000000       0.00000000       0.45635572      -0.00001443       0.40824417      -0.00000000       0.40824757      -0.00000299      -0.00000000       0.00000000       0.00000000       0.42595650       0.00000000       0.00000000       0.50000000      -0.19227209      -0.41811295       0.00000000      -0.00000000      -0.00000000      -0.49143954       0.43788637       0.23967999      -0.00000000      -0.00000000      -0.00000000      -0.49540447      -0.45300602      -0.19861975      -0.00000000       0.00000000       0.00000000      -0.50000000      -0.45292079      -0.20352671       0.00000000      -0.41560549      -0.27356724       0.00000000      -0.23089053      -0.36266983       0.00000000       0.24605489      -0.43400842       0.00000000       0.24509018      -0.43483866       0.00000000      -0.26795669       0.41919441       0.00000000      -0.27859285       0.41205375       0.00000000
H        1.90120883       0.92382805       0.00000000       0.00000000       0.00000000       0.45635572       0.00001947       0.40824417       0.00000000       0.40824757      -0.00000205       0.00000000       0.00000000      -0.00000000      -0.42595650       0.00000000      -0.00000000      -0.50000000      -0.19227209       0.41811295      -0.00000000       0.00000000      -0.00000000      -0.49143954      -0.43788637       0.23967999      -0.00000000       0.00000000      -0.00000000       0.49540447      -0.45300602       0.19861975      -0.00000000       0.00000000      -0.00000000      -0.50000000       0.45292079      -0.20352671       0.00000000      -0.41560549       0.27356724       0.00000000       0.23089053      -0.36266983       0.00000000      -0.24605489      -0.43400842       0.00000000       0.24509018       0.43483867       0.00000000       0.26795669       0.41919441      -0.00000000      -0.27859285      -0.41205375       0.00000000
H        1.90120883      -0.92382805       0.00000000       0.00000000       0.00000000       0.45635572      -0.00001443       0.40824417      -0.00000000       0.40824757      -0.00000299      -0.00000000      -0.00000000      -0.00000000      -0.42595650      -0.00000000      -0.00000000       0.50000000       0.19227209       0.41811295       0.00000000      -0.00000000      -0.00000000      -0.49143954       0.43788637       0.23967999      -0.00000000      -0.00000000      -0.00000000       0.49540447       0.45300602       0.19861975       0.00000000      -0.00000000      -0.00000000       0.50000000       0.45292079       0.20352671      -0.00000000      -0.41560549      -0.27356724       0.00000000       0.23089053       0.36266983      -0.00000000      -0.24605489       0.43400842      -0.00000000       0.24509018      -0.43483867       0.00000000      -0.26795669       0.41919441      -0.00000000       0.27859285      -0.41205375      -0.00000000
H       -0.56503637      -0.92382805      -0.00000000       0.00000000       0.00000000       0.45635572       0.00001947       0.40824417      -0.00000000       0.40824757      -0.00000205       0.00000000      -0.00000000       0.00000000       0.42595650      -0.00000000       0.00000000      -0.50000000       0.19227209      -0.41811295      -0.00000000       0.00000000      -0.00000000      -0.49143954      -0.43788637       0.23967999      -0.00000000       0.00000000      -0.00000000      -0.49540447       0.45300602      -0.19861975       0.00000000      -0.00000000       0.00000000       0.50000000      -0.45292079       0.20352671      -0.00000000      -0.41560549       0.27356724      -0.00000000      -0.23089053       0.36266983      -0.00000000       0.24605489       0.43400842       0.00000000       0.24509018       0.43483866      -0.00000000       0.26795669       0.41919441       0.00000000       0.27859285       0.41205375       0.00000000
