           6
  t=         0.00000    2    2
C      -0.669886289      0.004339798     -0.004441030
C       0.650381658      0.000266599      0.014564301
H      -1.195876990      0.906767313      0.012430981
H      -1.149965903     -0.917152553     -0.015931520
H       1.279024393      0.893693143     -0.069555772
H       1.299229332     -0.938196259     -0.047569322
           6
  t=         0.50000    2    2
C      -0.669418619      0.002848721     -0.004445856
C       0.649803561     -0.000344839      0.014158424
H      -1.196606884      0.910430595      0.014504635
H      -1.143013509     -0.899920509     -0.016759069
H       1.273962425      0.896338916     -0.069407595
H       1.299384686     -0.936684098     -0.044070671
           6
  t=         1.00000    2    2
C      -0.670084402      0.001599815     -0.004445047
C       0.651296315     -0.001150743      0.013783040
H      -1.199689445      0.916233485      0.017783007
H      -1.140593304     -0.888155533     -0.019227474
H       1.267779400      0.898508423     -0.070678246
H       1.296376220     -0.931936678     -0.039147557
           6
  t=         1.50000    2    2
C      -0.671809942      0.000782760     -0.004428527
C       0.654784665     -0.002121561      0.013434099
H      -1.204695924      0.923461203      0.022445540
H      -1.143580735     -0.883438997     -0.023589416
H       1.260628980      0.900246113     -0.073541092
H       1.290515539     -0.924314540     -0.032625172
           6
  t=         2.00000    2    2
C      -0.674521495      0.000508377     -0.004383517
C       0.660107048     -0.003213888      0.013106936
H      -1.211154749      0.931315631      0.028718675
H      -1.152253939     -0.886288267     -0.030156547
H       1.252778702      0.901721462     -0.078238194
H       1.282388130     -0.914509420     -0.024272904
           6
  t=         2.50000    1    1
C      -0.678151238      0.000786736     -0.004297328
C       0.667023567     -0.004368759      0.012798013
H      -1.218626122      0.939029325      0.036845802
H      -1.166212622     -0.896015827     -0.039247048
H       1.244593050      0.903201963     -0.085061737
H       1.272839752     -0.903531465     -0.013832844
           6
  t=         3.00000    1    1
C      -0.686972843     -0.003420372     -0.009091363
C       0.669723757     -0.010415672      0.007508205
H      -1.285231743      0.887443915     -0.013163942
H      -1.243047220     -0.969669316     -0.107977810
H       1.177660279      0.846477783     -0.151012760
H       1.203999002     -0.951539032     -0.061141003
           6
  t=         3.50000    1    1
C      -0.695811758     -0.008015024     -0.013960585
C       0.671941548     -0.017006661      0.002104716
H      -1.351800294      0.836919121     -0.063757346
H      -1.318602652     -1.040719290     -0.174773570
H       1.115486246      0.796924189     -0.215944999
H       1.135037659     -0.999280451     -0.108568787
           6
  t=         4.00000    1    1
C      -0.704886866     -0.013440003     -0.019043668
C       0.673094116     -0.024871500     -0.003289542
H      -1.417703329      0.788331597     -0.114531588
H      -1.389549732     -1.104977003     -0.238275907
H       1.063109164      0.762168643     -0.281813235
H       1.066512738     -1.045476754     -0.155734859
           6
  t=         4.50000    1    1
C      -0.714363540     -0.019901807     -0.024457892
C       0.672756926     -0.034576906     -0.008516541
H      -1.481931084      0.741943275     -0.164961821
H      -1.453747945     -1.160414789     -0.297354628
H       1.023845360      0.747440369     -0.351290607
H       0.998986811     -1.088433396     -0.202106650
           6
  t=         5.00000    1    1
C      -0.724388535     -0.027458704     -0.030302218
C       0.670795590     -0.046244202     -0.013517566
H      -1.543257121      0.697534180     -0.214316864
H      -1.509918016     -1.206139414     -0.351275660
H       0.997865799      0.752655843     -0.426012814
H       0.933133175     -1.126600164     -0.247034171
           6
  t=         5.50000    1    1
C      -0.735066217     -0.036050665     -0.036675321
C       0.667319666     -0.059534560     -0.018436282
H      -1.600280363      0.654584716     -0.261720225
H      -1.557649857     -1.242182045     -0.399619021
H       0.982570357      0.772727872     -0.505024175
H       0.869678940     -1.159091731     -0.289881913
           6
  t=         6.00000    1    1
C      -0.746491857     -0.045551993     -0.043665802
C       0.662548047     -0.073916899     -0.023562714
H      -1.651581799      0.612525769     -0.306282981
H      -1.597024138     -1.269080134     -0.442245073
H       0.974421345      0.800579616     -0.585392593
H       0.809350417     -1.185550664     -0.330098973
           6
  t=         6.50000    1    1
C      -0.758734593     -0.055833355     -0.051364908
C       0.656662339     -0.088907547     -0.029195547
H      -1.695904458      0.570858686     -0.347248568
H      -1.628277626     -1.287429564     -0.478980784
H       0.970423104      0.830056219     -0.663692040
H       0.752782908     -1.206031939     -0.367394649
           6
  t=         7.00000    1    1
C      -0.771868696     -0.066814414     -0.059862810
C       0.649762655     -0.104173537     -0.035579647
H      -1.732223405      0.529378699     -0.383925993
H      -1.651505619     -1.297580663     -0.509566073
H       0.968652743      0.857015652     -0.737119644
H       0.700661779     -1.220763216     -0.401530717
           6
  t=         7.50000    1    1
C      -0.785964655     -0.078465212     -0.069220331
C       0.641859120     -0.119499106     -0.042949277
H      -1.759784271      0.488362306     -0.415677368
H      -1.666456851     -1.299638110     -0.533788466
H       0.967846751      0.878348451     -0.803407278
H       0.653964147     -1.229734806     -0.432109506
           6
  t=         8.00000    1    1
C      -0.801002507     -0.090778025     -0.079462680
C       0.632902801     -0.134748782     -0.051456788
H      -1.778305738      0.448457036     -0.442169755
H      -1.672925030     -1.293916809     -0.551526009
H       0.967119309      0.892158726     -0.861099862
H       0.613433445     -1.233089676     -0.458925222
           6
  t=         8.50000    1    1
C      -0.816891063     -0.103760947     -0.090597203
C       0.622829247     -0.149837168     -0.061184216
H      -1.788005352      0.410702942     -0.463302568
H      -1.670758594     -1.281036916     -0.562725838
H       0.965780011      0.897454342     -0.909360438
H       0.579507453     -1.231176749     -0.481903273
           6
  t=         9.00000    1    1
C      -0.833474442     -0.117438457     -0.102616521
C       0.611582756     -0.164700529     -0.072144202
H      -1.789667430      0.376222346     -0.479291154
H      -1.659934073     -1.261703131     -0.567306948
H       0.963349231      0.893931964     -0.947826219
H       0.552232935     -1.224578069     -0.501209355
           6
  t=         9.50000    1    1
C      -0.850551792     -0.131861311     -0.115495977
C       0.599123377     -0.179272271     -0.084293559
H      -1.784699341      0.346249542     -0.490680969
H      -1.640553400     -1.236624005     -0.565103221
H       0.959619781      0.881807862     -0.976488052
H       0.531409143     -1.214224353     -0.517281724
           6
  t=        10.00000    1    1
C      -0.867899669     -0.147105625     -0.129182947
C       0.585436617     -0.193449668     -0.097553963
H      -1.775196438      0.322414911     -0.498311013
H      -1.612811844     -1.206673120     -0.555933738
H       0.954593407      0.861506255     -0.995516235
H       0.516835168     -1.201613697     -0.530852317
           6
  t=        10.50000    1    1
C      -0.885285320     -0.163240059     -0.143591647
C       0.570534584     -0.207074927     -0.111844276
H      -1.763782466      0.306668568     -0.503166260
H      -1.577094839     -1.173003198     -0.539770165
H       0.948325586      0.833341270     -1.005014359
H       0.508547026     -1.188919706     -0.542849879
           6
  t=        11.00000    1    1
C      -0.902463091     -0.180293477     -0.158616803
C       0.554433401     -0.219933836     -0.127115175
H      -1.753158804      0.300938529     -0.506146405
H      -1.534106544     -1.137082654     -0.516828261
H       0.940790509      0.797235474     -1.004754999
H       0.506856807     -1.178733105     -0.554228548
           6
  t=        11.50000    1    1
C      -0.919163596     -0.198209159     -0.174143296
C       0.537130516     -0.231790680     -0.143355943
H      -1.745550351      0.306728785     -0.507876730
H      -1.485111121     -1.101025421     -0.487669618
H       0.931933959      0.752818174     -0.994234625
H       0.512128282     -1.173557787     -0.565804367
           6
  t=        12.00000    1    1
C      -0.935083176     -0.216741953     -0.190038235
C       0.518598349     -0.242461344     -0.160556992
H      -1.742045980      0.324631943     -0.508561930
H      -1.432441796     -1.068515674     -0.453495144
H       0.921852571      0.700055692     -0.973208515
H       0.524397254     -1.175383546     -0.578114201
           6
  t=        12.50000    1    1
C      -0.949811332     -0.235269598     -0.206108262
C       0.498750756     -0.251883629     -0.178718376
H      -1.742336834      0.354099212     -0.507905715
H      -1.380631856     -1.046711894     -0.416676757
H       0.910894928      0.639729880     -0.942011863
H       0.543674652     -1.185440737     -0.591050575
           6
  t=        13.00000    1    1
C      -0.962926001     -0.252814247     -0.222150861
C       0.477544698     -0.260181907     -0.197791935
H      -1.744976259      0.393173390     -0.505426387
H      -1.335891420     -1.045704153     -0.380028722
H       0.899515212      0.573489267     -0.901866442
H       0.569753451     -1.203500369     -0.604046125
           6
  t=        13.50000    1    1
C      -0.974163774     -0.268359383     -0.238058308
C       0.454971240     -0.267668761     -0.217691302
H      -1.748097519      0.438926915     -0.500687015
H      -1.303582445     -1.075142284     -0.345192334
H       0.888648856      0.503983457     -0.854818232
H       0.602161188     -1.228022494     -0.616163213
           6
  t=        14.00000    1    1
C      -0.983630294     -0.281483015     -0.253899302
C       0.431029876     -0.274871196     -0.238238482
H      -1.749900673      0.487953093     -0.493457333
H      -1.285166032     -1.137240810     -0.311526725
H       0.880242610      0.435756486     -0.804211215
H       0.639877115     -1.256678595     -0.626231351
           6
  t=        14.50000    1    1
C      -0.991780963     -0.292598267     -0.269820905
C       0.405640624     -0.282518322     -0.259146563
H      -1.748907083      0.537019660     -0.483601791
H      -1.278009573     -1.224317565     -0.277331209
H       0.877916684      0.375579063     -0.754738196
H       0.681549243     -1.287078837     -0.633060378
           6
  t=        15.00000    1    1
C      -0.999157489     -0.302587937     -0.285907882
C       0.378665668     -0.291389239     -0.280104797
H      -1.744136343      0.583236938     -0.470956158
H      -1.278250012     -1.323268509     -0.241786012
H       0.886518075      0.330744535     -0.711106176
H       0.725584099     -1.316928252     -0.635620029
           6
  t=        15.50000    1    1
C      -1.006222096     -0.312175045     -0.302158418
C       0.350063978     -0.302092662     -0.300924719
H      -1.735122685      0.624307202     -0.455243509
H      -1.283252239     -1.423166129     -0.205375795
H       0.910433831      0.306454229     -0.676209009
H       0.770490376     -1.344189451     -0.633076012
           6
  t=        16.00000    1    1
C      -1.013417223     -0.321794537     -0.318509181
C       0.320254478     -0.314784174     -0.321653529
H      -1.721726861      0.658481272     -0.436338649
H      -1.291456331     -1.516854875     -0.169420166
H       0.949950141      0.302560310     -0.649590661
H       0.814562903     -1.367084424     -0.624882202
           6
  t=        16.50000    1    1
C      -1.021188182     -0.331786336     -0.334807967
C       0.290208612     -0.329178200     -0.342529510
H      -1.703769770      0.684365689     -0.414695428
H      -1.302365716     -1.599206741     -0.135526949
H       1.000194715      0.314430227     -0.628337058
H       0.855729062     -1.384067568     -0.610865281
           6
  t=        17.00000    1    1
C      -1.029812653     -0.342343607     -0.350888500
C       0.260884042     -0.344798699     -0.363823751
H      -1.681315888      0.700786991     -0.391490120
H      -1.315843268     -1.667230137     -0.104105985
H       1.054811813      0.336234744     -0.608403940
H       0.892169539     -1.394498432     -0.592234516
           6
  t=        17.50000    1    1
C      -1.039438062     -0.353430752     -0.366662271
C       0.233017914     -0.361214446     -0.385666343
H      -1.654974922      0.707140213     -0.367477204
H      -1.331243692     -1.720360728     -0.075283483
H       1.107968265      0.362285048     -0.587255382
H       0.922654967     -1.398210090     -0.570149610
           6
  t=        18.00000    1    1
C      -1.050206630     -0.364942883     -0.382070952
C       0.207194567     -0.378142801     -0.408051732
H      -1.625573094      0.703284262     -0.343140722
H      -1.347893076     -1.758937528     -0.049280937
H       1.155338890      0.388387650     -0.564091957
H       0.946394732     -1.395146602     -0.545465694
           6
  t=        18.50000    1    1
C      -1.062258762     -0.376794544     -0.397062759
C       0.183899911     -0.395411809     -0.430899000
H      -1.594104537      0.689474986     -0.318920883
H      -1.365329801     -1.783365463     -0.026320354
H       1.193814471      0.411759191     -0.538990459
H       0.962913610     -1.385442748     -0.519024988
           6
  t=        19.00000    1    1
C      -1.075684298     -0.388951119     -0.411585538
C       0.163497680     -0.412918327     -0.454089201
H      -1.561763400      0.666472870     -0.295228545
H      -1.383254654     -1.793965671     -0.006646256
H       1.221291718      0.430708943     -0.512462077
H       0.971946217     -1.369488659     -0.491699686
           6
  t=        19.50000    1    1
C      -1.090492065     -0.401448739     -0.425583320
C       0.146192377     -0.430605216     -0.477491488
H      -1.529864990      0.635610189     -0.272343685
H      -1.401467136     -1.790924510      0.009352647
H       1.236654519      0.444505528     -0.485300193
H       0.973391851     -1.347949163     -0.464253751
           6
  t=        20.00000    1    1
C      -1.106605938     -0.414388865     -0.439013501
C       0.132029319     -0.448432916     -0.500980090
H      -1.499728044      0.598655665     -0.250369967
H      -1.419799591     -1.774303434      0.021294789
H       1.239594836      0.453135249     -0.458282397
H       0.967262569     -1.321780275     -0.437430684
           6
  t=        20.50000    1    1
C      -1.123865570     -0.427936161     -0.451858857
C       0.120904914     -0.466336476     -0.524441712
H      -1.472610124      0.557884680     -0.229186205
H      -1.438125765     -1.744252357      0.028877615
H       1.230357129      0.456998538     -0.432078477
H       0.953768962     -1.292319711     -0.411934523
           6
  t=        21.00000    1    1
C      -1.142051797     -0.442312941     -0.464129689
C       0.112623583     -0.484196460     -0.547780600
H      -1.449756143      0.516204127     -0.208411236
H      -1.456413198     -1.701195125      0.031886825
H       1.209391836      0.456581796     -0.407273141
H       0.933391985     -1.261311104     -0.388365676
           6
  t=        21.50000    1    1
C      -1.160928424     -0.457770947     -0.475860015
C       0.106965016     -0.501829373     -0.570906140
H      -1.432409322      0.477131322     -0.187384692
H      -1.474781481     -1.646013979      0.030097854
H       1.177038378      0.452186089     -0.384577221
H       0.906965776     -1.230877354     -0.367123488
           6
  t=        22.00000    1    1
C      -1.180257839     -0.474507779     -0.487091156
C       0.103675450     -0.518990598     -0.593725041
H      -1.421651289      0.444170204     -0.165406561
H      -1.493583694     -1.580217719      0.023296779
H       1.133411048      0.443814084     -0.364895043
H       0.876003176     -1.203576494     -0.348408970
           6
  t=        22.50000    1    1
C      -1.199753914     -0.492550349     -0.497865904
C       0.102321891     -0.535406117     -0.616141263
H      -1.417996466      0.419565568     -0.142035900
H      -1.513282474     -1.505901579      0.011300693
H       1.078686340      0.431382730     -0.349316207
H       0.843054779     -1.182419504     -0.332025056
           6
  t=        23.00000    1    1
C      -1.219132310     -0.511672908     -0.508213106
C       0.102399827     -0.550797912     -0.638120923
H      -1.421347253      0.403585701     -0.117512105
H      -1.534547495     -1.426001027     -0.005480169
H       1.013029493      0.414928719     -0.338683142
H       0.811150902     -1.170778613     -0.317360167
           6
  t=        23.50000    1    1
C      -1.238076815     -0.531318420     -0.518203866
C       0.103397973     -0.564916950     -0.659671868
H      -1.431234712      0.394864704     -0.092815753
H      -1.558851791     -1.345666527     -0.025350394
H       0.936785093      0.394621715     -0.333747082
H       0.783275504     -1.171911945     -0.303437133
           6
  t=        24.00000    1    1
C      -1.256138693     -0.550557451     -0.528064117
C       0.104806963     -0.577632583     -0.680809206
H      -1.446963207      0.391433267     -0.069550596
H      -1.589194666     -1.273855675     -0.044219919
H       0.850933488      0.370838373     -0.335015603
H       0.761474349     -1.187900877     -0.289362528
           6
  t=        24.50000    1    1
C      -1.272779724     -0.568327551     -0.538196910
C       0.106231717     -0.589007133     -0.701512438
H      -1.467779829      0.391201563     -0.049322530
H      -1.630072111     -1.221053145     -0.055963741
H       0.757242306      0.344231211     -0.342660243
H       0.746017283     -1.218740612     -0.274925573
           6
  t=        25.00000    1    1
C      -1.287497130     -0.583796297     -0.549005972
C       0.107412637     -0.599310667     -0.721696643
H      -1.492918973      0.392074002     -0.033533711
H      -1.686294240     -1.195088055     -0.054729693
H       0.658193444      0.316028708     -0.356484936
H       0.735569264     -1.262435768     -0.260973526
           6
  t=        25.50000    1    1
C      -1.300091631     -0.596773683     -0.560535746
C       0.108147391     -0.608989993     -0.741234668
H      -1.521510295      0.392351353     -0.023383813
H      -1.759458590     -1.196520006     -0.039286786
H       0.556689275      0.288286510     -0.375829116
H       0.727991458     -1.315723201     -0.249183841
           6
  t=        26.00000    1    1
C      -1.310811047     -0.607716396     -0.572374792
C       0.108173310     -0.618629454     -0.760035717
H      -1.552483069      0.390821525     -0.019750213
H      -1.845841752     -1.218793507     -0.014350968
H       0.456019066      0.264367170     -0.399292416
H       0.721283299     -1.374904259     -0.241348030
           6
  t=        26.50000    1    1
C      -1.320166791     -0.617306877     -0.583936750
C       0.107216669     -0.628877465     -0.778110060
H      -1.584765974      0.386760856     -0.023188977
H      -1.938969073     -1.253384885      0.013058448
H       0.359377835      0.248851133     -0.424730288
H       0.714059254     -1.436501389     -0.238899763
           6
  t=        27.00000    1    1
C      -1.328698557     -0.626148231     -0.594734971
C       0.105092201     -0.640331230     -0.795538820
H      -1.617481715      0.379658688     -0.033987999
H      -2.032712558     -1.293312193      0.037066127
H       0.269407760      0.246199979     -0.449782026
H       0.705310253     -1.497144950     -0.242868638
           6
  t=        27.50000    1    1
C      -1.336822348     -0.634658957     -0.604452997
C       0.101730265     -0.653373145     -0.812355528
H      -1.650119252      0.369041480     -0.052327918
H      -2.122694234     -1.334134733      0.053928548
H       0.187929317      0.258789339     -0.473064869
H       0.694113566     -1.553634528     -0.254084512
           6
  t=        28.00000    1    1
C      -1.344821283     -0.643099982     -0.612926821
C       0.097191888     -0.667994072     -0.828525637
H      -1.682313970      0.354711128     -0.078273855
H      -2.206330781     -1.373481352      0.061891257
H       0.115284558      0.285216039     -0.494744817
H       0.679825603     -1.603739770     -0.272927714
           6
  t=        28.50000    1    1
C      -1.352875868     -0.651644104     -0.620142609
C       0.091559335     -0.683847275     -0.843969946
H      -1.713790171      0.336928845     -0.111631075
H      -2.282303225     -1.410340621      0.060718321
H       0.051371865      0.320832591     -0.515988903
H       0.662123905     -1.646158408     -0.299298605
           6
  t=        29.00000    1    1
C      -1.361112479     -0.660446955     -0.626188261
C       0.084842050     -0.700469238     -0.858606400
H      -1.744474904      0.316257494     -0.151866931
H      -2.349663608     -1.444161163      0.050814278
H      -0.003399491      0.360328604     -0.538117728
H       0.640971611     -1.680362945     -0.332744111
           6
  t=        29.50000    1    1
C      -1.369597453     -0.669657402     -0.631202528
C       0.076967968     -0.717448338     -0.872373122
H      -1.774479919      0.293428258     -0.198247398
H      -2.407572233     -1.474575852      0.032776081
H      -0.048215450      0.399315321     -0.562116543
H       0.616475863     -1.706193837     -0.372693950
           6
  t=        30.00000    1    1
C      -1.378316192     -0.679391205     -0.635358466
C       0.067838893     -0.734457388     -0.885259643
H      -1.804115259      0.269295286     -0.249816406
H      -2.455507111     -1.501359909      0.007370856
H      -0.082647651      0.434505655     -0.588554543
H       0.588992510     -1.723962229     -0.418364799
           6
  t=        30.50000    1    1
C      -1.387223008     -0.689758160     -0.638832313
C       0.057353925     -0.751214171     -0.897288457
H      -1.833837389      0.244954698     -0.305522864
H      -2.492920496     -1.524226647     -0.024705273
H      -0.106708001      0.463171020     -0.617723131
H       0.559100035     -1.734376860     -0.468844432
           6
  t=        31.00000    1    1
C      -1.396272822     -0.700879159     -0.641785887
C       0.045418735     -0.767480561     -0.908506075
H      -1.864234659      0.221759374     -0.364353338
H      -2.519174226     -1.542800267     -0.062883269
H      -0.120645799      0.483167523     -0.649669936
H       0.527584793     -1.738419427     -0.523185315
           6
  t=        31.50000    1    1
C      -1.405427368     -0.712874548     -0.644351646
C       0.031937367     -0.783060753     -0.918975206
H      -1.895865230      0.201035921     -0.425501010
H      -2.533674327     -1.556695351     -0.106689284
H      -0.124786656      0.493093670     -0.684275211
H       0.495423967     -1.737299624     -0.580462325
           6
  t=        32.00000    1    1
C      -1.414662648     -0.725838308     -0.646627081
C       0.016793136     -0.797753543     -0.928768471
H      -1.929002589      0.183692077     -0.488452190
H      -2.535980668     -1.565587924     -0.155699095
H      -0.119418539      0.492056620     -0.721392808
H       0.463843346     -1.732633933     -0.639732504
           6
  t=        32.50000    1    1
C      -1.423992534     -0.739809817     -0.648678551
C      -0.000148561     -0.811315591     -0.937969117
H      -1.963388592      0.169925220     -0.552953852
H      -2.525896337     -1.569291307     -0.209479466
H      -0.104791719      0.479517759     -0.760910634
H       0.434407311     -1.726698155     -0.700011570
           6
  t=        33.00000    1    1
C      -1.433488389     -0.754760126     -0.650548783
C      -0.019024806     -0.823472642     -0.946664444
H      -1.998174552      0.159140193     -0.618846490
H      -2.503413119     -1.567747333     -0.267613273
H      -0.081143611      0.455243907     -0.802774046
H       0.408980138     -1.722335002     -0.760381428
           6
  t=        33.50000    1    1
C      -1.443317288     -0.770616203     -0.652277337
C      -0.039922076     -0.833973631     -0.954923847
H      -2.032074876      0.150217493     -0.685810462
H      -2.468489790     -1.560974110     -0.329700179
H      -0.048633770      0.419394592     -0.847028131
H       0.389415785     -1.722428216     -0.820218689
           6
  t=        34.00000    1    1
C      -1.453745950     -0.787282040     -0.653913521
C      -0.062812704     -0.842657226     -0.962784099
H      -2.063657885      0.141832109     -0.753176890
H      -2.421174784     -1.549265451     -0.395309101
H      -0.007089093      0.372573605     -0.893944065
H       0.377006400     -1.729029147     -0.879326451
           6
  t=        34.50000    1    1
C      -1.464921704     -0.804510683     -0.655562200
C      -0.087492367     -0.849668400     -0.970276741
H      -2.091647682      0.132802057     -0.819712580
H      -2.362917097     -1.533972708     -0.463761345
H       0.042642151      0.316488319     -0.943796520
H       0.372094224     -1.742527002     -0.937716531
           6
  t=        35.00000    1    1
C      -1.476778597     -0.821870388     -0.657429344
C      -0.113634750     -0.855381053     -0.977431649
H      -2.114834288      0.122208382     -0.883991299
H      -2.297017945     -1.518012623     -0.533720809
H       0.098567101      0.253135901     -0.996484326
H       0.374089214     -1.761772513     -0.995442162
           6
  t=        35.50000    1    1
C      -1.489006976     -0.838829675     -0.659744992
C      -0.140901816     -0.860300550     -0.984286195
H      -2.132521814      0.109376225     -0.944926902
H      -2.228345608     -1.505839159     -0.603558727
H       0.158889474      0.184906331     -1.051533905
H       0.381242359     -1.784338013     -1.052505494
           6
  t=        36.00000    1    1
C      -1.501090393     -0.854725511     -0.662682413
C      -0.168945111     -0.864997396     -0.990905741
H      -2.144531993      0.093777007     -1.001551573
H      -2.163841532     -1.503979316     -0.672169120
H       0.222525322      0.114803844     -1.108543481
H       0.391094939     -1.807274678     -1.108538628
           6
  t=        36.50000    1    1
C      -1.512380606     -0.868727369     -0.666299002
C      -0.197401864     -0.869992143     -0.997389256
H      -2.151006236      0.074841250     -1.052896014
H      -2.112022623     -1.520975936     -0.739762830
H       0.288617619      0.045669969     -1.167168887
H       0.401115364     -1.828005295     -1.162780986
           6
  t=        37.00000    1    1
C      -1.522503968     -0.880161923     -0.670505403
C      -0.225866773     -0.875628579     -1.003870557
H      -2.152325078      0.052188155     -1.098114893
H      -2.078566643     -1.563821996     -0.808053062
H       0.356192228     -0.020826202     -1.226945565
H       0.409054367     -1.844751834     -1.214299495
           6
  t=        37.50000    1    1
C      -1.531724718     -0.889010903     -0.675206636
C      -0.253845028     -0.882028425     -1.010514866
H      -2.149122028      0.025957469     -1.136678975
H      -2.062116162     -1.632574677     -0.878390122
H       0.423727477     -0.084424962     -1.287060071
H       0.412962297     -1.856623873     -1.262249539
           6
  t=        38.00000    1    1
C      -1.540789961     -0.895931982     -0.680458338
C      -0.280741308     -0.889169560     -1.017515747
H      -2.142228974     -0.003324371     -1.168375400
H      -2.056154355     -1.719782910     -0.949869297
H       0.488883275     -0.145656688     -1.346299655
H       0.411302934     -1.863495541     -1.305992047
           6
  t=        38.50000    1    1
C      -1.550448875     -0.901788001     -0.686422099
C      -0.305951717     -0.896992087     -1.025087899
H      -2.132610676     -0.035061517     -1.193212811
H      -2.054228329     -1.815572045     -1.019959929
H       0.548923520     -0.205058147     -1.403203660
H       0.403055333     -1.865732920     -1.345025929
           6
  t=        39.00000    1    1
C      -1.561194225     -0.907314333     -0.693247877
C      -0.328970616     -0.905435713     -1.033443921
H      -2.121299897     -0.068514159     -1.211505291
H      -2.052305943     -1.911839918     -1.085925982
H       0.601395797     -0.262751814     -1.456214612
H       0.387519171     -1.864011494     -1.379010534
           6
  t=        39.50000    1    1
C      -1.573142504     -0.913028151     -0.700977049
C      -0.349596935     -0.914427064     -1.042727541
H      -2.109330025     -0.102434157     -1.224017325
H      -2.048688991     -2.003853320     -1.146097196
H       0.644817026     -0.318563515     -1.504212082
H       0.364504889     -1.859198611     -1.407766393
           6
  t=        40.00000    1    1
C      -1.586242223     -0.919246389     -0.709575532
C      -0.367700761     -0.923927489     -1.053030439
H      -2.098014105     -0.135249906     -1.231638655
H      -2.043228864     -2.089445650     -1.199788968
H       0.678128996     -0.371969105     -1.546491477
H       0.334073628     -1.852240686     -1.431106678
           6
  t=        40.50000    1    1
C      -1.600307022     -0.926188500     -0.718965458
C      -0.383257650     -0.933914850     -1.064392947
H      -2.088986785     -0.165123291     -1.235516434
H      -2.036451221     -2.167718365     -1.246868467
H       0.700620067     -0.422161166     -1.582587908
H       0.296585462     -1.844330684     -1.448929190
           6
  t=        41.00000    1    1
C      -1.615092999     -0.934078670     -0.729054676
C      -0.396350620     -0.944356293     -1.076807298
H      -2.083890194     -0.190174887     -1.237133195
H      -2.028846447     -2.237737795     -1.287210218
H       0.711878048     -0.468277740     -1.612167268
H       0.252668044     -1.836863760     -1.461401588
           6
  t=        41.50000    1    1
C      -1.630339562     -0.943146762     -0.739744274
C      -0.407156848     -0.955197805     -1.090218736
H      -2.084306781     -0.208570483     -1.238140956
H      -2.020786761     -2.298408232     -1.320672028
H       0.711821462     -0.509622397     -1.635092418
H       0.203363580     -1.831370936     -1.468982235
           6
  t=        42.00000    1    1
C      -1.645811637     -0.953589994     -0.750955198
C      -0.415925632     -0.966361760     -1.104542167
H      -2.091577074     -0.218756182     -1.239919276
H      -2.012516991     -2.348632189     -1.347107388
H       0.700764275     -0.545562392     -1.651425208
H       0.150112939     -1.829711297     -1.472332181
           6
  t=        42.50000    1    1
C      -1.661330746     -0.965522056     -0.762660372
C      -0.422951167     -0.977738774     -1.119668612
H      -2.106499490     -0.220011850     -1.243157174
H      -2.004188862     -2.387368284     -1.366398639
H       0.679302991     -0.575528664     -1.661378560
H       0.094648624     -1.834164133     -1.472288316
           6
  t=        43.00000    1    1
C      -1.676787355     -0.978938215     -0.774895295
C      -0.428534753     -0.989193704     -1.135474583
H      -2.129099656     -0.212821150     -1.247681534
H      -1.995960676     -2.413810626     -1.378545864
H       0.648211837     -0.599056042     -1.665302045
H       0.038665339     -1.847183538     -1.469722545
           6
  t=        43.50000    1    1
C      -1.692140077     -0.993719259     -0.787747387
C      -0.432950548     -1.000598653     -1.151837377
H      -2.158664637     -0.198825646     -1.252581256
H      -1.988048681     -2.427467636     -1.383677007
H       0.608453917     -0.615797799     -1.663685234
H      -0.016523060     -1.870910729     -1.465348893
           6
  t=        44.00000    1    1
C      -1.707401173     -1.009668486     -0.801331313
C      -0.436432925     -1.011895448     -1.168650813
H      -2.194002949     -0.180395217     -1.256546560
H      -1.980743423     -2.428096489     -1.381966932
H       0.561277884     -0.625484313     -1.657169940
H      -0.070127372     -1.906525285     -1.459559359
           6
  t=        44.50000    1    1
C      -1.722610812     -1.026565000     -0.815770191
C      -0.439202484     -1.023159852     -1.185827804
H      -2.233739888     -0.160109548     -1.258218721
H      -1.974428408     -2.415449250     -1.373493580
H       0.508350860     -0.627772063     -1.646588765
H      -0.121698684     -1.953768339     -1.452372785
           6
  t=        45.00000    1    1
C      -1.737814616     -1.044193559     -0.831181394
C      -0.441529803     -1.034618410     -1.203264605
H      -2.276378914     -0.140523234     -1.256420495
H      -1.969645758     -2.389223222     -1.358236167
H       0.452038478     -0.622182186     -1.633167025
H      -0.170789299     -2.010732161     -1.443599520
           6
  t=        45.50000    1    1
C      -1.753045918     -1.062369540     -0.847672572
C      -0.443780704     -1.046622278     -1.220811631
H      -2.320282215     -0.124069050     -1.250235684
H      -1.967152048     -2.349112699     -1.336102600
H       0.395596720     -0.608091013     -1.618629144
H      -0.216780238     -2.073929015     -1.433023083
           6
  t=        46.00000    1    1
C      -1.768312323     -1.080930130     -0.865327708
C      -0.446374343     -1.059600323     -1.238279497
H      -2.363857697     -0.112796440     -1.239067375
H      -1.967836414     -2.295185377     -1.307049312
H       0.342707299     -0.584672485     -1.604935432
H      -0.258971018     -2.138897584     -1.420579598
           6
  t=        46.50000    1    1
C      -1.783584494     -1.099680001     -0.884184034
C      -0.449722857     -1.074013357     -1.255487023
H      -2.405841370     -0.108180241     -1.222601548
H      -1.972455354     -2.228312360     -1.271290130
H       0.296637512     -0.551013531     -1.593742340
H      -0.296575124     -2.201041596     -1.406428053
           6
  t=        47.00000    1    1
C      -1.798770573     -1.118251471     -0.904178090
C      -0.454167252     -1.090218937     -1.272317698
H      -2.445247464     -0.111258439     -1.200763570
H      -1.981539786     -2.151595795     -1.229937218
H       0.259224608     -0.506615952     -1.585840119
H      -0.328915882     -2.256839764     -1.390885126
           6
  t=        47.50000    1    1
C      -1.813663267     -1.135998118     -0.925114948
C      -0.459886721     -1.108289295     -1.288730200
H      -2.481207250     -0.122780385     -1.173865956
H      -1.996399330     -2.072211675     -1.185294021
H       0.230202611     -0.452136148     -1.580918548
H      -0.355621262     -2.304552182     -1.374460157
           6
  t=        48.00000    1    1
C      -1.827943893     -1.151873926     -0.946688638
C      -0.466891998     -1.128036317     -1.304751173
H      -2.512897447     -0.143379298     -1.142521010
H      -2.019631496     -2.002506183     -1.140574087
H       0.207351790     -0.390416124     -1.577765917
H      -0.376366712     -2.343062965     -1.357867366
           6
  t=        48.50000    1    1
C      -1.841080565     -1.164236149     -0.968547581
C      -0.475148555     -1.149114117     -1.320429261
H      -2.539615292     -0.173375709     -1.107451573
H      -2.055821331     -1.962401106     -1.099455294
H       0.187769296     -0.325876538     -1.574912877
H      -0.391116306     -2.371405016     -1.341785066
           6
  t=        49.00000    1    1
C      -1.852534258     -1.171754302     -0.990587102
C      -0.484589461     -1.171152584     -1.335805654
H      -2.561043854     -0.212127576     -1.069375432
H      -2.110060086     -1.968815291     -1.062576424
H       0.168824055     -0.263090179     -1.571223003
H      -0.399685042     -2.388992488     -1.326749565
           6
  t=        49.50000    1    1
C      -1.862249479     -1.174671683     -1.012967376
C      -0.495081947     -1.193862925     -1.350910842
H      -2.577483610     -0.257861945     -1.029178627
H      -2.183453133     -2.020131713     -1.026746657
H       0.148445245     -0.205940667     -1.566097721
H      -0.400839498     -2.395873840     -1.313392330
           6
  t=        50.00000    1    1
C      -1.870797103     -1.174739430     -1.035772167
C      -0.506423048     -1.216982763     -1.365771622
H      -2.589833166     -0.308169334     -0.987875477
H      -2.269985503     -2.097358441     -0.989288488
H       0.125065594     -0.157724871     -1.559321976
H      -0.393744868     -2.392414035     -1.302274181
           6
  t=        50.50000    1    1
C      -1.878851125     -1.173790792     -1.058869755
C      -0.518346600     -1.240143928     -1.380424357
H      -2.599239682     -0.360479138     -0.946402727
H      -2.361844213     -2.182211346     -0.950180074
H       0.097774383     -0.121165896     -1.550875839
H      -0.379296696     -2.379287277     -1.293636381
           6
  t=        51.00000    1    1
C      -1.886835874     -1.173044784     -1.082052089
C      -0.530724790     -1.262908152     -1.394882733
H      -2.606990859     -0.412145738     -0.905556114
H      -2.452881297     -2.263892419     -0.910702109
H       0.066255313     -0.098160614     -1.540838864
H      -0.358505752     -2.358737228     -1.287638957
           6
  t=        51.50000    1    1
C      -1.894944684     -1.173189326     -1.105157026
C      -0.543514038     -1.284861764     -1.409148293
H      -2.614415137     -0.460719924     -0.865701006
H      -2.539485296     -2.337413803     -0.872217018
H       0.030446201     -0.089923897     -1.529389758
H      -0.331808426     -2.333718198     -1.284289046
           6
  t=        52.00000    1    1
C      -1.903270038     -1.174632835     -1.128058613
C      -0.556663737     -1.305640673     -1.423249345
H      -2.622643014     -0.504167154     -0.826916696
H      -2.619770136     -2.400694408     -0.835864509
H      -0.009645519     -0.097027082     -1.516721632
H      -0.299468784     -2.307246300     -1.283338054
           6
  t=        52.50000    1    1
C      -1.911920618     -1.177643522     -1.150611207
C      -0.570130385     -1.324950404     -1.437256522
H      -2.632463312     -0.541192735     -0.789203140
H      -2.692285349     -2.452474757     -0.802875411
H      -0.053717092     -0.119345630     -1.503119188
H      -0.261674533     -2.282313213     -1.284164294
           6
  t=        53.00000    1    1
C      -1.920884123     -1.182279959     -1.172725170
C      -0.584012623     -1.342598931     -1.451206172
H      -2.644160680     -0.571721934     -0.752550733
H      -2.756622370     -2.492983359     -0.774063056
H      -0.100683038     -0.155340509     -1.489181851
H      -0.218606283     -2.261894388     -1.285999585
           6
  t=        53.50000    1    1
C      -1.930165274     -1.188446560     -1.194334547
C      -0.598405295     -1.358490850     -1.465094581
H      -2.657315595     -0.596444369     -0.717315311
H      -2.813143765     -2.523391184     -0.749689134
H      -0.149459020     -0.203451009     -1.475522586
H      -0.170218964     -2.247965719     -1.288443602
           6
  t=        54.00000    1    1
C      -1.939840216     -1.195896637     -1.215330736
C      -0.613297012     -1.372678224     -1.478905766
H      -2.670940393     -0.616318608     -0.684503535
H      -2.862838155     -2.545962753     -0.729640601
H      -0.199140762     -0.262127356     -1.462747777
H      -0.116644246     -2.241172958     -1.291480848
           6
  t=        54.50000    1    1
C      -1.950008737     -1.204367567     -1.235559506
C      -0.628615864     -1.385426307     -1.492581247
H      -2.683767683     -0.632335041     -0.655569579
H      -2.906506488     -2.563005895     -0.713879637
H      -0.248614519     -0.329034737     -1.451616122
H      -0.059130162     -2.240521392     -1.295470870
           6
  t=        55.00000    1    1
C      -1.960827366     -1.213734950     -1.254830365
C      -0.644264378     -1.397216326     -1.506028382
H      -2.694532022     -0.645324417     -0.632060766
H      -2.944143857     -2.575575755     -0.702775640
H      -0.296059870     -0.400426338     -1.442881526
H      -0.000063760     -2.243620062     -1.301116775
           6
  t=        55.50000    1    1
C      -1.972464533     -1.224012013     -1.273015320
C      -0.660212094     -1.408718425     -1.519137747
H      -2.702039088     -0.656090458     -0.615152056
H      -2.975561614     -2.583736737     -0.696698389
H      -0.338378808     -0.469977503     -1.436963982
H       0.057717948     -2.247782701     -1.309282823
           6
  t=        56.00000    1    1
C      -1.985009882     -1.235265750     -1.290069938
C      -0.676543765     -1.420728489     -1.531853373
H      -2.705343705     -0.665446691     -0.605565408
H      -3.000865047     -2.587324354     -0.695750322
H      -0.371560888     -0.528803133     -1.433597529
H       0.111442725     -2.250963576     -1.320606913
           6
  t=        56.50000    1    1
C      -1.998449250     -1.247594911     -1.306031530
C      -0.693385669     -1.433936793     -1.544231955
H      -2.704024052     -0.673859134     -0.603234652
H      -3.020660120     -2.586299591     -0.699787933
H      -0.391834297     -0.568457519     -1.431810483
H       0.158858808     -2.251779619     -1.335150299
           6
  t=        57.00000    1    1
C      -2.012788093     -1.261049579     -1.320896187
C      -0.710757311     -1.448791155     -1.556350145
H      -2.698059065     -0.681487631     -0.608144403
H      -3.035072056     -2.580488698     -0.708913935
H      -0.397173231     -0.583702169     -1.430602371
H       0.198341982     -2.249550402     -1.352959298
           6
  t=        57.50000    1    1
C      -2.028022698     -1.275682581     -1.334663791
C      -0.728497684     -1.465181509     -1.568216754
H      -2.687693810     -0.688207387     -0.620149332
H      -3.043901159     -2.569517431     -0.723368726
H      -0.388346784     -0.575796938     -1.429685303
H       0.228743955     -2.244197166     -1.374123178
           6
  t=        58.00000    1    1
C      -2.044136544     -1.291568516     -1.347356471
C      -0.746274563     -1.482528841     -1.579759714
H      -2.673392039     -0.693553774     -0.638823248
H      -3.046679101     -2.552802334     -0.743509494
H      -0.368721370     -0.551496667     -1.429604852
H       0.249271033     -2.236023590     -1.398760418
           6
  t=        58.50000    1    1
C      -2.061098769     -1.308788919     -1.359029542
C      -0.763697989     -1.500147664     -1.590879977
H      -2.655842279     -0.696730092     -0.663354167
H      -3.042664513     -2.529624426     -0.769774755
H      -0.342865265     -0.519000655     -1.431172491
H       0.259424267     -2.225542528     -1.426954114
           6
  t=        59.00000    1    1
C      -2.078879174     -1.327445416     -1.369758230
C      -0.780436798     -1.517487305     -1.601508802
H      -2.635809417     -0.696652156     -0.692619778
H      -3.031118059     -2.499345666     -0.802630991
H      -0.314738712     -0.484827456     -1.435021322
H       0.258883589     -2.213308389     -1.458649722
           6
  t=        59.50000    1    1
C      -2.097429841     -1.347626945     -1.379627296
C      -0.796265369     -1.534179204     -1.611629147
H      -2.614014194     -0.692016683     -0.725399599
H      -3.011692892     -2.461868565     -0.842392801
H      -0.287074135     -0.453186899     -1.441473311
H       0.247495896     -2.199843982     -1.493624256
           6
  t=        60.00000    1    1
C      -2.116662071     -1.369376486     -1.388723511
C      -0.811048780     -1.549977259     -1.621261784
H      -2.591175265     -0.681488397     -0.760571364
H      -2.984448286     -2.417690624     -0.889135166
H      -0.261751788     -0.426800654     -1.450621268
H       0.225254784     -2.185685749     -1.531550730
           6
  t=        60.50000    1    1
C      -2.136518546     -1.392745491     -1.397105863
C      -0.824715734     -1.564675678     -1.630446726
H      -2.567924536     -0.664007067     -0.797220987
H      -2.949284521     -2.367012847     -0.942988666
H      -0.240121865     -0.407610571     -1.462463821
H       0.192510101     -2.171590130     -1.572034375
           6
  t=        61.00000    1    1
C      -2.156958978     -1.417696248     -1.404822776
C      -0.837218224     -1.578080399     -1.639234060
H      -2.544654503     -0.639237454     -0.834824609
H      -2.906617563     -2.310371085     -1.003742658
H      -0.223309501     -0.396989216     -1.476970177
H       0.150143348     -2.158745697     -1.614666625
           6
  t=        61.50000    1    1
C      -2.177853880     -1.443985503     -1.411945246
C      -0.848573786     -1.589995905     -1.647663874
H      -2.521448917     -0.607652445     -0.873467173
H      -2.858317926     -2.249969357     -1.070361799
H      -0.212193631     -0.395789915     -1.494031651
H       0.099653761     -2.148850465     -1.659182976
           6
  t=        62.00000    1    1
C      -2.198798027     -1.470999115     -1.418616740
C      -0.859008408     -1.600289593     -1.655751225
H      -2.498299721     -0.570770066     -0.913796798
H      -2.808651794     -2.190995644     -1.140596396
H      -0.207253707     -0.404194717     -1.513380446
H       0.043643169     -2.143914335     -1.705563835
           6
  t=        62.50000    1    1
C      -2.218988005     -1.497615139     -1.425087246
C      -0.868875749     -1.608817397     -1.663499685
H      -2.475236168     -0.531220789     -0.956720126
H      -2.766327625     -2.143404524     -1.210605182
H      -0.208894456     -0.422219811     -1.534727506
H      -0.014105094     -2.146421444     -1.754011564
           6
  t=        63.00000    1    1
C      -2.237107927     -1.522091353     -1.431733561
C      -0.878559230     -1.615370801     -1.670895485
H      -2.452559880     -0.492610877     -1.003127246
H      -2.746204000     -2.123730996     -1.274989757
H      -0.217353826     -0.450065559     -1.557725679
H      -0.069303884     -2.159274526     -1.805055887
           6
  t=        63.50000    1    1
C      -2.251951984     -1.542917135     -1.438767710
C      -0.888461113     -1.619898053     -1.677916322
H      -2.430923164     -0.458486058     -1.053154930
H      -2.760660981     -2.145420962     -1.331222609
H      -0.232528847     -0.487588829     -1.581998755
H      -0.118598569     -2.184241829     -1.859203101
           6
  t=        64.00000    1    1
C      -2.263229219     -1.559629050     -1.446053840
C      -0.898752080     -1.622451861     -1.684553614
H      -2.411288540     -0.431414204     -1.106430992
H      -2.811931410     -2.210217124     -1.381269680
H      -0.254292658     -0.534403845     -1.607117791
H      -0.160353799     -2.222292642     -1.917009438
           6
  t=        64.50000    1    1
C      -2.271673756     -1.573021073     -1.453338708
C      -0.909383852     -1.623314231     -1.690869267
H      -2.394817648     -0.412890330     -1.162151662
H      -2.890379985     -2.305785789     -1.428768689
H      -0.282223552     -0.589315043     -1.632574517
H      -0.195292670     -2.272640169     -1.978429120
           6
  t=        65.00000    1    1
C      -2.278599864     -1.584533345     -1.460471392
C      -0.920114664     -1.622994046     -1.697042818
H      -2.382345121     -0.403692329     -1.219266669
H      -2.980271762     -2.412948978     -1.476134006
H      -0.315567950     -0.650345638     -1.658066492
H      -0.226289447     -2.332437352     -2.042059538
           6
  t=        65.50000    1    1
C      -2.284882963     -1.595100859     -1.467483531
C      -0.930788899     -1.622177022     -1.703323196
H      -2.374652605     -0.404938353     -1.276519930
H      -3.070783391     -2.518378600     -1.523768727
H      -0.352618815     -0.714423902     -1.683629198
H      -0.256515938     -2.397653998     -2.105375009
           6
  t=        66.00000    1    1
C      -2.291008430     -1.605146691     -1.474469050
C      -0.941354123     -1.621729963     -1.709945981
H      -2.372999482     -0.417021637     -1.332933500
H      -3.155864576     -2.615073694     -1.571135647
H      -0.390404361     -0.776946243     -1.709064140
H      -0.288576017     -2.464131650     -2.166162921
           6
  t=        66.50000    1    1
C      -2.297210637     -1.615013407     -1.481566364
C      -0.952025012     -1.622592384     -1.717030606
H      -2.378283998     -0.438205586     -1.388202887
H      -3.231817477     -2.699395790     -1.617206984
H      -0.424623650     -0.831479189     -1.733655995
H      -0.324219516     -2.528401979     -2.223398443
           6
  t=        67.00000    1    1
C      -2.303531831     -1.624968431     -1.488903656
C      -0.963238935     -1.625683360     -1.724630686
H      -2.390947602     -0.466469269     -1.442013082
H      -3.296727373     -2.769576668     -1.661264375
H      -0.449964409     -0.870330011     -1.757315486
H      -0.364517044     -2.587808937     -2.276037978
           6
  t=        67.50000    1    1
C      -2.309921043     -1.635139351     -1.496561716
C      -0.975427967     -1.631744113     -1.732756583
H      -2.411458128     -0.500109752     -1.494131672
H      -3.350013379     -2.825298571     -1.702922556
H      -0.461610104     -0.887280931     -1.780519077
H      -0.409857052     -2.640238519     -2.323136574
           6
  t=        68.00000    1    1
C      -2.316338737     -1.645604148     -1.504574942
C      -0.988783468     -1.640969761     -1.741381718
H      -2.439703978     -0.537231547     -1.544482322
H      -3.391907459     -2.867464041     -1.742073027
H      -0.457897733     -0.881206429     -1.803842225
H      -0.459973060     -2.684555042     -2.364210492
           6
  t=        68.50000    1    1
C      -2.322807638     -1.656406347     -1.512927412
C      -1.003108320     -1.653030910     -1.750509660
H      -2.475290657     -0.575992626     -1.593158817
H      -3.423117615     -2.897482939     -1.778776934
H      -0.441205896     -0.856435412     -1.827445270
H      -0.514250994     -2.720268084     -2.399091605
           6
  t=        69.00000    1    1
C      -2.329354362     -1.667566821     -1.521589944
C      -1.017976521     -1.667290204     -1.760189949
H      -2.517619803     -0.614716208     -1.640218725
H      -3.444611851     -2.916895183     -1.813171459
H      -0.416749554     -0.820744114     -1.851059753
H      -0.571865227     -2.747084082     -2.427611085
           6
  t=        69.50000    1    1
C      -2.336022463     -1.679105865     -1.530536550
C      -1.032962588     -1.683136551     -1.770496876
H      -2.566176067     -0.651956751     -1.685663583
H      -3.457108461     -2.926880599     -1.845341638
H      -0.389795526     -0.781639400     -1.874222564
H      -0.631896901     -2.764801648     -2.449569872
           6
  t=        70.00000    1    1
C      -2.342897594     -1.691035638     -1.539757989
C      -1.047734319     -1.700107835     -1.781499180
H      -2.620598935     -0.686721280     -1.729420078
H      -3.460917431     -2.928155552     -1.875222316
H      -0.364310215     -0.744780443     -1.896476261
H      -0.693367940     -2.773399750     -2.464854923
           6
  t=        70.50000    1    1
C      -2.350123901     -1.703347452     -1.549275482
C      -1.062046882     -1.717878271     -1.793250616
H      -2.680562066     -0.718724006     -1.771239156
H      -3.456040449     -2.920977168     -1.902547635
H      -0.342894010     -0.713945770     -1.917436233
H      -0.755202359     -2.773114006     -2.473472391
           6
  t=        71.00000    1    1
C      -2.357901870     -1.716014471     -1.559147755
C      -1.075722403     -1.736208340     -1.805784752
H      -2.745546837     -0.748414419     -1.810650649
H      -3.442288538     -2.905177832     -1.926847034
H      -0.327175044     -0.691461792     -1.936783916
H      -0.816210198     -2.764509917     -2.475581812
           6
  t=        71.50000    1    1
C      -2.366481690     -1.729009233     -1.569468046
C      -1.088634515     -1.754895039     -1.819112295
H      -2.814649395     -0.776777661     -1.847004872
H      -3.419198963     -2.880195524     -1.947477334
H      -0.318243752     -0.678789602     -1.954259499
H      -0.875192160     -2.748449406     -2.471497269
           6
  t=        72.00000    1    1
C      -2.376129815     -1.742297874     -1.580347045
C      -1.100703867     -1.773736571     -1.833212502
H      -2.886568331     -0.804967020     -1.879542989
H      -3.386095606     -2.845485683     -1.963793173
H      -0.316848670     -0.676892368     -1.969682052
H      -0.931147812     -2.726168674     -2.461732138
           6
  t=        72.50000    1    1
C      -2.387074905     -1.755799072     -1.591881020
C      -1.111917919     -1.792489052     -1.848000895
H      -2.959677965     -0.833965293     -1.907466945
H      -3.342583479     -2.801270239     -1.975402819
H      -0.323350499     -0.686287086     -1.982993541
H      -0.983161876     -2.699820995     -2.447393748
           6
  t=        73.00000    1    1
C      -2.399531934     -1.769400982     -1.604138537
C      -1.122310910     -1.810808661     -1.863298228
H      -3.032140542     -0.864377298     -1.930044910
H      -3.288579247     -2.748470859     -1.982081666
H      -0.337817337     -0.707180720     -1.994229190
H      -1.030117835     -2.673102515     -2.430722121
           6
  t=        73.50000    1    1
C      -2.413651004     -1.782967636     -1.617159974
C      -1.131977521     -1.828241123     -1.878823531
H      -3.102129831     -0.896380266     -1.946641172
H      -3.224540841     -2.688727082     -1.983809799
H      -0.359993728     -0.739376624     -2.003504763
H      -1.070722649     -2.651426261     -2.415123948
           6
  t=        74.00000    1    1
C      -2.429428301     -1.796322645     -1.630952308
C      -1.141071931     -1.844253570     -1.894234379
H      -3.168108105     -0.930086099     -1.956785236
H      -3.151852661     -2.624350989     -1.980927004
H      -0.389466343     -0.782603308     -2.010976300
H      -1.103751314     -2.641091004     -2.404571010
           6
  t=        74.50000    1    1
C      -2.446599261     -1.809175297     -1.645457485
C      -1.149782957     -1.858348538     -1.909196626
H      -3.228959454     -0.965371383     -1.960196670
H      -3.073768454     -2.559552482     -1.974696272
H      -0.425688790     -0.836578734     -2.016902202
H      -1.128514937     -2.647683946     -2.402495641
           6
  t=        75.00000    1    1
C      -2.464586567     -1.820921618     -1.660458162
C      -1.158312763     -1.870306353     -1.923533235
H      -3.283850188     -1.001622286     -1.956715019
H      -2.996642254     -2.502772073     -1.968257765
H      -0.467853930     -0.900484971     -2.021554206
H      -1.144770510     -2.674010659     -2.410345700
           6
  t=        75.50000    1    1
C      -2.482361763     -1.830401801     -1.675448959
C      -1.166935893     -1.880337966     -1.937281073
H      -3.331919248     -1.038344559     -1.946420741
H      -2.932260515     -2.469268057     -1.967912876
H      -0.514307606     -0.972193102     -2.025193515
H      -1.152230185     -2.718742275     -2.427060813
           6
  t=        76.00000    1    1
C      -2.498861535     -1.836240473     -1.689791585
C      -1.175990257     -1.889064161     -1.950613461
H      -3.372490080     -1.075185949     -1.929674664
H      -2.892593658     -2.477114362     -1.981399618
H      -0.562122782     -1.048088324     -2.028200973
H      -1.151170785     -2.776763376     -2.449701693
           6
  t=        76.50000    1    1
C      -2.513774409     -1.837945455     -1.703209675
C      -1.185910611     -1.897428384     -1.963747608
H      -3.405476454     -1.111819328     -1.907000880
H      -2.879972033     -2.533697825     -2.012028194
H      -0.606770222     -1.122319358     -2.031115650
H      -1.142408467     -2.841488344     -2.474599878
           6
  t=        77.00000    1    1
C      -2.527635374     -1.836437930     -1.716033166
C      -1.197218206     -1.906576244     -1.976866886
H      -3.431219551     -1.147729786     -1.878935546
H      -2.887270380     -2.629855497     -2.055796540
H      -0.641305143     -1.185875862     -2.034590040
H      -1.127086254     -2.906978182     -2.498452366
           6
  t=        77.50000    1    1
C      -2.541279782     -1.833545544     -1.728952078
C      -1.210402186     -1.917554773     -1.990083973
H      -3.450493584     -1.182136461     -1.845981033
H      -2.904389391     -2.745895275     -2.104342873
H      -0.658043589     -1.229394648     -2.039188801
H      -1.106430956     -2.968815310     -2.518989191
           6
  t=        78.00000    1    1
C      -2.555197720     -1.830760542     -1.742454742
C      -1.225717548     -1.930940473     -2.003476207
H      -3.464432550     -1.214248498     -1.808731063
H      -2.925108476     -2.865793083     -2.151412638
H      -0.652201890     -1.247865879     -2.045013358
H      -1.081434654     -3.024173963     -2.535029445
           6
  t=        78.50000    1    1
C      -2.569528364     -1.829009296     -1.756745533
C      -1.242910478     -1.946651116     -2.017152814
H      -3.474578752     -1.243323626     -1.768010754
H      -2.946979691     -2.980040558     -2.193701160
H      -0.625005035     -1.243524648     -2.051436550
H      -1.053143966     -3.071011166     -2.545943102
           6
  t=        79.00000    1    1
C      -2.584238998     -1.828846195     -1.771862663
C      -1.261247413     -1.964099464     -2.031228079
H      -3.482642035     -1.268693617     -1.724839779
H      -2.969341029     -3.083577442     -2.229602943
H      -0.583073487     -1.224304647     -2.057509973
H      -1.023021345     -3.107513132     -2.551447266
           6
  t=        79.50000    1    1
C      -2.599094682     -1.830408475     -1.787760225
C      -1.280073363     -1.982582572     -2.045723153
H      -3.490199573     -1.290097656     -1.679709056
H      -2.991985859     -3.175349043     -2.259401898
H      -0.534188377     -1.198800234     -2.062740144
H      -0.992519229     -3.133141789     -2.551555570
           6
  t=        80.00000    1    1
C      -2.613854671     -1.833735623     -1.804403308
C      -1.298914539     -2.001593504     -2.060624764
H      -3.498467315     -1.307246620     -1.632706561
H      -3.014678302     -3.255156968     -2.283689507
H      -0.484703199     -1.173110036     -2.066946101
H      -0.962818199     -3.147856013     -2.546343657
           6
  t=        80.50000    1    1
C      -2.628351029     -1.838825962     -1.821753959
C      -1.317449070     -2.020807480     -2.075892251
H      -3.507900592     -1.320223440     -1.583962231
H      -3.037225284     -3.322904279     -2.302996920
H      -0.439101467     -1.150951061     -2.070175279
H      -0.935008875     -3.151842737     -2.536039749
           6
  t=        81.00000    1    1
C      -2.642490780     -1.845603601     -1.839757877
C      -1.335477867     -2.039995929     -2.091458796
H      -3.518129099     -1.329623804     -1.533760802
H      -3.059595108     -3.378950608     -2.317897029
H      -0.400313225     -1.134546839     -2.072621728
H      -0.910043367     -3.145551022     -2.521035381
           6
  t=        81.50000    1    1
C      -2.656254785     -1.853940497     -1.858337933
C      -1.352890190     -2.058997962     -2.107244639
H      -3.528181294     -1.336345610     -1.482642164
H      -3.081895690     -3.423991984     -2.328920456
H      -0.370043222     -1.124982443     -2.074490530
H      -0.888628145     -3.129744658     -2.501924388
           6
  t=        82.00000    1    1
C      -2.669686875     -1.863705350     -1.877391140
C      -1.369640069     -2.077690563     -2.123161652
H      -3.536768068     -1.341421433     -1.431489138
H      -3.104362938     -3.458656755     -2.336460711
H      -0.349034702     -1.122463032     -2.075962334
H      -0.871098657     -3.105587931     -2.479527055
           6
  t=        82.50000    1    1
C      -2.682874656     -1.874785863     -1.896791437
C      -1.385712405     -2.095942725     -2.139113198
H      -3.542545488     -1.345902333     -1.381494154
H      -3.127316662     -3.483415556     -2.340796295
H      -0.337472574     -1.126768665     -2.077206957
H      -0.857430130     -3.074678189     -2.454856253
           6
  t=        83.00000    1    1
C      -2.695923728     -1.887095471     -1.916402535
C      -1.401109537     -2.113579122     -2.154992009
H      -3.544342635     -1.350774314     -1.334020795
H      -3.151041539     -3.498570077     -2.342120172
H      -0.335328648     -1.137612987     -2.078397210
H      -0.847250863     -3.039134714     -2.429084752
           6
  t=        83.50000    1    1
C      -2.708947301     -1.900571533     -1.936090563
C      -1.415857765     -2.130365211     -2.170680771
H      -3.541287815     -1.356880530     -1.290432200
H      -3.175647864     -3.504255096     -2.340575061
H      -0.342521940     -1.154801682     -2.079726605
H      -0.839740848     -3.001715038     -2.403506211
           6
  t=        84.00000    1    1
C      -2.722062916     -1.915182645     -1.955734394
C      -1.430019125     -2.146015340     -2.186059173
H      -3.532817274     -1.364862626     -1.251977935
H      -3.200996882     -3.500330703     -2.336248322
H      -0.359021083     -1.178273318     -2.081406379
H      -0.833494205     -2.965756806     -2.379449380
           6
  t=        84.50000    1    1
C      -2.735386762     -1.930930859     -1.975231442
C      -1.443694357     -2.160225843     -2.201016521
H      -3.518617031     -1.375147841     -1.219736496
H      -3.226698122     -3.486342361     -2.329181721
H      -0.384869758     -1.207974967     -2.083635449
H      -0.826586825     -2.934934146     -2.358136450
           6
  t=        85.00000    1    1
C      -2.749026415     -1.947845888     -1.994498397
C      -1.456988289     -2.172733174     -2.215470344
H      -3.498544506     -1.387966497     -1.194597420
H      -3.252193913     -3.461633243     -2.319401092
H      -0.420130312     -1.243494666     -2.086519914
H      -0.817125707     -2.912871843     -2.340521349
           6
  t=        85.50000    1    1
C      -2.763082020     -1.965971501     -2.013465379
C      -1.469943879     -2.183374332     -2.229382743
H      -3.472549673     -1.403377323     -1.177268968
H      -3.276894584     -3.425552970     -2.306958977
H      -0.464880894     -1.283919059     -2.090027385
H      -0.803967206     -2.902495607     -2.327159905
           6
  t=        86.00000    1    1
C      -2.777642221     -1.985340671     -2.032070953
C      -1.482502663     -2.192149337     -2.242767435
H      -3.440709829     -1.421270094     -1.168257244
H      -3.300255204     -3.377692964     -2.291949884
H      -0.519190509     -1.328339657     -2.094018088
H      -0.787150350     -2.904839610     -2.318159897
           6
  t=        86.50000    1    1
C      -2.792791139     -2.005995056     -2.050261596
C      -1.494502981     -2.199225705     -2.255672469
H      -3.403328451     -1.441351101     -1.167856892
H      -3.321747711     -3.317711313     -2.274499197
H      -0.582811241     -1.375749350     -2.098270896
H      -0.768071556     -2.919054141     -2.313387634
           6
  t=        87.00000    1    1
C      -2.808617493     -2.027984693     -2.067994189
C      -1.505730586     -2.204920037     -2.268168353
H      -3.361050701     -1.463051141     -1.176038665
H      -3.340867486     -3.245448048     -2.254817128
H      -0.654624120     -1.424512559     -2.102410728
H      -0.749205006     -2.943135177     -2.312710867
           6
  t=        87.50000    1    1
C      -2.825146440     -2.051275386     -2.085230492
C      -1.516030267     -2.209656897     -2.280330692
H      -3.314841912     -1.485463274     -1.192372772
H      -3.357438979     -3.161931659     -2.233429388
H      -0.732666002     -1.472241626     -2.105885585
H      -0.733273758     -2.974697373     -2.316140469
           6
  t=        88.00000    1    1
C      -2.842271737     -2.075673747     -2.101955557
C      -1.525456344     -2.214000278     -2.292257195
H      -3.265917586     -1.507431832     -1.215826513
H      -3.371913182     -3.069962842     -2.211240737
H      -0.813660713     -1.515468759     -2.107868235
H      -0.722506172     -3.011147444     -2.323645445
           6
  t=        88.50000    1    1
C      -2.859701719     -2.100810491     -2.118160558
C      -1.534372976     -2.218648813     -2.304086347
H      -3.215528124     -1.527844599     -1.245226700
H      -3.385965867     -2.974379243     -2.189344401
H      -0.892297184     -1.548957389     -2.106929528
H      -0.718423332     -3.050072150     -2.335189914
           6
  t=        89.00000    1    1
C      -2.876836754     -2.125966176     -2.133838080
C      -1.543362053     -2.224425912     -2.316019567
H      -3.165030772     -1.545300170     -1.279059578
H      -3.404343762     -2.884497015     -2.169175066
H      -0.961661225     -1.565734036     -2.100873254
H      -0.722046867     -3.089291365     -2.350737499
           6
  t=        89.50000    1    1
C      -2.892714443     -2.150062684     -2.149022183
C      -1.552938779     -2.232135609     -2.328284317
H      -3.115929921     -1.558016735     -1.315310157
H      -3.436070094     -2.813989582     -2.152055618
H      -1.015888077     -1.559303884     -2.087329418
H      -0.734042532     -3.126674203     -2.370234085
           6
  t=        90.00000    1    1
C      -2.906263873     -2.172138080     -2.163846407
C      -1.563234478     -2.242163717     -2.341014730
H      -3.069510241     -1.564191280     -1.351723549
H      -3.492203043     -2.775028929     -2.138258420
H      -1.053693107     -1.528175254     -2.065335635
H      -0.754547962     -3.160208236     -2.393435060
           6
  t=        90.50000    1    1
C      -2.916982389     -2.192071223     -2.178504752
C      -1.573973885     -2.254318751     -2.354164158
H      -3.026423782     -1.562060576     -1.386414006
H      -3.577994084     -2.769661500     -2.127009897
H      -1.078830943     -1.477309860     -2.036019904
H      -0.783174449     -3.188373688     -2.420115956
           6
  t=        91.00000    1    1
C      -2.925312435     -2.210540004     -2.193093451
C      -1.584715382     -2.268055734     -2.367541171
H      -2.986935531     -1.550537443     -1.418399631
H      -3.687928465     -2.789579913     -2.117804843
H      -1.097162283     -1.415429332     -2.002225104
H      -0.819301213     -3.210259725     -2.450055330
           6
  t=        91.50000    1    1
C      -2.932359229     -2.228451702     -2.207507044
C      -1.595110870     -2.282789559     -2.380935074
H      -2.951330232     -1.529776237     -1.447755537
H      -3.808896262     -2.822513920     -2.111299894
H      -1.113463381     -1.351047392     -1.967356740
H      -0.861955598     -3.225629632     -2.482883138
           6
  t=        92.00000    1    1
C      -2.939060813     -2.246330199     -2.221569218
C      -1.605007056     -2.298064521     -2.394186566
H      -2.920259902     -1.501237307     -1.475401351
H      -3.929988686     -2.859850878     -2.108162105
H      -1.129990231     -1.290300342     -1.934262440
H      -0.909787547     -3.234687033     -2.518164122
           6
  t=        92.50000    1    1
C      -2.946025834     -2.264311773     -2.235096362
C      -1.614373766     -2.313567767     -2.407198397
H      -2.895044977     -1.467557980     -1.502803507
H      -4.044074499     -2.896519401     -2.108566553
H      -1.147343828     -1.237025478     -1.905025734
H      -0.961114009     -3.238132671     -2.555519916
           6
  t=        93.00000    1    1
C      -2.953633740     -2.282330178     -2.247925418
C      -1.623245259     -2.329037167     -2.419899948
H      -2.877017164     -1.431420984     -1.531125193
H      -4.146781166     -2.929877383     -2.112706647
H      -1.165491351     -1.194063913     -1.881454458
H      -1.014079006     -3.236997664     -2.594570479
           6
  t=        93.50000    1    1
C      -2.962064492     -2.300254488     -2.259970044
C      -1.631789996     -2.344231384     -2.432224480
H      -2.866835656     -1.395623728     -1.561348711
H      -4.235409097     -2.958327365     -2.120519296
H      -1.184331940     -1.163189926     -1.864782658
H      -1.066672118     -3.232743528     -2.634986628
           6
  t=        94.00000    1    1
C      -2.971392390     -2.317897222     -2.271188799
C      -1.640257435     -2.358937675     -2.444108137
H      -2.864794943     -1.363005995     -1.594383352
H      -4.307932514     -2.980825893     -2.131743478
H      -1.203919267     -1.145473941     -1.855741791
H      -1.116713179     -3.227272464     -2.676643332
           6
  t=        94.50000    1    1
C      -2.981633992     -2.335086635     -2.281598452
C      -1.648946757     -2.372950222     -2.455480311
H      -2.870816976     -1.335615539     -1.630941819
H      -4.362787383     -2.996912820     -2.145938406
H      -1.224276941     -1.141429699     -1.854402146
H      -1.162058399     -3.222982032     -2.719839882
           6
  t=        95.00000    1    1
C      -2.992721382     -2.351704483     -2.291242580
C      -1.658112553     -2.386086901     -2.466277552
H      -2.884829284     -1.314538929     -1.671273775
H      -4.399933654     -3.006827070     -2.162712464
H      -1.244999678     -1.150734073     -1.860441041
H      -1.201001250     -3.222448948     -2.765277748
           6
  t=        95.50000    1    1
C      -3.004633575     -2.367653124     -2.300155081
C      -1.667902165     -2.398204729     -2.476434817
H      -2.906831585     -1.300622616     -1.715428578
H      -4.419156126     -3.010696410     -2.181788197
H      -1.265901746     -1.173488383     -1.873783033
H      -1.232437304     -3.227464908     -2.813631562
           6
  t=        96.00000    1    1
C      -3.017371563     -2.382870363     -2.308363487
C      -1.678370316     -2.409251892     -2.485907589
H      -2.936750688     -1.294360082     -1.763344938
H      -4.420038639     -3.008536701     -2.202987159
H      -1.287042010     -1.210123372     -1.894493129
H      -1.256133151     -3.238448297     -2.865278454
           6
  t=        96.50000    1    1
C      -3.030959671     -2.397330387     -2.315897560
C      -1.689485439     -2.419306496     -2.494709387
H      -2.974421901     -1.295846192     -1.814846217
H      -4.402040320     -3.000326062     -2.226177125
H      -1.308564884     -1.261057156     -1.922587354
H      -1.272736244     -3.254284904     -2.919995545
           6
  t=        97.00000    1    1
C      -3.045471725     -2.411013647     -2.322795571
C      -1.701137657     -2.428578962     -2.502932998
H      -3.019812301     -1.304965412     -1.869782445
H      -4.364559466     -2.986129047     -2.251122161
H      -1.330306627     -1.326425410     -1.957805254
H      -1.283474531     -3.272615685     -2.976867517
           6
  t=        97.50000    1    1
C      -3.060906563     -2.423919142     -2.329116674
C      -1.713157531     -2.437398187     -2.510775442
H      -3.072814622     -1.320989866     -1.927401760
H      -4.309527017     -2.967000756     -2.277723769
H      -1.351058435     -1.404496419     -1.999390412
H      -1.289765976     -3.290938029     -3.034448694
           6
  t=        98.00000    1    1
C      -3.077274480     -2.436049443     -2.334900428
C      -1.725452292     -2.446095903     -2.518510541
H      -3.132774031     -1.343538749     -1.986196416
H      -4.239232747     -2.944113337     -2.306485933
H      -1.369106995     -1.492259342     -2.046681824
H      -1.292671663     -3.307487977     -3.090669687
           6
  t=        98.50000    1    1
C      -3.094357624     -2.447402782     -2.340276229
C      -1.738067696     -2.455167358     -2.526448842
H      -3.198412493     -1.371074262     -2.044369207
H      -4.157229454     -2.919542348     -2.337665258
H      -1.382977101     -1.584572269     -2.097819581
H      -1.293442680     -3.320989532     -3.143688772
           6
  t=        99.00000    1    1
C      -3.111751932     -2.457948297     -2.345405375
C      -1.751223293     -2.465333899     -2.534961754
H      -3.268376824     -1.401657940     -2.100630449
H      -4.067768676     -2.895824546     -2.371151019
H      -1.390678737     -1.673992886     -2.149403734
H      -1.293369290     -3.330059124     -3.191958769
           6
  t=        99.50000    1    1
C      -3.128736152     -2.467537975     -2.350410387
C      -1.765306317     -2.477520311     -2.544516352
H      -3.341130564     -1.432864699     -2.153854185
H      -3.978922831     -2.877594653     -2.407191694
H      -1.388484675     -1.749866569     -2.196481283
H      -1.293622809     -3.333885958     -3.234284699
           6
  t=       100.00000    1    1
C      -3.144112892     -2.475733818     -2.355306265
C      -1.780826402     -2.492663372     -2.555576003
H      -3.415663347     -1.462901208     -2.203174745
H      -3.904460050     -2.872418904     -2.447012247
H      -1.370868751     -1.800614232     -2.233800028
H      -1.295166742     -3.332332953     -3.269859425
           6
  t=       100.50000    1    1
C      -3.156531844     -2.481892726     -2.359966742
C      -1.798070643     -2.511103594     -2.568296862
H      -3.491359802     -1.490286735     -2.247909787
H      -3.860574152     -2.890052007     -2.493363041
H      -1.334242449     -1.821274797     -2.259357148
H      -1.298680070     -3.325692741     -3.298261604
           6
  t=       101.00000    1    1
C      -3.165485642     -2.485651552     -2.364196002
C      -1.816824323     -2.532304219     -2.582449309
H      -3.567681850     -1.513884983     -2.287619240
H      -3.853999393     -2.936730577     -2.549498333
H      -1.280520700     -1.816741393     -2.275478244
H      -1.304655757     -3.314694820     -3.319420788
           6
  t=       101.50000    1    1
C      -3.171562049     -2.487216585     -2.367934694
C      -1.836452076     -2.555205594     -2.597608152
H      -3.643772342     -1.533519209     -2.322144861
H      -3.878968900     -3.011374552     -2.616725971
H      -1.216353180     -1.797354140     -2.286596505
H      -1.313635396     -3.300424313     -3.333527851
           6
  t=       102.00000    1    1
C      -3.176249818     -2.487418053     -2.371465360
C      -1.856177847     -2.578776134     -2.613359010
H      -3.718606046     -1.550031075     -2.351666287
H      -3.920115005     -3.104425434     -2.691844873
H      -1.149328087     -1.772832125     -2.296490177
H      -1.325931405     -3.284278273     -3.341396958
           6
  t=       102.50000    1    1
C      -3.180902774     -2.487124277     -2.375221490
C      -1.875396915     -2.602275660     -2.629400116
H      -3.790994153     -1.564706570     -2.376266940
H      -3.964037925     -3.205181132     -2.769884702
H      -1.085155662     -1.749475500     -2.307371530
H      -1.341496042     -3.267845734     -3.344133168
           6
  t=       103.00000    1    1
C      -3.186342572     -2.486892446     -2.379526132
C      -1.893759438     -2.625224208     -2.645510652
H      -3.859722803     -1.579151361     -2.396088879
H      -4.003536462     -3.306105757     -2.847023141
H      -1.027156131     -1.730488567     -2.320208108
H      -1.359802208     -3.252932438     -3.343231063
           6
  t=       103.50000    1    1
C      -3.192980205     -2.487006394     -2.384581975
C      -1.911119554     -2.647272951     -2.661500163
H      -3.923627829     -1.594770972     -2.411312716
H      -4.035678213     -3.402937427     -2.920812968
H      -0.977253843     -1.717508695     -2.335201386
H      -1.379862868     -3.241531819     -3.340609992
           6
  t=       104.00000    1    1
C      -3.200985051     -2.487618530     -2.390529300
C      -1.927512983     -2.668127098     -2.677162002
H      -3.981611097     -1.612584893     -2.422138745
H      -4.059453781     -3.493312126     -2.989617674
H      -0.936611624     -1.711464867     -2.352198137
H      -1.400178869     -3.235755975     -3.338650217
           6
  t=       104.50000    1    1
C      -3.210316737     -2.488775831     -2.397428677
C      -1.943127894     -2.687577756     -2.692293065
H      -4.032959830     -1.633395889     -2.428865125
H      -4.075270862     -3.576242648     -3.052705712
H      -0.905571576     -1.712538955     -2.370868841
H      -1.418952096     -3.237536831     -3.339812995
           6
  t=       105.00000    1    1
C      -3.220872074     -2.490489550     -2.405307672
C      -1.958147694     -2.705466955     -2.706729384
H      -4.077407479     -1.657564450     -2.431780435
H      -4.084128956     -3.651647069     -3.109764398
H      -0.884022149     -1.720794109     -2.390811802
H      -1.434605306     -3.248280914     -3.346149488
           6
  t=       105.50000    1    1
C      -3.232497989     -2.492777049     -2.414190380
C      -1.972734401     -2.721693084     -2.720378072
H      -4.114975914     -1.685352605     -2.430977320
H      -4.087045268     -3.719516511     -3.160820296
H      -0.871768249     -1.736237843     -2.411856126
H      -1.446187907     -3.268731402     -3.358531069
           6
  t=       106.00000    1    1
C      -3.244985921     -2.495602085     -2.424044677
C      -1.986959341     -2.736246892     -2.733254746
H      -4.145743794     -1.716990083     -2.426511942
H      -4.085724171     -3.780638058     -3.206651316
H      -0.868521987     -1.758576279     -2.433936647
H      -1.453840021     -3.298707486     -3.376385524
           6
  t=       106.50000    1    1
C      -3.258127738     -2.498908947     -2.434799018
C      -2.000791394     -2.749197036     -2.745466882
H      -4.169938415     -1.752176238     -2.418630164
H      -4.081665507     -3.836440222     -3.248123530
H      -0.874304861     -1.787922011     -2.456922352
H      -1.458663855     -3.336814435     -3.398303792
           6
  t=       107.00000    1    1
C      -3.271744537     -2.502662806     -2.446372652
C      -2.014147027     -2.760691312     -2.757183836
H      -4.187882725     -1.790399039     -2.407640642
H      -4.076046842     -3.888208133     -3.286020389
H      -0.889105435     -1.824249697     -2.480665979
H      -1.462297448     -3.380958422     -3.422285227
           6
  t=       107.50000    1    1
C      -3.285682297     -2.506924817     -2.458731713
C      -2.026917248     -2.770934123     -2.768599629
H      -4.200085440     -1.831087224     -2.393854447
H      -4.069755163     -3.936200178     -3.320629578
H      -0.912838300     -1.867073834     -2.504976086
H      -1.466564456     -3.428773505     -3.446014168
           6
  t=       108.00000    1    1
C      -3.299794786     -2.511849365     -2.471898363
C      -2.039011629     -2.780150015     -2.779887852
H      -4.207426908     -1.873463401     -2.377559522
H      -4.063189046     -3.979713741     -3.351642043
H      -0.945406512     -1.915771998     -2.529644375
H      -1.473102878     -3.477846907     -3.467387508
           6
  t=       108.50000    1    1
C      -3.313921118     -2.517642271     -2.485928912
C      -2.050374126     -2.788549432     -2.791177362
H      -4.211167479     -1.916555460     -2.358983107
H      -4.056423639     -4.017552098     -3.378427044
H      -0.986773433     -1.969767236     -2.554496100
H      -1.483198740     -3.525964351     -3.484777073
           6
  t=       109.00000    1    1
C      -3.327872343     -2.524506781     -2.500876759
C      -2.060968256     -2.796308173     -2.802550986
H      -4.212900362     -1.959219594     -2.338263205
H      -4.049504838     -4.048665335     -3.400448433
H      -1.037027036     -2.028581146     -2.579407379
H      -1.497811114     -3.571281366     -3.497081698
           6
  t=       109.50000    1    1
C      -3.341436411     -2.532606506     -2.516772216
C      -2.070777365     -2.803557254     -2.814051611
H      -4.214456197     -2.000250550     -2.315409715
H      -4.042601784     -4.072531655     -3.417512108
H      -1.096227260     -2.091779556     -2.604290017
H      -1.517605471     -3.612448489     -3.503701541
           6
  t=       110.00000    1    1
C      -3.354408946     -2.542053746     -2.533621527
C      -2.079874432     -2.810430221     -2.825706331
H      -4.217670656     -2.038562908     -2.290313020
H      -4.035979612     -4.089128458     -3.429728333
H      -1.163486521     -2.158404283     -2.628915053
H      -1.542934261     -3.648602528     -3.504467697
           6
  t=       110.50000    1    1
C      -3.366635666     -2.552911546     -2.551418178
C      -2.088540540     -2.817169264     -2.837568658
H      -4.224009038     -2.073382225     -2.262803368
H      -4.029936812     -4.098650489     -3.437295653
H      -1.235471250     -2.225787215     -2.652467199
H      -1.573856340     -3.679354188     -3.499606616
           6
  t=       111.00000    1    1
C      -3.378080357     -2.565202368     -2.570151040
C      -2.097310458     -2.824198393     -2.849752580
H      -4.234114418     -2.104401045     -2.232755418
H      -4.024623417     -4.101100702     -3.440268346
H      -1.305565752     -2.288786988     -2.673201960
H      -1.610253679     -3.704829310     -3.489708243
           6
  t=       111.50000    1    1
C      -3.388859609     -2.578928048     -2.589804877
C      -2.106972078     -2.832107259     -2.862435564
H      -4.247440715     -2.131841655     -2.200254195
H      -4.019856121     -4.096011422     -3.438456684
H      -1.363982689     -2.340174839     -2.688545655
H      -1.651865489     -3.725454120     -3.475517866
           6
  t=       112.00000    1    1
C      -3.399208781     -2.594071396     -2.610337281
C      -2.118451799     -2.841542442     -2.875829768
H      -4.262306235     -2.156400944     -2.165841541
H      -4.015231761     -4.082593202     -3.431543160
H      -1.399371520     -2.372093029     -2.695507593
H      -1.698284057     -3.741679274     -3.457779138
           6
  t=       112.50000    1    1
C      -3.409411386     -2.610570529     -2.631648986
C      -2.132245213     -2.852806361     -2.890032052
H      -4.276575338     -2.179000418     -2.130549709
H      -4.010466206     -4.060385028     -3.419420557
H      -1.405428254     -2.380543063     -2.692257646
H      -1.748949561     -3.754176654     -3.437425855
           6
  t=       113.00000    1    1
C      -3.419733938     -2.628327764     -2.653598911
C      -2.148087863     -2.865618895     -2.904894161
H      -4.288287473     -2.200504134     -2.095673708
H      -4.005463973     -4.029389614     -3.402223393
H      -1.385068251     -2.367815438     -2.679410299
H      -1.802978151     -3.764290749     -3.415861611
           6
  t=       113.50000    1    1
C      -3.430468888     -2.647294008     -2.676050687
C      -2.165123779     -2.879250612     -2.920051587
H      -4.295860248     -2.221414730     -2.062466943
H      -3.999777284     -3.989180017     -3.379903062
H      -1.348355513     -2.341026895     -2.659961523
H      -1.859050743     -3.774105790     -3.394853935
           6
  t=       114.00000    1    1
C      -3.441958858     -2.667484150     -2.698872284
C      -2.182438131     -2.892943257     -2.935122998
H      -4.298062846     -2.241841210     -2.032046282
H      -3.992626237     -3.938812758     -3.352273684
H      -1.305586248     -2.307616440     -2.637475940
H      -1.915700055     -3.785874960     -3.376024274
           6
  t=       114.50000    1    1
C      -3.454547529     -2.688896087     -2.721913440
C      -2.199322263     -2.906117306     -2.949832234
H      -4.293986701     -2.261815864     -2.005471726
H      -3.983557626     -3.877554917     -3.319263390
H      -1.264108315     -2.273301625     -2.614832138
H      -1.971288951     -3.801511805     -3.360587013
           6
  t=       115.00000    1    1
C      -3.468543064     -2.711514384     -2.745043623
C      -2.215268504     -2.918386666     -2.964008262
H      -4.283035065     -2.281454807     -1.983604434
H      -3.972713570     -3.804826927     -3.280890555
H      -1.228315441     -2.241651031     -2.593931404
H      -2.024255599     -3.822695678     -3.349354670
           6
  t=       115.50000    1    1
C      -3.484157485     -2.735261398     -2.768117978
C      -2.229884432     -2.929497617     -2.977548626
H      -4.264911009     -2.300752408     -1.967246538
H      -3.960890183     -3.721157809     -3.237508207
H      -1.200906655     -2.215004196     -2.575915002
H      -2.073551356     -3.850512065     -3.342977697
           6
  t=       116.00000    1    1
C      -3.501292840     -2.759757695     -2.790871678
C      -2.243068119     -2.939388785     -2.990421610
H      -4.239817534     -2.319602891     -1.957218503
H      -3.949539589     -3.630356328     -3.190741707
H      -1.183390896     -2.195020826     -2.561431707
H      -2.118393885     -3.884850775     -3.341895028
           6
  t=       116.50000    1    1
C      -3.519559390     -2.784221992     -2.812876975
C      -2.254841537     -2.948142014     -3.002651425
H      -4.208210918     -2.337789845     -1.953836925
H      -3.942268123     -3.540833399     -3.144767661
H      -1.176806575     -2.182854246     -2.551134276
H      -2.158064340     -3.924698312     -3.345769091
           6
  t=       117.00000    1    1
C      -3.538087782     -2.807172097     -2.833443130
C      -2.265221038     -2.955918959     -3.014268296
H      -4.170666938     -2.354863902     -1.956806866
H      -3.948447378     -3.469741169     -3.107820603
H      -1.182076899     -2.179492854     -2.545826631
H      -2.191856239     -3.968098531     -3.353726848
           6
  t=       117.50000    1    1
C      -3.555490686     -2.826728316     -2.851821595
C      -2.274293392     -2.962994391     -3.025330352
H      -4.127855565     -2.370601640     -1.965683856
H      -3.982914375     -3.439070092     -3.089275110
H      -1.199504531     -2.185355077     -2.546054651
H      -2.219456954     -4.011989760     -3.364519134
           6
  t=       118.00000    1    1
C      -3.570836715     -2.842003248     -2.867734511
C      -2.282160228     -2.969713336     -3.035953085
H      -4.080800443     -2.384482933     -1.979758311
H      -4.055132196     -3.458664023     -3.092570874
H      -1.229036086     -2.200395634     -2.551988810
H      -2.240320273     -4.053556282     -3.377180055
           6
  t=       118.50000    1    1
C      -3.584360910     -2.853893016     -2.881612693
C      -2.289004881     -2.976429101     -3.046311614
H      -4.031563324     -2.395206105     -1.997514307
H      -4.157972457     -3.517783664     -3.112958288
H      -1.270153058     -2.224130076     -2.563277139
H      -2.255046136     -4.090435740     -3.391107020
           6
  t=       119.00000    1    1
C      -3.597060057     -2.864038264     -2.894134114
C      -2.294941942     -2.983416107     -3.056556385
H      -3.982246841     -2.401391083     -2.017116925
H      -4.276198179     -3.597207017     -3.143153309
H      -1.322337655     -2.256168956     -2.579642487
H      -2.264043850     -4.120800355     -3.405824960
           6
  t=       119.50000    1    1
C      -3.609834087     -2.873770719     -2.905905975
C      -2.300145643     -2.990892733     -3.066807145
H      -3.934399430     -2.402080083     -2.036674433
H      -4.396923814     -3.681412910     -3.177359404
H      -1.384202968     -2.295505011     -2.600456203
H      -2.267238044     -4.143665780     -3.420988719
           6
  t=       120.00000    1    1
C      -3.623083319     -2.883798041     -2.917322285
C      -2.304863796     -2.999074489     -3.077176622
H      -3.889502531     -2.396623278     -2.054512411
H      -4.512537558     -3.762161064     -3.212291112
H      -1.453933854     -2.340749432     -2.624890907
H      -2.264851340     -4.158310739     -3.436347440
           6
  t=       120.50000    1    1
C      -3.636886708     -2.894465158     -2.928624409
C      -2.309413558     -3.008196643     -3.087796128
H      -3.848851471     -2.384568555     -2.069295279
H      -4.619422138     -3.835561291     -3.246251683
H      -1.528874839     -2.389877236     -2.651755472
H      -2.257141185     -4.164189100     -3.451683883
           6
  t=       121.00000    1    1
C      -3.651240308     -2.905951728     -2.939956634
C      -2.314263603     -3.018585490     -3.098853292
H      -3.813547513     -2.366108635     -2.080417484
H      -4.715078962     -3.898956854     -3.278029986
H      -1.604735610     -2.439486933     -2.679084014
H      -2.244257709     -4.161137590     -3.466825620
           6
  t=       121.50000    1    1
C      -3.666009069     -2.918261614     -2.951353339
C      -2.320079674     -3.030649991     -3.110622618
H      -3.784195929     -2.341999475     -2.088197655
H      -4.798582769     -3.951471561     -3.307044580
H      -1.675165796     -2.484344273     -2.703479064
H      -2.226547663     -4.149591618     -3.481752380
           6
  t=       122.00000    1    1
C      -3.681026363     -2.931269909     -2.962737451
C      -2.327660604     -3.044889291     -3.123507794
H      -3.760873055     -2.313457042     -2.093838998
H      -4.869908357     -3.993359389     -3.333197700
H      -1.732232817     -2.517546910     -2.719867257
H      -2.204359386     -4.130524305     -3.496540248
           6
  t=       122.50000    1    1
C      -3.696186022     -2.944810739     -2.974015014
C      -2.337669327     -3.061685436     -3.137888084
H      -3.743560127     -2.282372698     -2.098946591
H      -4.928567850     -4.024764191     -3.356311635
H      -1.769243108     -2.532745582     -2.723273005
H      -2.178258801     -4.105673829     -3.511337807
           6
  t=       123.00000    1    1
C      -3.711401910     -2.958694467     -2.985114250
C      -2.350278198     -3.080997813     -3.153853997
H      -3.732450791     -2.250663950     -2.104880009
H      -4.974420934     -4.046176981     -3.376240091
H      -1.784553955     -2.527870271     -2.711824753
H      -2.148807967     -4.077445289     -3.526580130
           6
  t=       123.50000    1    1
C      -3.726590227     -2.972725315     -2.995968385
C      -2.365108996     -3.102242813     -3.171095090
H      -3.727833143     -2.219997313     -2.112721460
H      -5.008142444     -4.058493666     -3.392988032
H      -1.782566809     -2.506567682     -2.688117005
H      -2.116147771     -4.048916485     -3.543080356
           6
  t=       124.00000    1    1
C      -3.741692996     -2.986760596     -3.006520515
C      -2.381551804     -3.124494724     -3.189011054
H      -3.729738646     -2.191724838     -2.123492260
H      -5.030707805     -4.062564432     -3.406646799
H      -1.770650906     -2.475953994     -2.657660543
H      -2.079860509     -4.023499684     -3.562046171
           6
  t=       124.50000    1    1
C      -3.756712650     -3.000745872     -3.016733313
C      -2.399122097     -3.146883623     -3.206993118
H      -3.738121628     -2.167037104     -2.138207537
H      -5.042336237     -4.058464960     -3.417144420
H      -1.755201711     -2.442698979     -2.625854378
H      -2.039121622     -4.004273243     -3.584834099
           6
  t=       125.00000    1    1
C      -3.771715299     -3.014693973     -3.026591002
C      -2.417479080     -3.168799545     -3.224579972
H      -3.752985013     -2.147046358     -2.157762143
H      -5.042349802     -4.045525906     -3.424202231
H      -1.740816711     -2.411819064     -2.596875835
H      -1.993281671     -3.992893113     -3.612335435
           6
  t=       125.50000    1    1
C      -3.786841104     -3.028651977     -3.036098691
C      -2.436337695     -3.189971893     -3.241526771
H      -3.774443568     -2.132838727     -2.182929700
H      -5.029402203     -4.022572590     -3.427292794
H      -1.730295474     -2.386563178     -2.573379449
H      -1.942499192     -3.988862277     -3.644506099
           6
  t=       126.00000    1    1
C      -3.802286608     -3.042665324     -3.045276062
C      -2.455355771     -3.210389849     -3.257769618
H      -3.802671803     -2.125459820     -2.214364421
H      -5.002197074     -3.988403663     -3.425745601
H      -1.725232427     -2.368998976     -2.556906857
H      -1.888036864     -3.989856284     -3.680347571
           6
  t=       126.50000    1    1
C      -3.818202975     -3.056750943     -3.054140424
C      -2.474111616     -3.230155807     -3.273335831
H      -3.837602257     -2.125676003     -2.252481607
H      -4.960653606     -3.942600365     -3.419214474
H      -1.726678193     -2.360371471     -2.548356989
H      -1.832215848     -3.992860714     -3.718360057
           6
  t=       127.00000    1    1
C      -3.834679045     -3.070907489     -3.062708478
C      -2.492217053     -3.249367517     -3.288260747
H      -3.878406185     -2.133698179     -2.297300263
H      -4.905591292     -3.885771188     -3.408008217
H      -1.735333216     -2.361106035     -2.548123065
H      -1.777911745     -3.995482051     -3.757202464
           6
  t=       127.50000    1    1
C      -3.851747396     -3.085173646     -3.070978354
C      -2.509416797     -3.268102325     -3.302569716
H      -3.923745727     -2.149250643     -2.348347577
H      -4.837675699     -3.818671551     -3.393148502
H      -1.751672586     -2.370958372     -2.556601290
H      -1.727975490     -3.996102301     -3.795649921
           6
  t=       128.00000    1    1
C      -3.869235418     -3.099471369     -3.078977988
C      -2.525508430     -3.286311644     -3.316227983
H      -3.972026538     -2.171617494     -2.404320939
H      -4.760329931     -3.744357220     -3.376565372
H      -1.775797621     -2.389774426     -2.574331709
H      -1.684945698     -3.994044574     -3.832616230
           6
  t=       128.50000    1    1
C      -3.886756106     -3.113643698     -3.086763111
C      -2.540382277     -3.303947886     -3.329256288
H      -4.022296945     -2.199446582     -2.463453352
H      -4.678864979     -3.667194336     -3.360248881
H      -1.807284670     -2.417228947     -2.601097631
H      -1.650804988     -3.989057440     -3.867183809
           6
  t=       129.00000    1    1
C      -3.903501360     -3.127316882     -3.094213044
C      -2.553943964     -3.320977284     -3.341709811
H      -4.073944690     -2.231111232     -2.523574552
H      -4.603559807     -3.594218799     -3.348202146
H      -1.845824740     -2.452495922     -2.636714079
H      -1.626949232     -3.981413550     -3.898485256
           6
  t=       129.50000    1    1
C      -3.917764672     -3.139651825     -3.100939097
C      -2.566228773     -3.337389061     -3.353665132
H      -4.125881803     -2.263705464     -2.582005913
H      -4.554784004     -3.539328093     -3.348404243
H      -1.890941045     -2.494581516     -2.680449741
H      -1.614487385     -3.971242054     -3.925670424
           6
  t=       130.00000    1    1
C      -3.927838493     -3.150036050     -3.106555429
C      -2.577317024     -3.353196109     -3.365176573
H      -4.178265853     -2.294097273     -2.636639301
H      -4.551447355     -3.513573836     -3.368401690
H      -1.941979758     -2.542720561     -2.731221670
H      -1.614395449     -3.958532950     -3.948334159
           6
  t=       130.50000    1    1
C      -3.933087899     -3.158607160     -3.110996048
C      -2.587376868     -3.368453530     -3.376339987
H      -4.231280364     -2.318453518     -2.685040622
H      -4.600377206     -3.519824535     -3.412212085
H      -1.997224744     -2.595119300     -2.787246414
H      -1.626940600     -3.943748405     -3.966320579
           6
  t=       131.00000    1    1
C      -3.934659642     -3.166352369     -3.114772988
C      -2.596617945     -3.383281312     -3.387340173
H      -4.285037962     -2.333515383     -2.725112985
H      -4.688507244     -3.550094565     -3.476016262
H      -2.054055615     -2.648740023     -2.846083481
H      -1.651534590     -3.927977558     -3.979683009
           6
  t=       131.50000    1    1
C      -3.934400054     -3.174305126     -3.118627547
C      -2.605292470     -3.397902498     -3.398434564
H      -4.339404563     -2.338634162     -2.756474859
H      -4.795057616     -3.593067343     -3.551233894
H      -2.109208230     -2.699378465     -2.904516791
H      -1.687349901     -3.912417971     -3.988698832
           6
  t=       132.00000    1    1
C      -3.933801833     -3.183064509     -3.123167481
C      -2.613841505     -3.412723438     -3.409945125
H      -4.393730985     -2.335596262     -2.779943300
H      -4.903212715     -3.640077932     -3.629824851
H      -2.158197236     -2.740716023     -2.958140037
H      -1.733294593     -3.898286441     -3.993919174
           6
  t=       132.50000    1    1
C      -3.933731223     -3.192740726     -3.128701557
C      -2.622814994     -3.428254434     -3.422157261
H      -4.446884636     -2.327557001     -2.797268517
H      -5.004592571     -3.686892449     -3.706833546
H      -2.195353616     -2.765024416     -3.001525549
H      -1.787675452     -3.886996026     -3.996897120
           6
  t=       133.00000    1    1
C      -3.934832453     -3.203211228     -3.135398242
C      -2.632687187     -3.444876596     -3.435213448
H      -4.496980023     -2.317835377     -2.810213603
H      -5.094770086     -3.731773321     -3.779067820
H      -2.215951681     -2.766046294     -3.030192668
H      -1.848203287     -3.880141694     -3.999837305
           6
  t=       133.50000    1    1
C      -3.937419302     -3.214237500     -3.143243963
C      -2.643708407     -3.462451679     -3.448903231
H      -4.542100838     -2.309086616     -2.820111183
H      -5.172804149     -3.774666144     -3.845411488
H      -2.219780014     -2.743860757     -3.043988549
H      -1.911225302     -3.879532907     -4.005345578
           6
  t=       134.00000    1    1
C      -3.941651554     -3.225609322     -3.152169404
C      -2.655877635     -3.480293304     -3.462689422
H      -4.580930802     -2.303654636     -2.827922393
H      -5.238849277     -3.815548620     -3.905535338
H      -2.210297723     -2.704387058     -3.046510702
H      -1.972552339     -3.887612355     -4.016419420
           6
  t=       134.50000    1    1
C      -3.947586651     -3.237164345     -3.162110450
C      -2.669123433     -3.497516583     -3.475936853
H      -4.612728369     -2.303337153     -2.834277506
H      -5.292862078     -3.854230928     -3.959259959
H      -2.192415852     -2.655951393     -3.042542243
H      -2.028225080     -3.906924483     -4.036157261
           6
  t=       135.00000    1    1
C      -3.955081911     -3.248702994     -3.172946700
C      -2.683373131     -3.513375613     -3.488123293
H      -4.637096587     -2.309289062     -2.839510311
H      -5.336140479     -3.891312283     -4.007340819
H      -2.170654645     -2.606296777     -3.036217251
H      -2.075388374     -3.939238177     -4.066993165
           6
  t=       135.50000    1    1
C      -3.963942065     -3.260091310     -3.184549979
C      -2.698528156     -3.527425948     -3.498963366
H      -4.653621595     -2.322118474     -2.843879670
H      -5.370349172     -3.927531560     -4.050867949
H      -2.147886199     -2.560839009     -3.030481784
H      -2.113420610     -3.984682741     -4.109559922
           6
  t=       136.00000    1    1
C      -3.973951064     -3.271297013     -3.196778591
C      -2.714385877     -3.539599123     -3.508492424
H      -4.661910619     -2.341990815     -2.847701345
H      -5.397283252     -3.963346297     -4.091088377
H      -2.125586159     -2.522202735     -3.027151377
H      -2.144432666     -4.041210999     -4.161746388
           6
  t=       136.50000    1    1
C      -3.984891580     -3.282267448     -3.209502895
C      -2.730627619     -3.550099968     -3.516988500
H      -4.661873093     -2.368818206     -2.851192168
H      -5.418858955     -3.999327123     -4.129155433
H      -2.104812060     -2.491859928     -3.027240774
H      -2.171928198     -4.105054974     -4.219399430
           6
  t=       137.00000    1    1
C      -3.996585691     -3.292950041     -3.222634372
C      -2.746938406     -3.559240008     -3.524811866
H      -4.653898364     -2.402135772     -2.854367734
H      -5.436548759     -4.036009280     -4.165829883
H      -2.086402374     -2.470864577     -3.031287906
H      -2.199080108     -4.172004729     -4.277966657
           6
  t=       137.50000    1    1
C      -4.008896811     -3.303353002     -3.236114823
C      -2.763065211     -3.567338078     -3.532311681
H      -4.639011209     -2.440869798     -2.857013642
H      -5.451273737     -4.073643638     -4.201507863
H      -2.070975224     -2.460019654     -3.039676007
H      -2.227966924     -4.238183166     -4.333416092
           6
  t=       138.00000    1    1
C      -4.021727968     -3.313574280     -3.249913479
C      -2.778803045     -3.574666458     -3.539784209
H      -4.618832141     -2.483268916     -2.858650425
H      -5.463445385     -4.112096508     -4.236294133
H      -2.059052710     -2.459977018     -3.052791317
H      -2.259632601     -4.300411982     -4.382572691
           6
  t=       138.50000    1    1
C      -4.034991639     -3.323794533     -3.264041243
C      -2.793981695     -3.581435153     -3.547456705
H      -4.595483472     -2.526910051     -2.858460959
H      -5.473148719     -4.150999998     -4.270090437
H      -2.051124358     -2.471235335     -3.070936864
H      -2.294451393     -4.356328430     -4.423210956
           6
  t=       139.00000    1    1
C      -4.048567017     -3.334257660     -3.278553110
C      -2.808467478     -3.587798902     -3.555489926
H      -4.571481516     -2.568757352     -2.855204412
H      -5.480425410     -4.189962821     -4.302788289
H      -2.047640453     -2.494042128     -3.094242853
H      -2.332447452     -4.404362098     -4.453979200
           6
  t=       139.50000    1    1
C      -4.062290206     -3.345233397     -3.293542650
C      -2.822161641     -3.593878702     -3.563993707
H      -4.549522459     -2.605474738     -2.847269815
H      -5.485411463     -4.228678241     -4.334342835
H      -2.048984041     -2.528330447     -3.122613607
H      -2.373535172     -4.443566913     -4.474205174
           6
  t=       140.00000    1    1
C      -4.075991343     -3.356946530     -3.309110397
C      -2.834995552     -3.599779859     -3.573041196
H      -4.531972611     -2.634189476     -2.833043739
H      -5.488400025     -4.266971887     -4.364786125
H      -2.055433400     -2.573750923     -3.155753939
H      -2.417618643     -4.473406085     -4.483695951
           6
  t=       140.50000    1    1
C      -4.089557375     -3.369498283     -3.325310403
C      -2.846925814     -3.605599990     -3.582678185
H      -4.520236446     -2.653420720     -2.811542519
H      -5.489825686     -4.304800110     -4.394200095
H      -2.067127144     -2.629708363     -3.193203773
H      -2.464584417     -4.493629946     -4.482623601
           6
  t=       141.00000    1    1
C      -4.102972730     -3.382819285     -3.342096546
C      -2.857933208     -3.611429357     -3.592929210
H      -4.514432369     -2.663649662     -2.783017787
H      -5.490187382     -4.342211702     -4.422678059
H      -2.084051552     -2.695357649     -3.234342845
H      -2.514243417     -4.504304732     -4.471520675
           6
  t=       141.50000    1    1
C      -4.116310333     -3.396697780     -3.359310460
C      -2.868035416     -3.617352877     -3.603806938
H      -4.513646697     -2.667015214     -2.749064954
H      -5.489913460     -4.379279115     -4.450261887
H      -2.105954933     -2.769510961     -3.278332090
H      -2.566253011     -4.505918253     -4.451325023
           6
  t=       142.00000    1    1
C      -4.129687652     -3.410857651     -3.376710470
C      -2.877352955     -3.623484594     -3.615320235
H      -4.516456544     -2.666400526     -2.712172840
H      -5.489349393     -4.416083625     -4.476987584
H      -2.131727779     -2.850044793     -3.323932251
H      -2.619964391     -4.499560812     -4.423525182
           6
  t=       142.50000    1    1
C      -4.143216345     -3.425027632     -3.394021495
C      -2.886196000     -3.630029706     -3.627491375
H      -4.521438139     -2.664520665     -2.675002407
H      -5.488801119     -4.452730469     -4.502967388
H      -2.158532626     -2.933227303     -3.369364225
H      -2.674306434     -4.486931168     -4.390139412
           6
  t=       143.00000    1    1
C      -4.156964709     -3.438981503     -3.410988528
C      -2.895107143     -3.637298873     -3.640354995
H      -4.527454033     -2.663424987     -2.639806531
H      -5.488563751     -4.489350965     -4.528413094
H      -2.181347397     -3.013677758     -3.412399142
H      -2.727864379     -4.470223250     -4.353557764
           6
  t=       143.50000    1    1
C      -4.170936904     -3.452558403     -3.427418678
C      -2.904810274     -3.645636135     -3.653936964
H      -4.533796509     -2.664506920     -2.608264706
H      -5.488883566     -4.526038772     -4.553522790
H      -2.193239346     -3.085152169     -3.450610616
H      -2.779357199     -4.452011253     -4.316319232
           6
  t=       144.00000    1    1
C      -4.185107649     -3.465653617     -3.443177402
C      -2.916003837     -3.655188408     -3.668166524
H      -4.540067789     -2.668807228     -2.581676084
H      -5.490147303     -4.562894951     -4.578476510
H      -2.187011935     -3.142386147     -3.481890355
H      -2.827971310     -4.435914864     -4.281499222
           6
  t=       144.50000    1    1
C      -4.199458170     -3.478190934     -3.458163948
C      -2.929055316     -3.665672231     -3.682778277
H      -4.545981237     -2.676990009     -2.560934768
H      -5.492944589     -4.600213939     -4.603613388
H      -2.158798950     -3.183910771     -3.505592493
H      -2.873114798     -4.426730230     -4.252873280
           6
  t=       145.00000    1    1
C      -4.213987972     -3.490102206     -3.472297972
C      -2.943823192     -3.676391829     -3.697344661
H      -4.551221729     -2.689380518     -2.546568469
H      -5.497753205     -4.638418093     -4.629364364
H      -2.110517223     -3.212477770     -3.522695152
H      -2.914400376     -4.430060660     -4.234556682
           6
  t=       145.50000    1    1
C      -4.228718171     -3.501336890     -3.485527170
C      -2.959750706     -3.686572684     -3.711462054
H      -4.555478571     -2.706045712     -2.538834795
H      -5.504786332     -4.677804823     -4.656027003
H      -2.048893428     -3.233112715     -3.535132278
H      -2.951581422     -4.450347370     -4.229492967
           6
  t=       146.00000    1    1
C      -4.243696864     -3.511860748     -3.497816689
C      -2.976147582     -3.695788512     -3.724970788
H      -4.558556313     -2.726864897     -2.537854808
H      -5.514105941     -4.718399832     -4.683649484
H      -1.982280452     -3.250721317     -3.544900440
H      -2.984090522     -4.488267059     -4.237834176
           6
  t=       146.50000    1    1
C      -4.258952792     -3.521658099     -3.509148467
C      -2.992412701     -3.704091852     -3.737987189
H      -4.560461601     -2.751570256     -2.543629294
H      -5.525851923     -4.760063790     -4.712154050
H      -1.918168688     -3.268787478     -3.553506608
H      -3.011111038     -4.540303814     -4.256979432
           6
  t=       147.00000    1    1
C      -4.274477684     -3.530728323     -3.519518826
C      -3.008126146     -3.711845755     -3.750767115
H      -4.561372319     -2.779841318     -2.556059411
H      -5.540367570     -4.802732536     -4.741555447
H      -1.861467073     -3.288833961     -3.561708247
H      -3.032314981     -4.601000865     -4.283250468
           6
  t=       147.50000    1    1
C      -4.290242234     -3.539068092     -3.528923717
C      -3.023004315     -3.719490629     -3.763566329
H      -4.561590222     -2.811347964     -2.574965378
H      -5.558122719     -4.846571953     -4.772074538
H      -1.814797667     -3.311065807     -3.569780171
H      -3.048037215     -4.665109312     -4.313332059
           6
  t=       148.00000    1    1
C      -4.306209270     -3.546648652     -3.537338964
C      -3.036829497     -3.727414200     -3.776587477
H      -4.561461516     -2.845744578     -2.600074887
H      -5.579691575     -4.892098149     -4.804235465
H      -1.779685679     -3.335287665     -3.577878095
H      -3.058869222     -4.728376641     -4.344690057
           6
  t=       148.50000    1    1
C      -4.322323830     -3.553474842     -3.544777739
C      -3.049463458     -3.735902597     -3.789969754
H      -4.561392527     -2.882371754     -2.630701577
H      -5.605413738     -4.939853417     -4.838537180
H      -1.757039521     -3.361290443     -3.586123386
H      -3.065458743     -4.787661955     -4.375574927
           6
  t=       149.00000    1    1
C      -4.338494111     -3.559627500     -3.551339705
C      -3.060864192     -3.745153762     -3.803803533
H      -4.561903715     -2.920091517     -2.665484208
H      -5.635256412     -4.990126930     -4.875219712
H      -1.747383096     -3.388950825     -3.594638043
H      -3.068388603     -4.840615526     -4.404721512
           6
  t=       149.50000    1    1
C      -4.354584972     -3.565257064     -3.557214480
C      -3.071083536     -3.755292295     -3.818137404
H      -4.563619958     -2.957331915     -2.702374186
H      -5.668919634     -5.042964350     -4.914277864
H      -1.750866677     -3.418166056     -3.603513360
H      -3.068176270     -4.885589135     -4.431253859
           6
  t=       150.00000    1    1
C      -4.370422269     -3.570573689     -3.562675385
C      -3.080238088     -3.766380582     -3.832982731
H      -4.567311559     -2.992096213     -2.738621767
H      -5.705931162     -5.098242587     -4.955531873
H      -1.767334248     -3.448813053     -3.612805650
H      -3.065365370     -4.921578187     -4.454653000
           6
  t=       150.50000    1    1
C      -4.385806730     -3.575832660     -3.568064749
C      -3.088472799     -3.778445661     -3.848329770
H      -4.573925704     -3.021967785     -2.770778055
H      -5.745733690     -5.155776204     -4.998730722
H      -1.796402807     -3.480720609     -3.622533618
H      -3.060596328     -4.947991855     -4.474637107
           6
  t=       151.00000    1    1
C      -4.400541207     -3.581306348     -3.573756805
C      -3.095938902     -3.791498462     -3.864160417
H      -4.584501108     -3.044364382     -2.795048172
H      -5.787747162     -5.215341798     -5.043591726
H      -1.837439990     -3.513621176     -3.632657794
H      -3.054589921     -4.964527647     -4.491079745
           6
  t=       151.50000    1    1
C      -4.414463688     -3.587231392     -3.580082013
C      -3.102785260     -3.805541680     -3.880454557
H      -4.599917176     -3.057150452     -2.808175705
H      -5.831431732     -5.276660602     -5.089807125
H      -1.889568196     -3.547127509     -3.643061042
H      -3.048040900     -4.971135309     -4.503964224
           6
  t=       152.00000    1    1
C      -4.427471667     -3.593741474     -3.587228030
C      -3.109159718     -3.820574424     -3.897193408
H      -4.620584161     -3.059409983     -2.808605166
H      -5.876337335     -5.339408121     -5.137062871
H      -1.951736198     -3.580764385     -3.653553352
H      -3.041500043     -4.967948243     -4.513337851
           6
  t=       152.50000    1    1
C      -4.439532672     -3.600837442     -3.595185617
C      -3.115241775     -3.836598930     -3.914362082
H      -4.646249386     -3.051808998     -2.797138445
H      -5.922071780     -5.403211690     -5.185032603
H      -2.022495459     -3.613982515     -3.663845537
H      -3.035308836     -4.955185647     -4.519301755
           6
  t=       153.00000    1    1
C      -4.450693426     -3.608413627     -3.603774095
C      -3.121321071     -3.853616890     -3.931952452
H      -4.675944469     -3.036380333     -2.776722745
H      -5.968205496     -5.467608944     -5.233330567
H      -2.099049807     -3.646000079     -3.673335852
H      -3.029653416     -4.933297832     -4.522145999
           6
  t=       153.50000    1    1
C      -4.461071946     -3.616312794     -3.612731095
C      -3.127875026     -3.871627234     -3.949976250
H      -4.708157903     -3.015896459     -2.751433008
H      -6.014247203     -5.532058834     -5.281516691
H      -2.176020122     -3.675336036     -3.680626424
H      -3.024820627     -4.903420734     -4.522620097
           6
  t=       154.00000    1    1
C      -4.470827424     -3.624374938     -3.621797507
C      -3.135561434     -3.890605350     -3.968477007
H      -4.741144891     -2.993217932     -2.725379251
H      -6.059796546     -5.596068220     -5.329203678
H      -2.245479100     -3.699816815     -3.683288618
H      -3.021148037     -4.867560328     -4.521998710
           6
  t=       154.50000    1    1
C      -4.480107737     -3.632474476     -3.630772838
C      -3.145097528     -3.910462897     -3.987509780
H      -4.773285682     -2.970710850     -2.701884215
H      -6.104685968     -5.659354693     -5.376191950
H      -2.298742217     -3.717102155     -3.678165880
H      -3.018799073     -4.828522230     -4.522048217
           6
  t=       155.00000    1    1
C      -4.489027481     -3.640529219     -3.639528124
C      -3.156989127     -3.930939444     -4.007033545
H      -4.803295447     -2.950081186     -2.683242273
H      -6.148939996     -5.721857177     -5.422466529
H      -2.329817251     -3.725448727     -3.662395790
H      -3.017633599     -4.790487439     -4.525377166
           6
  t=       155.50000    1    1
C      -4.497672439     -3.648487984     -3.647995624
C      -3.171265347     -3.951523482     -4.026748478
H      -4.830190506     -2.932518931     -2.670911314
H      -6.192693058     -5.783683947     -5.468145376
H      -2.338780755     -3.724636057     -3.635188667
H      -3.017055212     -4.759083010     -4.535579151
           6
  t=       156.00000    1    1
C      -4.506107740     -3.656317298     -3.656150090
C      -3.187514627     -3.971529054     -4.046080400
H      -4.853262735     -2.918866980     -2.665757757
H      -6.236125536     -5.845036330     -5.513413926
H      -2.331366090     -3.716232962     -3.598624670
H      -3.015986275     -4.740268400     -4.556664747
           6
  t=       156.50000    1    1
C      -4.514372608     -3.663995406     -3.663993248
C      -3.205192281     -3.990339197     -4.064385293
H      -4.872037205     -2.909722513     -2.668256321
H      -6.279420056     -5.906143353     -5.558472979
H      -2.315172679     -3.702835400     -3.556530742
H      -3.013142603     -4.738232197     -4.591784858
           6
  t=       157.00000    1    1
C      -4.522482617     -3.671505065     -3.671537844
C      -3.223802674     -4.007673313     -4.081225739
H      -4.886235499     -2.905527020     -2.678639409
H      -6.322733248     -5.967216757     -5.603504463
H      -2.296821052     -3.687152411     -3.512960183
H      -3.007745682     -4.753161098     -4.641532082
           6
  t=       157.50000    1    1
C      -4.530436857     -3.678829254     -3.678796244
C      -3.242924426     -4.023648799     -4.096505723
H      -4.895739162     -2.906641062     -2.697003238
H      -6.366183308     -6.028423030     -5.648649334
H      -2.281012304     -3.671433408     -3.471248416
H      -3.000126530     -4.781082620     -4.703330549
           6
  t=       158.00000    1    1
C      -4.538222858     -3.685957996     -3.685785162
C      -3.262210479     -4.038618685     -4.110402794
H      -4.900610500     -2.913293027     -2.723262377
H      -6.409847856     -6.089869103     -5.693996485
H      -2.270588035     -3.657284733     -3.433714035
H      -2.991587684     -4.815967367     -4.772543462
           6
  t=       158.50000    1    1
C      -4.545816130     -3.692887692     -3.692529151
C      -3.281405057     -4.052969094     -4.123204211
H      -4.901099555     -2.925597669     -2.757178213
H      -6.453761280     -6.151598905     -5.739581365
H      -2.266919589     -3.645667959     -3.401727634
H      -2.983812891     -4.852137052     -4.844287910
           6
  t=       159.00000    1    1
C      -4.553193717     -3.699626511     -3.699070953
C      -3.300337061     -4.066988637     -4.135167044
H      -4.897626463     -2.943470155     -2.798256615
H      -6.497914523     -6.213598083     -5.785390491
H      -2.270474312     -3.637083561     -3.376009329
H      -2.978236046     -4.885654071     -4.914778942
           6
  t=       159.50000    1    1
C      -4.560334405     -3.706206107     -3.705482167
C      -3.318907233     -4.080854975     -4.146478818
H      -4.890804958     -2.966477153     -2.845609463
H      -6.542269943     -6.275812534     -5.831377114
H      -2.281295860     -3.631975735     -3.357135609
H      -2.975672894     -4.914067519     -4.981287287
           6
  t=       160.00000    1    1
C      -4.567205140     -3.712703193     -3.711884324
C      -3.337067315     -4.094672668     -4.157274954
H      -4.881512663     -2.993609658     -2.897723952
H      -6.586776560     -6.338169626     -5.877478928
H      -2.299178401     -3.630800618     -3.345649428
H      -2.976471506     -4.935842917     -5.041783373
           6
  t=       160.50000    1    1
C      -4.573753701     -3.719262225     -3.718468104
C      -3.354794218     -4.108498875     -4.167655795
H      -4.870922412     -3.023043706     -2.952240041
H      -6.631380617     -6.400595587     -5.923632900
H      -2.323788541     -3.633949803     -3.341984615
H      -2.980743574     -4.950084012     -5.094788686
           6
  t=       161.00000    1    1
C      -4.579907727     -3.726109463     -3.725501177
C      -3.372064798     -4.122362362     -4.177701841
H      -4.860527598     -3.051970822     -3.005836504
H      -6.676035343     -6.463030003     -5.969787793
H      -2.354766048     -3.641712116     -3.346428864
H      -2.988540718     -4.956332066     -5.139239321
           6
  t=       161.50000    1    1
C      -4.585587786     -3.733544455     -3.733312481
C      -3.388841589     -4.136273110     -4.187480863
H      -4.852080540     -3.076666714     -3.054388534
H      -6.720706352     -6.525433047     -6.015910294
H      -2.391731973     -3.654250556     -3.359094097
H      -2.999916886     -4.954499980     -5.174454412
           6
  t=       162.00000    1    1
C      -4.590735050     -3.741884560     -3.742230494
C      -3.405063386     -4.150228944     -4.197049772
H      -4.847307318     -3.093140169     -3.093715361
H      -6.765373197     -6.587786285     -6.061985487
H      -2.434321646     -3.671641364     -3.379979512
H      -3.014961350     -4.944765491     -5.200038297
           6
  t=       162.50000    1    1
C      -4.595344645     -3.751378356     -3.752497059
C      -3.420649615     -4.164223295     -4.206460284
H      -4.847541041     -3.098122874     -3.120583421
H      -6.810026784     -6.650087875     -6.108012683
H      -2.482131014     -3.693866297     -3.408956235
H      -3.033772352     -4.927533309     -5.215856126
           6
  t=       163.00000    1    1
C      -4.599500028     -3.762098582     -3.764171069
C      -3.435514373     -4.178252966     -4.215766221
H      -4.853278375     -3.090324855     -3.133842838
H      -6.854664819     -6.712344965     -6.153998960
H      -2.534627047     -3.720773945     -3.445701100
H      -3.056417677     -4.903409044     -5.222030795
           6
  t=       163.50000    1    1
C      -4.603388184     -3.773883031     -3.777089615
C      -3.449586949     -4.192321377     -4.225027133
H      -4.863929047     -3.071167233     -3.134923680
H      -6.899288439     -6.774567794     -6.199954041
H      -2.591023661     -3.752030283     -3.489612620
H      -3.082887088     -4.873187406     -5.218955613
           6
  t=       164.00000    1    1
C      -4.607275024     -3.786384774     -3.790929087
C      -3.462856571     -4.206432172     -4.234307416
H      -4.877970233     -3.044294011     -3.127196678
H      -6.943901246     -6.836767481     -6.245888098
H      -2.649973814     -3.786971678     -3.539547520
H      -3.113006675     -4.837967362     -5.207481632
           6
  t=       164.50000    1    1
C      -4.611460393     -3.799195887     -3.805325012
C      -3.475412290     -4.220590788     -4.243681898
H      -4.893478077     -3.014183407     -3.114629419
H      -6.988508170     -6.898953976     -6.291809872
H      -2.709157990     -3.824505072     -3.593625762
H      -3.146380916     -4.799149744     -5.188963912
           6
  t=       165.00000    1    1
C      -4.616237410     -3.811938830     -3.819954678
C      -3.487504250     -4.234809624     -4.253231782
H      -4.908620256     -2.985006541     -3.100755433
H      -7.033113796     -6.961135051     -6.337726048
H      -2.764793082     -3.862953147     -3.649020306
H      -3.182147323     -4.758583839     -5.165566984
           6
  t=       165.50000    1    1
C      -4.621870137     -3.824324074     -3.834578742
C      -3.499563907     -4.249121700     -4.263043704
H      -4.922032400     -2.959825138     -3.088042775
H      -7.077720874     -7.023315434     -6.383640805
H      -2.811286077     -3.899756292     -3.701511137
H      -3.218972962     -4.718819296     -5.140858253
           6
  t=       166.00000    1    1
C      -4.628569528     -3.836143509     -3.849019607
C      -3.512151608     -4.263554029     -4.273142848
H      -4.932876196     -2.940609110     -3.078017328
H      -7.122329795     -7.085496619     -6.429555707
H      -2.841942490     -3.931500320     -3.745495332
H      -3.255199672     -4.683456815     -5.120729317
           6
  t=       166.50000    1    1
C      -4.636501932     -3.847249542     -3.863138734
C      -3.525798680     -4.278087757     -4.283401420
H      -4.940745827     -2.928511509     -3.071584330
H      -7.166939671     -7.147678375     -6.475470869
H      -2.850708408     -3.955218845     -3.776057389
H      -3.288974784     -4.656293239     -5.112363818
           6
  t=       167.00000    1    1
C      -4.645764348     -3.857550969     -3.876844260
C      -3.540702153     -4.292588700     -4.293439873
H      -4.945517984     -2.924120781     -3.069223348
H      -7.211549824     -7.209860302     -6.521386114
H      -2.835665352     -3.970171632     -3.791866733
H      -3.318837213     -4.640166461     -5.122230161
           6
  t=       167.50000    1    1
C      -4.656415959     -3.866981936     -3.890070548
C      -3.556568628     -4.306862755     -4.302800051
H      -4.947234057     -2.927757632     -3.071178070
H      -7.256160081     -7.272042298     -6.567301393
H      -2.800070067     -3.978138020     -3.795587298
H      -3.344279823     -4.636074055     -5.153662074
           6
  t=       168.00000    1    1
C      -4.668486132     -3.875490476     -3.902763146
C      -3.572751176     -4.320796680     -4.311272833
H      -4.946084719     -2.939544424     -3.077551188
H      -7.300770391     -7.334224329     -6.613216691
H      -2.750389587     -3.982170654     -3.791885682
H      -3.366003646     -4.642809662     -5.205030955
           6
  t=       168.50000    1    1
C      -4.681949344     -3.883043754     -3.914878716
C      -3.588526655     -4.334408109     -4.319005728
H      -4.942388040     -2.959440986     -3.088395896
H      -7.345380712     -7.396406368     -6.659131994
H      -2.693702804     -3.985230845     -3.785338291
H      -3.385532607     -4.657633283     -5.270465947
           6
  t=       169.00000    1    1
C      -4.696733771     -3.889636785     -3.926389522
C      -3.603303724     -4.347795264     -4.326373548
H      -4.936522931     -2.987246525     -3.103734648
H      -7.389991032     -7.458588407     -6.705047296
H      -2.635966908     -3.989589647     -3.779518784
H      -3.404432670     -4.677363671     -5.342235308
           6
  t=       169.50000    1    1
C      -4.712736795     -3.895288950     -3.937285991
C      -3.616722657     -4.361074875     -4.333803156
H      -4.928895415     -3.022629620     -3.123475471
H      -7.434601353     -7.520770446     -6.750962598
H      -2.581106142     -3.996512043     -3.776428819
H      -3.423882708     -4.699445425     -5.413457048
           6
  t=       170.00000    1    1
C      -4.729801516     -3.900072390     -3.947603197
C      -3.628626868     -4.374329928     -4.341612670
H      -4.920022764     -3.064839320     -3.147164648
H      -7.479211674     -7.582952485     -6.796877901
H      -2.531609214     -4.006548895     -3.776942228
H      -3.444612147     -4.722230190     -5.479502518
           6
  t=       170.50000    1    1
C      -4.747732225     -3.904134707     -3.957439186
C      -3.638994566     -4.387597396     -4.349998825
H      -4.910557482     -3.112430668     -3.173719726
H      -7.523821994     -7.645134524     -6.842793203
H      -2.489188860     -4.020003744     -3.781578030
H      -3.466847401     -4.744660041     -5.537422665
           6
  t=       171.00000    1    1
C      -4.766302961     -3.907714557     -3.966974125
C      -3.647906285     -4.400871444     -4.359066817
H      -4.901238786     -3.163114031     -3.201205920
H      -7.568432315     -7.707316563     -6.888708505
H      -2.454986054     -4.037062502     -3.790685973
H      -3.490441139     -4.766064494     -5.585402210
           6
  t=       171.50000    1    1
C      -4.785267725     -3.911135321     -3.976481901
C      -3.655513880     -4.414118525     -4.368864037
H      -4.892800615     -3.213811411     -3.226744021
H      -7.613042636     -7.769498602     -6.934623807
H      -2.429683830     -4.057796703     -3.804451127
H      -3.515098178     -4.785996417     -5.622307074
           6
  t=       172.00000    1    1
C      -4.804378955     -3.914770382     -3.986313209
C      -3.662005049     -4.427295329     -4.379404265
H      -4.885858743     -3.260962930     -3.246672010
H      -7.657652957     -7.831680641     -6.980539110
H      -2.413692599     -4.082172947     -3.822932554
H      -3.540505647     -4.804116071     -5.647397230
           6
  t=       172.50000    1    1
C      -4.823416651     -3.918972682     -3.996831955
C      -3.667574182     -4.440359174     -4.390675403
H      -4.880751180     -3.301245720     -3.257208526
H      -7.702263277     -7.893862680     -7.026454412
H      -2.407266601     -4.110059150     -3.846068418
H      -3.566376474     -4.820181450     -5.660323850
           6
  t=       173.00000    1    1
C      -4.842208768     -3.923999149     -4.008329529
C      -3.672392388     -4.453276150     -4.402651136
H      -4.877489110     -3.332354465     -3.255354583
H      -7.746873598     -7.956044719     -7.072369714
H      -2.410642276     -4.141255984     -3.873703098
H      -3.592474171     -4.834039776     -5.661082986
           6
  t=       173.50000    1    1
C      -4.860629602     -3.929946503     -4.020930463
C      -3.676596911     -4.466025772     -4.415295541
H      -4.875840698     -3.353711951     -3.239966763
H      -7.791483919     -8.018226758     -7.118285016
H      -2.424087304     -4.175509196     -3.905603843
H      -3.618625401     -4.845614120     -5.649994970
           6
  t=       174.00000    1    1
C      -4.878582919     -3.936742433     -4.034546228
C      -3.680296410     -4.478596874     -4.428563624
H      -4.875510456     -3.366597826     -3.212307761
H      -7.836094239     -8.080408796     -7.164200319
H      -2.447865906     -4.212516885     -3.941455519
H      -3.644713349     -4.854921437     -5.627703275
           6
  t=       174.50000    1    1
C      -4.895983688     -3.944205529     -4.048919175
C      -3.683591084     -4.490975378     -4.442394561
H      -4.876305502     -3.373498923     -3.175543723
H      -7.880704560     -8.142590835     -7.210115621
H      -2.482101185     -4.251941641     -3.980851045
H      -3.670627087     -4.862141671     -5.595243646
           6
  t=       175.00000    1    1
C      -4.912752760     -3.952118108     -4.063704822
C      -3.686596582     -4.503129713     -4.456692731
H      -4.878172335     -3.377289464     -3.133781981
H      -7.925314881     -8.204772874     -7.256030923
H      -2.526595555     -4.293423722     -4.023289177
H      -3.696182775     -4.867730360     -5.554254125
           6
  t=       175.50000    1    1
C      -4.928827814     -3.960283181     -4.078559304
C      -3.689462888     -4.514998178     -4.471296219
H      -4.881123982     -3.380560886     -3.091073969
H      -7.969925202     -8.266954913     -7.301946225
H      -2.580580084     -4.336590024     -4.068166292
H      -3.721091747     -4.872551660     -5.507313597
           6
  t=       176.00000    1    1
C      -4.944170320     -3.968553707     -4.093197421
C      -3.692395500     -4.526480017     -4.485948926
H      -4.885189294     -3.385241497     -3.050731883
H      -8.014535522     -8.329136952     -7.347861528
H      -2.642330325     -4.381019955     -4.114644795
H      -3.745060051     -4.878050487     -5.458397420
           6
  t=       176.50000    1    1
C      -4.958757729     -3.976838798     -4.107417559
C      -3.695719239     -4.537433362     -4.500272954
H      -4.890370575     -3.392539802     -3.015150457
H      -8.059145843     -8.391318991     -7.393776830
H      -2.708019311     -4.425996880     -4.161023717
H      -3.768310611     -4.886508449     -5.413717088
           6
  t=       177.00000    1    1
C      -4.972558715     -3.985100674     -4.121100020
C      -3.699955490     -4.547688221     -4.513863165
H      -4.896633639     -3.403077611     -2.985898830
H      -8.103756164     -8.453501030     -7.439692132
H      -2.770934169     -4.470520804     -4.204498579
H      -3.791751074     -4.900779451     -5.380761732
           6
  t=       177.50000    1    1
C      -4.985552582     -3.993323320     -4.134175469
C      -3.705792360     -4.557084310     -4.526438936
H      -4.903939852     -3.417106595     -2.963936889
H      -8.148366484     -8.515683069     -7.485607434
H      -2.821971526     -4.513697294     -4.241674079
H      -3.816570790     -4.923607007     -5.366136748
           6
  t=       178.00000    1    1
C      -4.997733554     -4.001498169     -4.146600618
C      -3.713964085     -4.565522835     -4.538012698
H      -4.912240511     -3.434663214     -2.949811423
H      -8.192976805     -8.577865108     -7.531522737
H      -2.851532315     -4.555179639     -4.269251169
H      -3.843737452     -4.956580608     -5.372962068
           6
  t=       178.50000    1    1
C      -5.009083191     -4.009618294     -4.158331424
C      -3.724990096     -4.573020358     -4.548913756
H      -4.921543271     -3.455712654     -2.943937219
H      -8.237587126     -8.640047147     -7.577438039
H      -2.853534525     -4.595389031     -4.285308061
H      -3.873355772     -4.999199094     -5.399345629
           6
  t=       179.00000    1    1
C      -5.019585728     -4.017680888     -4.169337364
C      -3.738809815     -4.579745931     -4.559597022
H      -4.931855409     -3.480139489     -2.946523106
H      -8.282197447     -8.702229186     -7.623353341
H      -2.829709551     -4.635062459     -4.290512703
H      -3.904596747     -5.048859969     -5.439353743
           6
  t=       179.50000    1    1
C      -5.029215497     -4.025685342     -4.179588591
C      -3.754873842     -4.585968397     -4.570418439
H      -4.943197051     -3.507820297     -2.957736284
H      -8.326807767     -8.764411224     -7.669268644
H      -2.788232382     -4.674453126     -4.287501156
H      -3.936117582     -5.102237276     -5.486297515
           6
  t=       180.00000    1    1
C      -5.037936028     -4.033639324     -4.189062696
C      -3.772492970     -4.591997932     -4.581614416
H      -4.955608533     -3.538581446     -2.977660561
H      -8.371418088     -8.826593263     -7.715183946
H      -2.739068667     -4.713131113     -4.279390273
H      -3.966559251     -5.156147231     -5.534426315
           6
  t=       180.50000    1    1
C      -5.045731643     -4.041562072     -4.197770841
C      -3.791047500     -4.598121988     -4.593315289
H      -4.969136404     -3.572107123     -3.006053509
H      -8.416028409     -8.888775302     -7.761099248
H      -2.690825029     -4.750381165     -4.269024275
H      -3.994839480     -5.207966487     -5.579452301
           6
  t=       181.00000    1    1
C      -5.052609863     -4.049481685     -4.205758670
C      -3.810109933     -4.604555654     -4.605586429
H      -4.983831103     -3.607979338     -3.042340283
H      -8.460638729     -8.950957341     -7.807014550
H      -2.648932970     -4.785522863     -4.258256961
H      -4.020480687     -5.255895709     -5.618773739
           6
  t=       181.50000    1    1
C      -5.058608541     -4.057432556     -4.213103503
C      -3.829425063     -4.611443582     -4.618468141
H      -4.999721605     -3.645640675     -3.085530452
H      -8.505249050     -9.013139380     -7.852929853
H      -2.615950917     -4.818075120     -4.247968658
H      -4.043485363     -5.298839948     -5.651099091
           6
  t=       182.00000    1    1
C      -5.063786110     -4.065460440     -4.219923096
C      -3.848825999     -4.618883635     -4.631981134
H      -5.016817002     -3.684316274     -3.134053016
H      -8.549859371     -9.075321419     -7.898845155
H      -2.593135054     -4.847775894     -4.238715476
H      -4.063880585     -5.336124808     -5.675793405
           6
  t=       182.50000    1    1
C      -5.068204622     -4.073633001     -4.226400560
C      -3.868190058     -4.626945183     -4.646129837
H      -5.035112475     -3.722950876     -3.185511314
H      -8.594469692     -9.137503458     -7.944760457
H      -2.581239782     -4.874484686     -4.230964747
H      -4.081639222     -5.367313165     -5.692551320
           6
  t=       183.00000    1    1
C      -5.071922735     -4.082044930     -4.232802809
C      -3.887431758     -4.635675080     -4.660906142
H      -5.054591438     -3.760209126     -3.236551497
H      -8.639080012     -9.199685497     -7.990675759
H      -2.580626419     -4.898148750     -4.225090639
H      -4.096736189     -5.392106562     -5.701268641
           6
  t=       183.50000    1    1
C      -5.074999195     -4.090811833     -4.239482163
C      -3.906493013     -4.645102115     -4.676288701
H      -5.075234137     -3.794537802     -3.282881013
H      -8.683690333     -9.261867536     -8.036591062
H      -2.591285627     -4.918781699     -4.221353594
H      -4.109192693     -5.410324031     -5.702033768
           6
  t=       184.00000    1    1
C      -5.077497313     -4.100051447     -4.246840232
C      -3.925321583     -4.655244842     -4.692240484
H      -5.097068801     -3.824325561     -3.319662721
H      -8.728300654     -9.324049575     -8.082506364
H      -2.612972588     -4.936421359     -4.219923401
H      -4.119093424     -5.421915068     -5.695169805
           6
  t=       184.50000    1    1
C      -5.079485768     -4.109855164     -4.255247362
C      -3.943850573     -4.666120217     -4.708711452
H      -5.120252072     -3.848162505     -3.342375464
H      -8.772910974     -9.386231614     -8.128421666
H      -2.645359380     -4.951083493     -4.220906794
H      -4.126588372     -5.426982798     -5.681274518
           6
  t=       185.00000    1    1
C      -5.081043738     -4.120251585     -4.264917464
C      -3.961986639     -4.677743184     -4.725637000
H      -5.145037843     -3.865241903     -3.348248740
H      -8.817521295     -9.448413652     -8.174336968
H      -2.688142969     -4.962739045     -4.224375011
H      -4.131895513     -5.425844105     -5.661268075
           6
  t=       185.50000    1    1
C      -5.082273653     -4.131181670     -4.275797058
C      -3.979606056     -4.690116954     -4.742926356
H      -5.171587197     -3.875670914     -3.337581384
H      -8.862131616     -9.510595691     -8.220252271
H      -2.741130237     -4.971309833     -4.230410846
H      -4.135300603     -5.419135277     -5.636487717
           6
  t=       186.00000    1    1
C      -5.083317709     -4.142511955     -4.287573874
C      -3.996564496     -4.703209679     -4.760437380
H      -5.199726309     -3.880366257     -3.313710611
H      -8.906741937     -9.572777730     -8.266167573
H      -2.804159527     -4.976722447     -4.239139164
H      -4.137164535     -5.407982811     -5.608885970
           6
  t=       186.50000    1    1
C      -5.084360931     -4.154068384     -4.299796500
C      -4.012717543     -4.716928892     -4.777952805
H      -5.228876142     -3.880676320     -3.281670004
H      -8.951352257     -9.634959769     -8.312082875
H      -2.876890701     -4.978978452     -4.250711523
H      -4.137922602     -5.394212544     -5.581245453
           6
  t=       187.00000    1    1
C      -5.085628033     -4.165661052     -4.311995137
C      -4.027956743     -4.731077201     -4.795153910
H      -5.258084731     -3.878147552     -3.246937880
H      -8.995962578     -9.697141808     -8.357998178
H      -2.958244648     -4.978279894     -4.265092275
H      -4.138220561     -5.380690889     -5.557519227
           6
  t=       187.50000    1    1
C      -5.087358507     -4.177116759     -4.323795983
C      -4.042230276     -4.745358955     -4.811650612
H      -5.286292414     -3.874177596     -3.214101471
H      -9.040572899     -9.759323847     -8.403913480
H      -3.046109673     -4.975051290     -4.281816271
H      -4.138993543     -5.371182367     -5.542687434
           6
  t=       188.00000    1    1
C      -5.089773585     -4.188297887     -4.334953821
C      -4.055603097     -4.759436465     -4.827092139
H      -5.312543226     -3.869859832     -3.186422342
H      -9.085183220     -9.821505886     -8.449828782
H      -3.137002068     -4.970017673     -4.299661083
H      -4.141271078     -5.369532161     -5.541812536
           6
  t=       188.50000    1    1
C      -5.093048659     -4.199106952     -4.345328245
C      -4.068329419     -4.773022685     -4.841341764
H      -5.336081356     -3.865974366     -3.165966472
H      -9.129793540     -9.883687925     -8.495744084
H      -3.225845411     -4.964307694     -4.316260823
H      -4.145766397     -5.378413452     -5.558496682
           6
  t=       189.00000    1    1
C      -5.097315519     -4.209470323     -4.354834006
C      -4.080880256     -4.785992704     -4.854645396
H      -5.356358532     -3.863023353     -3.153926915
H      -9.174403861     -9.945869964     -8.541659387
H      -3.306001657     -4.959458279     -4.327783979
H      -4.152482984     -5.398152932     -5.593463940
           6
  t=       189.50000    1    1
C      -5.102666885     -4.219326275     -4.363420178
C      -4.093865241     -4.798421796     -4.867640246
H      -5.373063065     -3.861293537     -3.150837733
H      -9.219014182    -10.008052003     -8.587574689
H      -3.370164316     -4.957262132     -4.329331223
H      -4.160670022     -5.426509685     -5.644093605
           6
  t=       190.00000    1    1
C      -5.109172271     -4.228624190     -4.371074773
C      -4.107818590     -4.810525359     -4.881115434
H      -5.386076014     -3.860960991     -3.156838820
H      -9.263624502    -10.070234042     -8.633489991
H      -3.412232775     -4.959355526     -4.316329737
H      -4.169353199     -5.459707917     -5.705558549
           6
  t=       190.50000    1    1
C      -5.116869662     -4.237338667     -4.377829062
C      -4.122887056     -4.822600380     -4.895629555
H      -5.395387344     -3.862178538     -3.171896791
H      -9.308234823    -10.132416080     -8.679405293
H      -3.430752257     -4.966447099     -4.287393608
H      -4.177796060     -5.493650029     -5.772249416
           6
  t=       191.00000    1    1
C      -5.125760961     -4.245468929     -4.383739929
C      -4.138740017     -4.834954591     -4.911268647
H      -5.401054014     -3.865097127     -3.195900824
H      -9.352845144    -10.194598119     -8.725320596
H      -3.430045581     -4.978109293     -4.246042240
H      -4.185535733     -5.524955051     -5.839054619
           6
  t=       191.50000    1    1
C      -5.135811508     -4.253025635     -4.388863792
C      -4.154839820     -4.847832889     -4.927771764
H      -5.403232270     -3.869845117     -3.228692081
H      -9.397455465    -10.256780158     -8.771235898
H      -3.417020215     -4.993321866     -4.198561545
H      -4.192327995     -5.551469763     -5.902284173
           6
  t=       192.00000    1    1
C      -5.146932122     -4.260037591     -4.393270026
C      -4.170730412     -4.861389915     -4.944788247
H      -5.402208918     -3.876482360     -3.269903088
H      -9.442065785    -10.318962197     -8.817151200
H      -3.397827898     -5.010902740     -4.150693247
H      -4.198231133     -5.572130467     -5.959915507
           6
  t=       192.50000    1    1
C      -5.158981841     -4.266563662     -4.397070354
C      -4.186133787     -4.875698342     -4.962030632
H      -5.398468973     -3.884878533     -3.318661648
H      -9.486676106    -10.381144236     -8.863066502
H      -3.376939989     -5.030008708     -4.106871831
H      -4.203281051     -5.586343353     -6.010480421
           6
  t=       193.00000    1    1
C      -5.171789474     -4.272702103     -4.400463879
C      -4.200938488     -4.890764467     -4.979307062
H      -5.392713662     -3.894545611     -3.373165594
H      -9.531286427    -10.443326275     -8.908981805
H      -3.357060485     -5.050241764     -4.070085545
H      -4.207440503     -5.593748634     -6.052706451
           6
  t=       193.50000    1    1
C      -5.185149938     -4.278605779     -4.403770089
C      -4.215146153     -4.906545945     -4.996485167
H      -5.385861660     -3.904488610     -3.430328344
H      -9.575896747    -10.505508314     -8.954897107
H      -3.339721793     -5.071406787     -4.042121441
H      -4.210682552     -5.594219495     -6.085663553
           6
  t=       194.00000    1    1
C      -5.198827059     -4.284495747     -4.407448651
C      -4.228815910     -4.922967864     -5.013448545
H      -5.379042132     -3.913038808     -3.485529769
H      -9.620507068    -10.567690353     -9.000812409
H      -3.325909226     -5.093367328     -4.024105190
H      -4.213002359     -5.587819702     -6.108755895
           6
  t=       194.50000    1    1
C      -5.212582419     -4.290651470     -4.412068595
C      -4.242027311     -4.939928755     -5.030072527
H      -5.373427190     -3.917906977     -3.532963150
H      -9.665117389    -10.629872392     -9.046727712
H      -3.316294466     -5.116011954     -4.016743024
H      -4.214449120     -5.574828978     -6.121789149
           6
  t=       195.00000    1    1
C      -5.226218015     -4.297361356     -4.418193476
C      -4.254857986     -4.957308160     -5.046220925
H      -5.369930313     -3.916657013     -3.566926658
H      -9.709727710    -10.692054431     -9.092643014
H      -3.311274293     -5.139260342     -4.020396589
H      -4.215146916     -5.555762524     -6.125011089
           6
  t=       195.50000    1    1
C      -5.239601398     -4.304855517     -4.426232322
C      -4.267369737     -4.974974761     -5.061748732
H      -5.368978037     -3.907415456     -3.583447331
H      -9.754338030    -10.754236470     -9.138558316
H      -3.311082991     -5.163041972     -4.035186068
H      -4.215276720     -5.531387114     -6.119128535
           6
  t=       196.00000    1    1
C      -5.252674545     -4.313225629     -4.436280801
C      -4.279608068     -4.992785741     -5.076494469
H      -5.370336707     -3.889814044     -3.582067342
H      -9.798948351    -10.816418508     -9.184473618
H      -3.315889744     -5.187247536     -4.060994887
H      -4.215052173     -5.502789708     -6.105500064
           6
  t=       196.50000    1    1
C      -5.265442762     -4.322395974     -4.448105993
C      -4.291599566     -5.010586787     -5.090258473
H      -5.373257900     -3.865309111     -3.566000583
H      -9.843558672    -10.878600547     -9.230388921
H      -3.325842589     -5.211712000     -4.097499529
H      -4.214693633     -5.471419979     -6.086389824
           6
  t=       197.00000    1    1
C      -5.277954870     -4.332162030     -4.461271515
C      -4.303356326     -5.028209734     -5.102775416
H      -5.376792158     -3.836678516     -3.540661661
H      -9.888168992    -10.940782586     -9.276304223
H      -3.340999968     -5.236239810     -4.144137338
H      -4.214366270     -5.439136447     -6.065307200
           6
  t=       197.50000    1    1
C      -5.290283739     -4.342264954     -4.475300358
C      -4.314884152     -5.045476136     -5.113696525
H      -5.380052739     -3.807147018     -3.511822351
H      -9.932779313    -11.002964625     -9.322219525
H      -3.361302372     -5.260666116     -4.200216299
H      -4.214078895     -5.408089763     -6.047012213
           6
  t=       198.00000    1    1
C      -5.302499588     -4.352466658     -4.489797292
C      -4.326194870     -5.062217183     -5.122620640
H      -5.382430111     -3.779538608     -3.484172767
H      -9.977389634    -11.065146664     -9.368134827
H      -3.386591655     -5.284888096     -4.265008810
H      -4.213621522     -5.380407258     -6.037031849
           6
  t=       198.50000    1    1
C      -5.314660461     -4.362583302     -4.504487518
C      -4.337311959     -5.078319023     -5.129217273
H      -5.383592819     -3.755921102     -3.460851077
H     -10.021999955    -11.127328703     -9.414050130
H      -3.416532481     -5.308863190     -4.337615748
H      -4.212689588     -5.357610872     -6.040339492
           6
  t=       199.00000    1    1
C      -5.326811624     -4.372480770     -4.519191192
C      -4.348263225     -5.093766348     -5.133397970
H      -5.383397506     -3.737692858     -3.443740459
H     -10.066610275    -11.189510742     -9.459965432
H      -3.450479493     -5.332604194     -4.416756615
H      -4.211201071     -5.340069913     -6.059529394
           6
  t=       199.50000    1    1
C      -5.338980136     -4.382067178     -4.533794451
C      -4.359099024     -5.108634804     -5.135443740
H      -5.381818834     -3.725732560     -3.433831405
H     -10.111220596    -11.251692781     -9.505880734
H      -3.487097047     -5.356254855     -4.500410025
H      -4.209594515     -5.326955472     -6.093640787
           6
  t=       200.00000    1    1
C      -5.351166970     -4.391283162     -4.548217795
C      -4.369953302     -5.123020692     -5.135977713
H      -5.378920782     -3.720576073     -3.431603889
H     -10.155830917    -11.313874820     -9.551796036
H      -3.523750445     -5.380281519     -4.585432897
H      -4.208832996     -5.316825192     -6.138859077
