6
Properties=species:S:1:pos:R:3 source_frame_index=-1 reference_source_frame_index=-1 grid_cc_bond_angstrom=1.31735246 grid_dihedral_deg=0.0 pbc="F F F"
C       -0.65867623      -0.00000000       0.00000000
C        0.65867623       0.00000000       0.00000000
H       -1.22717751       0.91632134      -0.00000000
H        1.22717751       0.91632134      -0.00000000
H        1.22717751      -0.91632134       0.00000000
H       -1.22717751      -0.91632134      -0.00000000
6
Properties=species:S:1:pos:R:3 source_frame_index=0 reference_source_frame_index=494 grid_cc_bond_angstrom=1.1 grid_dihedral_deg=0.01 pbc="F F F"
C        0.00000000       0.00000000       0.00000000
C        1.10000000       0.00000000       0.00000000
H       -0.56503637       0.92382805       0.00000000
H        1.66503637       0.92382804       0.00016124
H        1.66503637      -0.92382804      -0.00016124
H       -0.56503637      -0.92382805      -0.00000000
6
Properties=species:S:1:pos:R:3 source_frame_index=1 reference_source_frame_index=494 grid_cc_bond_angstrom=1.1 grid_dihedral_deg=20.01 pbc="F F F"
C        0.00000000       0.00000000       0.00000000
C        1.10000000       0.00000000       0.00000000
H       -0.56503637       0.92382805       0.00000000
H        1.66503637       0.86805924       0.31611931
H        1.66503637      -0.86805924      -0.31611931
H       -0.56503637      -0.92382805      -0.00000000
6
Properties=species:S:1:pos:R:3 source_frame_index=2 reference_source_frame_index=494 grid_cc_bond_angstrom=1.1 grid_dihedral_deg=40.01 pbc="F F F"
C        0.00000000       0.00000000       0.00000000
C        1.10000000       0.00000000       0.00000000
H       -0.56503637       0.92382805       0.00000000
H        1.66503637       0.70758969       0.59394873
H        1.66503637      -0.70758969      -0.59394873
H       -0.56503637      -0.92382805      -0.00000000
6
Properties=species:S:1:pos:R:3 source_frame_index=3 reference_source_frame_index=494 grid_cc_bond_angstrom=1.1 grid_dihedral_deg=60.01 pbc="F F F"
C        0.00000000       0.00000000       0.00000000
C        1.10000000       0.00000000       0.00000000
H       -0.56503637       0.92382805       0.00000000
H        1.66503637       0.46177438       0.80013917
H        1.66503637      -0.46177438      -0.80013917
H       -0.56503637      -0.92382805      -0.00000000
6
Properties=species:S:1:pos:R:3 source_frame_index=4 reference_source_frame_index=494 grid_cc_bond_angstrom=1.1 grid_dihedral_deg=80.01 pbc="F F F"
C        0.00000000       0.00000000       0.00000000
C        1.10000000       0.00000000       0.00000000
H       -0.56503637       0.92382805       0.00000000
H        1.66503637       0.16026227       0.90982101
H        1.66503637      -0.16026227      -0.90982101
H       -0.56503637      -0.92382805      -0.00000000
6
Properties=species:S:1:pos:R:3 source_frame_index=5 reference_source_frame_index=494 grid_cc_bond_angstrom=1.1 grid_dihedral_deg=100.01 pbc="F F F"
C        0.00000000       0.00000000       0.00000000
C        1.10000000       0.00000000       0.00000000
H       -0.56503637       0.92382805       0.00000000
H        1.66503637      -0.16057984       0.90976501
H        1.66503637       0.16057984      -0.90976501
H       -0.56503637      -0.92382805      -0.00000000
6
Properties=species:S:1:pos:R:3 source_frame_index=6 reference_source_frame_index=494 grid_cc_bond_angstrom=1.1 grid_dihedral_deg=120.01 pbc="F F F"
C        0.00000000       0.00000000       0.00000000
C        1.10000000       0.00000000       0.00000000
H       -0.56503637       0.92382805       0.00000000
H        1.66503637      -0.46205365       0.79997793
H        1.66503637       0.46205365      -0.79997793
H       -0.56503637      -0.92382805      -0.00000000
6
Properties=species:S:1:pos:R:3 source_frame_index=7 reference_source_frame_index=494 grid_cc_bond_angstrom=1.1 grid_dihedral_deg=140.01 pbc="F F F"
C        0.00000000       0.00000000       0.00000000
C        1.10000000       0.00000000       0.00000000
H       -0.56503637       0.92382805       0.00000000
H        1.66503637      -0.70779698       0.59370170
H        1.66503637       0.70779698      -0.59370170
H       -0.56503637      -0.92382805      -0.00000000
6
Properties=species:S:1:pos:R:3 source_frame_index=8 reference_source_frame_index=494 grid_cc_bond_angstrom=1.1 grid_dihedral_deg=160.01 pbc="F F F"
C        0.00000000       0.00000000       0.00000000
C        1.10000000       0.00000000       0.00000000
H       -0.56503637       0.92382805       0.00000000
H        1.66503637      -0.86816954       0.31581628
H        1.66503637       0.86816954      -0.31581628
H       -0.56503637      -0.92382805      -0.00000000
6
Properties=species:S:1:pos:R:3 source_frame_index=9 reference_source_frame_index=494 grid_cc_bond_angstrom=1.1 grid_dihedral_deg=180.01 pbc="F F F"
C        0.00000000       0.00000000       0.00000000
C        1.10000000       0.00000000       0.00000000
H       -0.56503637       0.92382805       0.00000000
H        1.66503637      -0.92382804      -0.00016124
H        1.66503637       0.92382804       0.00016124
H       -0.56503637      -0.92382805      -0.00000000
6
Properties=species:S:1:pos:R:3 source_frame_index=10 reference_source_frame_index=494 grid_cc_bond_angstrom=1.3111111111111111 grid_dihedral_deg=0.01 pbc="F F F"
C        0.00000000       0.00000000       0.00000000
C        1.31111111       0.00000000       0.00000000
H       -0.56503637       0.92382805       0.00000000
H        1.87614748       0.92382804       0.00016124
H        1.87614748      -0.92382804      -0.00016124
H       -0.56503637      -0.92382805      -0.00000000
6
Properties=species:S:1:pos:R:3 source_frame_index=11 reference_source_frame_index=494 grid_cc_bond_angstrom=1.3111111111111111 grid_dihedral_deg=20.01 pbc="F F F"
C        0.00000000       0.00000000       0.00000000
C        1.31111111       0.00000000       0.00000000
H       -0.56503637       0.92382805       0.00000000
H        1.87614748       0.86805924       0.31611931
H        1.87614748      -0.86805924      -0.31611931
H       -0.56503637      -0.92382805      -0.00000000
6
Properties=species:S:1:pos:R:3 source_frame_index=12 reference_source_frame_index=494 grid_cc_bond_angstrom=1.3111111111111111 grid_dihedral_deg=40.01 pbc="F F F"
C        0.00000000       0.00000000       0.00000000
C        1.31111111       0.00000000       0.00000000
H       -0.56503637       0.92382805       0.00000000
H        1.87614748       0.70758969       0.59394873
H        1.87614748      -0.70758969      -0.59394873
H       -0.56503637      -0.92382805      -0.00000000
6
Properties=species:S:1:pos:R:3 source_frame_index=13 reference_source_frame_index=494 grid_cc_bond_angstrom=1.3111111111111111 grid_dihedral_deg=60.01 pbc="F F F"
C        0.00000000       0.00000000       0.00000000
C        1.31111111       0.00000000       0.00000000
H       -0.56503637       0.92382805       0.00000000
H        1.87614748       0.46177438       0.80013917
H        1.87614748      -0.46177438      -0.80013917
H       -0.56503637      -0.92382805      -0.00000000
6
Properties=species:S:1:pos:R:3 source_frame_index=14 reference_source_frame_index=494 grid_cc_bond_angstrom=1.3111111111111111 grid_dihedral_deg=80.01 pbc="F F F"
C        0.00000000       0.00000000       0.00000000
C        1.31111111       0.00000000       0.00000000
H       -0.56503637       0.92382805       0.00000000
H        1.87614748       0.16026227       0.90982101
H        1.87614748      -0.16026227      -0.90982101
H       -0.56503637      -0.92382805      -0.00000000
6
Properties=species:S:1:pos:R:3 source_frame_index=15 reference_source_frame_index=494 grid_cc_bond_angstrom=1.3111111111111111 grid_dihedral_deg=100.01 pbc="F F F"
C        0.00000000       0.00000000       0.00000000
C        1.31111111       0.00000000       0.00000000
H       -0.56503637       0.92382805       0.00000000
H        1.87614748      -0.16057984       0.90976501
H        1.87614748       0.16057984      -0.90976501
H       -0.56503637      -0.92382805      -0.00000000
6
Properties=species:S:1:pos:R:3 source_frame_index=16 reference_source_frame_index=494 grid_cc_bond_angstrom=1.3111111111111111 grid_dihedral_deg=120.01 pbc="F F F"
C        0.00000000       0.00000000       0.00000000
C        1.31111111       0.00000000       0.00000000
H       -0.56503637       0.92382805       0.00000000
H        1.87614748      -0.46205365       0.79997793
H        1.87614748       0.46205365      -0.79997793
H       -0.56503637      -0.92382805      -0.00000000
6
Properties=species:S:1:pos:R:3 source_frame_index=17 reference_source_frame_index=494 grid_cc_bond_angstrom=1.3111111111111111 grid_dihedral_deg=140.01 pbc="F F F"
C        0.00000000       0.00000000       0.00000000
C        1.31111111       0.00000000       0.00000000
H       -0.56503637       0.92382805       0.00000000
H        1.87614748      -0.70779698       0.59370170
H        1.87614748       0.70779698      -0.59370170
H       -0.56503637      -0.92382805      -0.00000000
6
Properties=species:S:1:pos:R:3 source_frame_index=18 reference_source_frame_index=494 grid_cc_bond_angstrom=1.3111111111111111 grid_dihedral_deg=160.01 pbc="F F F"
C        0.00000000       0.00000000       0.00000000
C        1.31111111       0.00000000       0.00000000
H       -0.56503637       0.92382805       0.00000000
H        1.87614748      -0.86816954       0.31581628
H        1.87614748       0.86816954      -0.31581628
H       -0.56503637      -0.92382805      -0.00000000
6
Properties=species:S:1:pos:R:3 source_frame_index=19 reference_source_frame_index=494 grid_cc_bond_angstrom=1.3111111111111111 grid_dihedral_deg=180.01 pbc="F F F"
C        0.00000000       0.00000000       0.00000000
C        1.31111111       0.00000000       0.00000000
H       -0.56503637       0.92382805       0.00000000
H        1.87614748      -0.92382804      -0.00016124
H        1.87614748       0.92382804       0.00016124
H       -0.56503637      -0.92382805      -0.00000000
6
Properties=species:S:1:pos:R:3 source_frame_index=20 reference_source_frame_index=494 grid_cc_bond_angstrom=1.5222222222222224 grid_dihedral_deg=0.01 pbc="F F F"
C        0.00000000       0.00000000       0.00000000
C        1.52222222       0.00000000       0.00000000
H       -0.56503637       0.92382805       0.00000000
H        2.08725859       0.92382804       0.00016124
H        2.08725859      -0.92382804      -0.00016124
H       -0.56503637      -0.92382805      -0.00000000
6
Properties=species:S:1:pos:R:3 source_frame_index=21 reference_source_frame_index=494 grid_cc_bond_angstrom=1.5222222222222224 grid_dihedral_deg=20.01 pbc="F F F"
C        0.00000000       0.00000000       0.00000000
C        1.52222222       0.00000000       0.00000000
H       -0.56503637       0.92382805       0.00000000
H        2.08725859       0.86805924       0.31611931
H        2.08725859      -0.86805924      -0.31611931
H       -0.56503637      -0.92382805      -0.00000000
6
Properties=species:S:1:pos:R:3 source_frame_index=22 reference_source_frame_index=494 grid_cc_bond_angstrom=1.5222222222222224 grid_dihedral_deg=40.01 pbc="F F F"
C        0.00000000       0.00000000       0.00000000
C        1.52222222       0.00000000       0.00000000
H       -0.56503637       0.92382805       0.00000000
H        2.08725859       0.70758969       0.59394873
H        2.08725859      -0.70758969      -0.59394873
H       -0.56503637      -0.92382805      -0.00000000
6
Properties=species:S:1:pos:R:3 source_frame_index=23 reference_source_frame_index=494 grid_cc_bond_angstrom=1.5222222222222224 grid_dihedral_deg=60.01 pbc="F F F"
C        0.00000000       0.00000000       0.00000000
C        1.52222222       0.00000000       0.00000000
H       -0.56503637       0.92382805       0.00000000
H        2.08725859       0.46177438       0.80013917
H        2.08725859      -0.46177438      -0.80013917
H       -0.56503637      -0.92382805      -0.00000000
6
Properties=species:S:1:pos:R:3 source_frame_index=24 reference_source_frame_index=494 grid_cc_bond_angstrom=1.5222222222222224 grid_dihedral_deg=80.01 pbc="F F F"
C        0.00000000       0.00000000       0.00000000
C        1.52222222       0.00000000       0.00000000
H       -0.56503637       0.92382805       0.00000000
H        2.08725859       0.16026227       0.90982101
H        2.08725859      -0.16026227      -0.90982101
H       -0.56503637      -0.92382805      -0.00000000
6
Properties=species:S:1:pos:R:3 source_frame_index=25 reference_source_frame_index=494 grid_cc_bond_angstrom=1.5222222222222224 grid_dihedral_deg=100.01 pbc="F F F"
C        0.00000000       0.00000000       0.00000000
C        1.52222222       0.00000000       0.00000000
H       -0.56503637       0.92382805       0.00000000
H        2.08725859      -0.16057984       0.90976501
H        2.08725859       0.16057984      -0.90976501
H       -0.56503637      -0.92382805      -0.00000000
6
Properties=species:S:1:pos:R:3 source_frame_index=26 reference_source_frame_index=494 grid_cc_bond_angstrom=1.5222222222222224 grid_dihedral_deg=120.01 pbc="F F F"
C        0.00000000       0.00000000       0.00000000
C        1.52222222       0.00000000       0.00000000
H       -0.56503637       0.92382805       0.00000000
H        2.08725859      -0.46205365       0.79997793
H        2.08725859       0.46205365      -0.79997793
H       -0.56503637      -0.92382805      -0.00000000
6
Properties=species:S:1:pos:R:3 source_frame_index=27 reference_source_frame_index=494 grid_cc_bond_angstrom=1.5222222222222224 grid_dihedral_deg=140.01 pbc="F F F"
C        0.00000000       0.00000000       0.00000000
C        1.52222222       0.00000000       0.00000000
H       -0.56503637       0.92382805       0.00000000
H        2.08725859      -0.70779698       0.59370170
H        2.08725859       0.70779698      -0.59370170
H       -0.56503637      -0.92382805      -0.00000000
6
Properties=species:S:1:pos:R:3 source_frame_index=28 reference_source_frame_index=494 grid_cc_bond_angstrom=1.5222222222222224 grid_dihedral_deg=160.01 pbc="F F F"
C        0.00000000       0.00000000       0.00000000
C        1.52222222       0.00000000       0.00000000
H       -0.56503637       0.92382805       0.00000000
H        2.08725859      -0.86816954       0.31581628
H        2.08725859       0.86816954      -0.31581628
H       -0.56503637      -0.92382805      -0.00000000
6
Properties=species:S:1:pos:R:3 source_frame_index=29 reference_source_frame_index=494 grid_cc_bond_angstrom=1.5222222222222224 grid_dihedral_deg=180.01 pbc="F F F"
C        0.00000000       0.00000000       0.00000000
C        1.52222222       0.00000000       0.00000000
H       -0.56503637       0.92382805       0.00000000
H        2.08725859      -0.92382804      -0.00016124
H        2.08725859       0.92382804       0.00016124
H       -0.56503637      -0.92382805      -0.00000000
6
Properties=species:S:1:pos:R:3 source_frame_index=30 reference_source_frame_index=494 grid_cc_bond_angstrom=1.7333333333333334 grid_dihedral_deg=0.01 pbc="F F F"
C        0.00000000       0.00000000       0.00000000
C        1.73333333       0.00000000       0.00000000
H       -0.56503637       0.92382805       0.00000000
H        2.29836970       0.92382804       0.00016124
H        2.29836970      -0.92382804      -0.00016124
H       -0.56503637      -0.92382805      -0.00000000
6
Properties=species:S:1:pos:R:3 source_frame_index=31 reference_source_frame_index=494 grid_cc_bond_angstrom=1.7333333333333334 grid_dihedral_deg=20.01 pbc="F F F"
C        0.00000000       0.00000000       0.00000000
C        1.73333333       0.00000000       0.00000000
H       -0.56503637       0.92382805       0.00000000
H        2.29836970       0.86805924       0.31611931
H        2.29836970      -0.86805924      -0.31611931
H       -0.56503637      -0.92382805      -0.00000000
6
Properties=species:S:1:pos:R:3 source_frame_index=32 reference_source_frame_index=494 grid_cc_bond_angstrom=1.7333333333333334 grid_dihedral_deg=40.01 pbc="F F F"
C        0.00000000       0.00000000       0.00000000
C        1.73333333       0.00000000       0.00000000
H       -0.56503637       0.92382805       0.00000000
H        2.29836970       0.70758969       0.59394873
H        2.29836970      -0.70758969      -0.59394873
H       -0.56503637      -0.92382805      -0.00000000
6
Properties=species:S:1:pos:R:3 source_frame_index=33 reference_source_frame_index=494 grid_cc_bond_angstrom=1.7333333333333334 grid_dihedral_deg=60.01 pbc="F F F"
C        0.00000000       0.00000000       0.00000000
C        1.73333333       0.00000000       0.00000000
H       -0.56503637       0.92382805       0.00000000
H        2.29836970       0.46177438       0.80013917
H        2.29836970      -0.46177438      -0.80013917
H       -0.56503637      -0.92382805      -0.00000000
6
Properties=species:S:1:pos:R:3 source_frame_index=34 reference_source_frame_index=494 grid_cc_bond_angstrom=1.7333333333333334 grid_dihedral_deg=80.01 pbc="F F F"
C        0.00000000       0.00000000       0.00000000
C        1.73333333       0.00000000       0.00000000
H       -0.56503637       0.92382805       0.00000000
H        2.29836970       0.16026227       0.90982101
H        2.29836970      -0.16026227      -0.90982101
H       -0.56503637      -0.92382805      -0.00000000
6
Properties=species:S:1:pos:R:3 source_frame_index=35 reference_source_frame_index=494 grid_cc_bond_angstrom=1.7333333333333334 grid_dihedral_deg=100.01 pbc="F F F"
C        0.00000000       0.00000000       0.00000000
C        1.73333333       0.00000000       0.00000000
H       -0.56503637       0.92382805       0.00000000
H        2.29836970      -0.16057984       0.90976501
H        2.29836970       0.16057984      -0.90976501
H       -0.56503637      -0.92382805      -0.00000000
6
Properties=species:S:1:pos:R:3 source_frame_index=36 reference_source_frame_index=494 grid_cc_bond_angstrom=1.7333333333333334 grid_dihedral_deg=120.01 pbc="F F F"
C        0.00000000       0.00000000       0.00000000
C        1.73333333       0.00000000       0.00000000
H       -0.56503637       0.92382805       0.00000000
H        2.29836970      -0.46205365       0.79997793
H        2.29836970       0.46205365      -0.79997793
H       -0.56503637      -0.92382805      -0.00000000
6
Properties=species:S:1:pos:R:3 source_frame_index=37 reference_source_frame_index=494 grid_cc_bond_angstrom=1.7333333333333334 grid_dihedral_deg=140.01 pbc="F F F"
C        0.00000000       0.00000000       0.00000000
C        1.73333333       0.00000000       0.00000000
H       -0.56503637       0.92382805       0.00000000
H        2.29836970      -0.70779698       0.59370170
H        2.29836970       0.70779698      -0.59370170
H       -0.56503637      -0.92382805      -0.00000000
6
Properties=species:S:1:pos:R:3 source_frame_index=38 reference_source_frame_index=494 grid_cc_bond_angstrom=1.7333333333333334 grid_dihedral_deg=160.01 pbc="F F F"
C        0.00000000       0.00000000       0.00000000
C        1.73333333       0.00000000       0.00000000
H       -0.56503637       0.92382805       0.00000000
H        2.29836970      -0.86816954       0.31581628
H        2.29836970       0.86816954      -0.31581628
H       -0.56503637      -0.92382805      -0.00000000
6
Properties=species:S:1:pos:R:3 source_frame_index=39 reference_source_frame_index=494 grid_cc_bond_angstrom=1.7333333333333334 grid_dihedral_deg=180.01 pbc="F F F"
C        0.00000000       0.00000000       0.00000000
C        1.73333333       0.00000000       0.00000000
H       -0.56503637       0.92382805       0.00000000
H        2.29836970      -0.92382804      -0.00016124
H        2.29836970       0.92382804       0.00016124
H       -0.56503637      -0.92382805      -0.00000000
6
Properties=species:S:1:pos:R:3 source_frame_index=40 reference_source_frame_index=494 grid_cc_bond_angstrom=1.9444444444444446 grid_dihedral_deg=0.01 pbc="F F F"
C        0.00000000       0.00000000       0.00000000
C        1.94444444       0.00000000       0.00000000
H       -0.56503637       0.92382805       0.00000000
H        2.50948081       0.92382804       0.00016124
H        2.50948081      -0.92382804      -0.00016124
H       -0.56503637      -0.92382805      -0.00000000
6
Properties=species:S:1:pos:R:3 source_frame_index=41 reference_source_frame_index=494 grid_cc_bond_angstrom=1.9444444444444446 grid_dihedral_deg=20.01 pbc="F F F"
C        0.00000000       0.00000000       0.00000000
C        1.94444444       0.00000000       0.00000000
H       -0.56503637       0.92382805       0.00000000
H        2.50948081       0.86805924       0.31611931
H        2.50948081      -0.86805924      -0.31611931
H       -0.56503637      -0.92382805      -0.00000000
6
Properties=species:S:1:pos:R:3 source_frame_index=42 reference_source_frame_index=494 grid_cc_bond_angstrom=1.9444444444444446 grid_dihedral_deg=40.01 pbc="F F F"
C        0.00000000       0.00000000       0.00000000
C        1.94444444       0.00000000       0.00000000
H       -0.56503637       0.92382805       0.00000000
H        2.50948081       0.70758969       0.59394873
H        2.50948081      -0.70758969      -0.59394873
H       -0.56503637      -0.92382805      -0.00000000
6
Properties=species:S:1:pos:R:3 source_frame_index=43 reference_source_frame_index=494 grid_cc_bond_angstrom=1.9444444444444446 grid_dihedral_deg=60.01 pbc="F F F"
C        0.00000000       0.00000000       0.00000000
C        1.94444444       0.00000000       0.00000000
H       -0.56503637       0.92382805       0.00000000
H        2.50948081       0.46177438       0.80013917
H        2.50948081      -0.46177438      -0.80013917
H       -0.56503637      -0.92382805      -0.00000000
6
Properties=species:S:1:pos:R:3 source_frame_index=44 reference_source_frame_index=494 grid_cc_bond_angstrom=1.9444444444444446 grid_dihedral_deg=80.01 pbc="F F F"
C        0.00000000       0.00000000       0.00000000
C        1.94444444       0.00000000       0.00000000
H       -0.56503637       0.92382805       0.00000000
H        2.50948081       0.16026227       0.90982101
H        2.50948081      -0.16026227      -0.90982101
H       -0.56503637      -0.92382805      -0.00000000
6
Properties=species:S:1:pos:R:3 source_frame_index=45 reference_source_frame_index=494 grid_cc_bond_angstrom=1.9444444444444446 grid_dihedral_deg=100.01 pbc="F F F"
C        0.00000000       0.00000000       0.00000000
C        1.94444444       0.00000000       0.00000000
H       -0.56503637       0.92382805       0.00000000
H        2.50948081      -0.16057984       0.90976501
H        2.50948081       0.16057984      -0.90976501
H       -0.56503637      -0.92382805      -0.00000000
6
Properties=species:S:1:pos:R:3 source_frame_index=46 reference_source_frame_index=494 grid_cc_bond_angstrom=1.9444444444444446 grid_dihedral_deg=120.01 pbc="F F F"
C        0.00000000       0.00000000       0.00000000
C        1.94444444       0.00000000       0.00000000
H       -0.56503637       0.92382805       0.00000000
H        2.50948081      -0.46205365       0.79997793
H        2.50948081       0.46205365      -0.79997793
H       -0.56503637      -0.92382805      -0.00000000
6
Properties=species:S:1:pos:R:3 source_frame_index=47 reference_source_frame_index=494 grid_cc_bond_angstrom=1.9444444444444446 grid_dihedral_deg=140.01 pbc="F F F"
C        0.00000000       0.00000000       0.00000000
C        1.94444444       0.00000000       0.00000000
H       -0.56503637       0.92382805       0.00000000
H        2.50948081      -0.70779698       0.59370170
H        2.50948081       0.70779698      -0.59370170
H       -0.56503637      -0.92382805      -0.00000000
6
Properties=species:S:1:pos:R:3 source_frame_index=48 reference_source_frame_index=494 grid_cc_bond_angstrom=1.9444444444444446 grid_dihedral_deg=160.01 pbc="F F F"
C        0.00000000       0.00000000       0.00000000
C        1.94444444       0.00000000       0.00000000
H       -0.56503637       0.92382805       0.00000000
H        2.50948081      -0.86816954       0.31581628
H        2.50948081       0.86816954      -0.31581628
H       -0.56503637      -0.92382805      -0.00000000
6
Properties=species:S:1:pos:R:3 source_frame_index=49 reference_source_frame_index=494 grid_cc_bond_angstrom=1.9444444444444446 grid_dihedral_deg=180.01 pbc="F F F"
C        0.00000000       0.00000000       0.00000000
C        1.94444444       0.00000000       0.00000000
H       -0.56503637       0.92382805       0.00000000
H        2.50948081      -0.92382804      -0.00016124
H        2.50948081       0.92382804       0.00016124
H       -0.56503637      -0.92382805      -0.00000000
6
Properties=species:S:1:pos:R:3 source_frame_index=50 reference_source_frame_index=494 grid_cc_bond_angstrom=2.155555555555556 grid_dihedral_deg=0.01 pbc="F F F"
C        0.00000000       0.00000000       0.00000000
C        2.15555556       0.00000000       0.00000000
H       -0.56503637       0.92382805       0.00000000
H        2.72059193       0.92382804       0.00016124
H        2.72059193      -0.92382804      -0.00016124
H       -0.56503637      -0.92382805      -0.00000000
6
Properties=species:S:1:pos:R:3 source_frame_index=51 reference_source_frame_index=494 grid_cc_bond_angstrom=2.155555555555556 grid_dihedral_deg=20.01 pbc="F F F"
C        0.00000000       0.00000000       0.00000000
C        2.15555556       0.00000000       0.00000000
H       -0.56503637       0.92382805       0.00000000
H        2.72059193       0.86805924       0.31611931
H        2.72059193      -0.86805924      -0.31611931
H       -0.56503637      -0.92382805      -0.00000000
6
Properties=species:S:1:pos:R:3 source_frame_index=52 reference_source_frame_index=494 grid_cc_bond_angstrom=2.155555555555556 grid_dihedral_deg=40.01 pbc="F F F"
C        0.00000000       0.00000000       0.00000000
C        2.15555556       0.00000000       0.00000000
H       -0.56503637       0.92382805       0.00000000
H        2.72059193       0.70758969       0.59394873
H        2.72059193      -0.70758969      -0.59394873
H       -0.56503637      -0.92382805      -0.00000000
6
Properties=species:S:1:pos:R:3 source_frame_index=53 reference_source_frame_index=494 grid_cc_bond_angstrom=2.155555555555556 grid_dihedral_deg=60.01 pbc="F F F"
C        0.00000000       0.00000000       0.00000000
C        2.15555556       0.00000000       0.00000000
H       -0.56503637       0.92382805       0.00000000
H        2.72059193       0.46177438       0.80013917
H        2.72059193      -0.46177438      -0.80013917
H       -0.56503637      -0.92382805      -0.00000000
6
Properties=species:S:1:pos:R:3 source_frame_index=54 reference_source_frame_index=494 grid_cc_bond_angstrom=2.155555555555556 grid_dihedral_deg=80.01 pbc="F F F"
C        0.00000000       0.00000000       0.00000000
C        2.15555556       0.00000000       0.00000000
H       -0.56503637       0.92382805       0.00000000
H        2.72059193       0.16026227       0.90982101
H        2.72059193      -0.16026227      -0.90982101
H       -0.56503637      -0.92382805      -0.00000000
6
Properties=species:S:1:pos:R:3 source_frame_index=55 reference_source_frame_index=494 grid_cc_bond_angstrom=2.155555555555556 grid_dihedral_deg=100.01 pbc="F F F"
C        0.00000000       0.00000000       0.00000000
C        2.15555556       0.00000000       0.00000000
H       -0.56503637       0.92382805       0.00000000
H        2.72059193      -0.16057984       0.90976501
H        2.72059193       0.16057984      -0.90976501
H       -0.56503637      -0.92382805      -0.00000000
6
Properties=species:S:1:pos:R:3 source_frame_index=56 reference_source_frame_index=494 grid_cc_bond_angstrom=2.155555555555556 grid_dihedral_deg=120.01 pbc="F F F"
C        0.00000000       0.00000000       0.00000000
C        2.15555556       0.00000000       0.00000000
H       -0.56503637       0.92382805       0.00000000
H        2.72059193      -0.46205365       0.79997793
H        2.72059193       0.46205365      -0.79997793
H       -0.56503637      -0.92382805      -0.00000000
6
Properties=species:S:1:pos:R:3 source_frame_index=57 reference_source_frame_index=494 grid_cc_bond_angstrom=2.155555555555556 grid_dihedral_deg=140.01 pbc="F F F"
C        0.00000000       0.00000000       0.00000000
C        2.15555556       0.00000000       0.00000000
H       -0.56503637       0.92382805       0.00000000
H        2.72059193      -0.70779698       0.59370170
H        2.72059193       0.70779698      -0.59370170
H       -0.56503637      -0.92382805      -0.00000000
6
Properties=species:S:1:pos:R:3 source_frame_index=58 reference_source_frame_index=494 grid_cc_bond_angstrom=2.155555555555556 grid_dihedral_deg=160.01 pbc="F F F"
C        0.00000000       0.00000000       0.00000000
C        2.15555556       0.00000000       0.00000000
H       -0.56503637       0.92382805       0.00000000
H        2.72059193      -0.86816954       0.31581628
H        2.72059193       0.86816954      -0.31581628
H       -0.56503637      -0.92382805      -0.00000000
6
Properties=species:S:1:pos:R:3 source_frame_index=59 reference_source_frame_index=494 grid_cc_bond_angstrom=2.155555555555556 grid_dihedral_deg=180.01 pbc="F F F"
C        0.00000000       0.00000000       0.00000000
C        2.15555556       0.00000000       0.00000000
H       -0.56503637       0.92382805       0.00000000
H        2.72059193      -0.92382804      -0.00016124
H        2.72059193       0.92382804       0.00016124
H       -0.56503637      -0.92382805      -0.00000000
6
Properties=species:S:1:pos:R:3 source_frame_index=60 reference_source_frame_index=494 grid_cc_bond_angstrom=2.3666666666666667 grid_dihedral_deg=0.01 pbc="F F F"
C        0.00000000       0.00000000       0.00000000
C        2.36666667       0.00000000       0.00000000
H       -0.56503637       0.92382805       0.00000000
H        2.93170304       0.92382804       0.00016124
H        2.93170304      -0.92382804      -0.00016124
H       -0.56503637      -0.92382805      -0.00000000
6
Properties=species:S:1:pos:R:3 source_frame_index=61 reference_source_frame_index=494 grid_cc_bond_angstrom=2.3666666666666667 grid_dihedral_deg=20.01 pbc="F F F"
C        0.00000000       0.00000000       0.00000000
C        2.36666667       0.00000000       0.00000000
H       -0.56503637       0.92382805       0.00000000
H        2.93170304       0.86805924       0.31611931
H        2.93170304      -0.86805924      -0.31611931
H       -0.56503637      -0.92382805      -0.00000000
6
Properties=species:S:1:pos:R:3 source_frame_index=62 reference_source_frame_index=494 grid_cc_bond_angstrom=2.3666666666666667 grid_dihedral_deg=40.01 pbc="F F F"
C        0.00000000       0.00000000       0.00000000
C        2.36666667       0.00000000       0.00000000
H       -0.56503637       0.92382805       0.00000000
H        2.93170304       0.70758969       0.59394873
H        2.93170304      -0.70758969      -0.59394873
H       -0.56503637      -0.92382805      -0.00000000
6
Properties=species:S:1:pos:R:3 source_frame_index=63 reference_source_frame_index=494 grid_cc_bond_angstrom=2.3666666666666667 grid_dihedral_deg=60.01 pbc="F F F"
C        0.00000000       0.00000000       0.00000000
C        2.36666667       0.00000000       0.00000000
H       -0.56503637       0.92382805       0.00000000
H        2.93170304       0.46177438       0.80013917
H        2.93170304      -0.46177438      -0.80013917
H       -0.56503637      -0.92382805      -0.00000000
6
Properties=species:S:1:pos:R:3 source_frame_index=64 reference_source_frame_index=494 grid_cc_bond_angstrom=2.3666666666666667 grid_dihedral_deg=80.01 pbc="F F F"
C        0.00000000       0.00000000       0.00000000
C        2.36666667       0.00000000       0.00000000
H       -0.56503637       0.92382805       0.00000000
H        2.93170304       0.16026227       0.90982101
H        2.93170304      -0.16026227      -0.90982101
H       -0.56503637      -0.92382805      -0.00000000
6
Properties=species:S:1:pos:R:3 source_frame_index=65 reference_source_frame_index=494 grid_cc_bond_angstrom=2.3666666666666667 grid_dihedral_deg=100.01 pbc="F F F"
C        0.00000000       0.00000000       0.00000000
C        2.36666667       0.00000000       0.00000000
H       -0.56503637       0.92382805       0.00000000
H        2.93170304      -0.16057984       0.90976501
H        2.93170304       0.16057984      -0.90976501
H       -0.56503637      -0.92382805      -0.00000000
6
Properties=species:S:1:pos:R:3 source_frame_index=66 reference_source_frame_index=494 grid_cc_bond_angstrom=2.3666666666666667 grid_dihedral_deg=120.01 pbc="F F F"
C        0.00000000       0.00000000       0.00000000
C        2.36666667       0.00000000       0.00000000
H       -0.56503637       0.92382805       0.00000000
H        2.93170304      -0.46205365       0.79997793
H        2.93170304       0.46205365      -0.79997793
H       -0.56503637      -0.92382805      -0.00000000
6
Properties=species:S:1:pos:R:3 source_frame_index=67 reference_source_frame_index=494 grid_cc_bond_angstrom=2.3666666666666667 grid_dihedral_deg=140.01 pbc="F F F"
C        0.00000000       0.00000000       0.00000000
C        2.36666667       0.00000000       0.00000000
H       -0.56503637       0.92382805       0.00000000
H        2.93170304      -0.70779698       0.59370170
H        2.93170304       0.70779698      -0.59370170
H       -0.56503637      -0.92382805      -0.00000000
6
Properties=species:S:1:pos:R:3 source_frame_index=68 reference_source_frame_index=494 grid_cc_bond_angstrom=2.3666666666666667 grid_dihedral_deg=160.01 pbc="F F F"
C        0.00000000       0.00000000       0.00000000
C        2.36666667       0.00000000       0.00000000
H       -0.56503637       0.92382805       0.00000000
H        2.93170304      -0.86816954       0.31581628
H        2.93170304       0.86816954      -0.31581628
H       -0.56503637      -0.92382805      -0.00000000
6
Properties=species:S:1:pos:R:3 source_frame_index=69 reference_source_frame_index=494 grid_cc_bond_angstrom=2.3666666666666667 grid_dihedral_deg=180.01 pbc="F F F"
C        0.00000000       0.00000000       0.00000000
C        2.36666667       0.00000000       0.00000000
H       -0.56503637       0.92382805       0.00000000
H        2.93170304      -0.92382804      -0.00016124
H        2.93170304       0.92382804       0.00016124
H       -0.56503637      -0.92382805      -0.00000000
6
Properties=species:S:1:pos:R:3 source_frame_index=70 reference_source_frame_index=494 grid_cc_bond_angstrom=2.577777777777778 grid_dihedral_deg=0.01 pbc="F F F"
C        0.00000000       0.00000000       0.00000000
C        2.57777778       0.00000000       0.00000000
H       -0.56503637       0.92382805       0.00000000
H        3.14281415       0.92382804       0.00016124
H        3.14281415      -0.92382804      -0.00016124
H       -0.56503637      -0.92382805      -0.00000000
6
Properties=species:S:1:pos:R:3 source_frame_index=71 reference_source_frame_index=494 grid_cc_bond_angstrom=2.577777777777778 grid_dihedral_deg=20.01 pbc="F F F"
C        0.00000000       0.00000000       0.00000000
C        2.57777778       0.00000000       0.00000000
H       -0.56503637       0.92382805       0.00000000
H        3.14281415       0.86805924       0.31611931
H        3.14281415      -0.86805924      -0.31611931
H       -0.56503637      -0.92382805      -0.00000000
6
Properties=species:S:1:pos:R:3 source_frame_index=72 reference_source_frame_index=494 grid_cc_bond_angstrom=2.577777777777778 grid_dihedral_deg=40.01 pbc="F F F"
C        0.00000000       0.00000000       0.00000000
C        2.57777778       0.00000000       0.00000000
H       -0.56503637       0.92382805       0.00000000
H        3.14281415       0.70758969       0.59394873
H        3.14281415      -0.70758969      -0.59394873
H       -0.56503637      -0.92382805      -0.00000000
6
Properties=species:S:1:pos:R:3 source_frame_index=73 reference_source_frame_index=494 grid_cc_bond_angstrom=2.577777777777778 grid_dihedral_deg=60.01 pbc="F F F"
C        0.00000000       0.00000000       0.00000000
C        2.57777778       0.00000000       0.00000000
H       -0.56503637       0.92382805       0.00000000
H        3.14281415       0.46177438       0.80013917
H        3.14281415      -0.46177438      -0.80013917
H       -0.56503637      -0.92382805      -0.00000000
6
Properties=species:S:1:pos:R:3 source_frame_index=74 reference_source_frame_index=494 grid_cc_bond_angstrom=2.577777777777778 grid_dihedral_deg=80.01 pbc="F F F"
C        0.00000000       0.00000000       0.00000000
C        2.57777778       0.00000000       0.00000000
H       -0.56503637       0.92382805       0.00000000
H        3.14281415       0.16026227       0.90982101
H        3.14281415      -0.16026227      -0.90982101
H       -0.56503637      -0.92382805      -0.00000000
6
Properties=species:S:1:pos:R:3 source_frame_index=75 reference_source_frame_index=494 grid_cc_bond_angstrom=2.577777777777778 grid_dihedral_deg=100.01 pbc="F F F"
C        0.00000000       0.00000000       0.00000000
C        2.57777778       0.00000000       0.00000000
H       -0.56503637       0.92382805       0.00000000
H        3.14281415      -0.16057984       0.90976501
H        3.14281415       0.16057984      -0.90976501
H       -0.56503637      -0.92382805      -0.00000000
6
Properties=species:S:1:pos:R:3 source_frame_index=76 reference_source_frame_index=494 grid_cc_bond_angstrom=2.577777777777778 grid_dihedral_deg=120.01 pbc="F F F"
C        0.00000000       0.00000000       0.00000000
C        2.57777778       0.00000000       0.00000000
H       -0.56503637       0.92382805       0.00000000
H        3.14281415      -0.46205365       0.79997793
H        3.14281415       0.46205365      -0.79997793
H       -0.56503637      -0.92382805      -0.00000000
6
Properties=species:S:1:pos:R:3 source_frame_index=77 reference_source_frame_index=494 grid_cc_bond_angstrom=2.577777777777778 grid_dihedral_deg=140.01 pbc="F F F"
C        0.00000000       0.00000000       0.00000000
C        2.57777778       0.00000000       0.00000000
H       -0.56503637       0.92382805       0.00000000
H        3.14281415      -0.70779698       0.59370170
H        3.14281415       0.70779698      -0.59370170
H       -0.56503637      -0.92382805      -0.00000000
6
Properties=species:S:1:pos:R:3 source_frame_index=78 reference_source_frame_index=494 grid_cc_bond_angstrom=2.577777777777778 grid_dihedral_deg=160.01 pbc="F F F"
C        0.00000000       0.00000000       0.00000000
C        2.57777778       0.00000000       0.00000000
H       -0.56503637       0.92382805       0.00000000
H        3.14281415      -0.86816954       0.31581628
H        3.14281415       0.86816954      -0.31581628
H       -0.56503637      -0.92382805      -0.00000000
6
Properties=species:S:1:pos:R:3 source_frame_index=79 reference_source_frame_index=494 grid_cc_bond_angstrom=2.577777777777778 grid_dihedral_deg=180.01 pbc="F F F"
C        0.00000000       0.00000000       0.00000000
C        2.57777778       0.00000000       0.00000000
H       -0.56503637       0.92382805       0.00000000
H        3.14281415      -0.92382804      -0.00016124
H        3.14281415       0.92382804       0.00016124
H       -0.56503637      -0.92382805      -0.00000000
6
Properties=species:S:1:pos:R:3 source_frame_index=80 reference_source_frame_index=494 grid_cc_bond_angstrom=2.7888888888888888 grid_dihedral_deg=0.01 pbc="F F F"
C        0.00000000       0.00000000       0.00000000
C        2.78888889       0.00000000       0.00000000
H       -0.56503637       0.92382805       0.00000000
H        3.35392526       0.92382804       0.00016124
H        3.35392526      -0.92382804      -0.00016124
H       -0.56503637      -0.92382805      -0.00000000
6
Properties=species:S:1:pos:R:3 source_frame_index=81 reference_source_frame_index=494 grid_cc_bond_angstrom=2.7888888888888888 grid_dihedral_deg=20.01 pbc="F F F"
C        0.00000000       0.00000000       0.00000000
C        2.78888889       0.00000000       0.00000000
H       -0.56503637       0.92382805       0.00000000
H        3.35392526       0.86805924       0.31611931
H        3.35392526      -0.86805924      -0.31611931
H       -0.56503637      -0.92382805      -0.00000000
6
Properties=species:S:1:pos:R:3 source_frame_index=82 reference_source_frame_index=494 grid_cc_bond_angstrom=2.7888888888888888 grid_dihedral_deg=40.01 pbc="F F F"
C        0.00000000       0.00000000       0.00000000
C        2.78888889       0.00000000       0.00000000
H       -0.56503637       0.92382805       0.00000000
H        3.35392526       0.70758969       0.59394873
H        3.35392526      -0.70758969      -0.59394873
H       -0.56503637      -0.92382805      -0.00000000
6
Properties=species:S:1:pos:R:3 source_frame_index=83 reference_source_frame_index=494 grid_cc_bond_angstrom=2.7888888888888888 grid_dihedral_deg=60.01 pbc="F F F"
C        0.00000000       0.00000000       0.00000000
C        2.78888889       0.00000000       0.00000000
H       -0.56503637       0.92382805       0.00000000
H        3.35392526       0.46177438       0.80013917
H        3.35392526      -0.46177438      -0.80013917
H       -0.56503637      -0.92382805      -0.00000000
6
Properties=species:S:1:pos:R:3 source_frame_index=84 reference_source_frame_index=494 grid_cc_bond_angstrom=2.7888888888888888 grid_dihedral_deg=80.01 pbc="F F F"
C        0.00000000       0.00000000       0.00000000
C        2.78888889       0.00000000       0.00000000
H       -0.56503637       0.92382805       0.00000000
H        3.35392526       0.16026227       0.90982101
H        3.35392526      -0.16026227      -0.90982101
H       -0.56503637      -0.92382805      -0.00000000
6
Properties=species:S:1:pos:R:3 source_frame_index=85 reference_source_frame_index=494 grid_cc_bond_angstrom=2.7888888888888888 grid_dihedral_deg=100.01 pbc="F F F"
C        0.00000000       0.00000000       0.00000000
C        2.78888889       0.00000000       0.00000000
H       -0.56503637       0.92382805       0.00000000
H        3.35392526      -0.16057984       0.90976501
H        3.35392526       0.16057984      -0.90976501
H       -0.56503637      -0.92382805      -0.00000000
6
Properties=species:S:1:pos:R:3 source_frame_index=86 reference_source_frame_index=494 grid_cc_bond_angstrom=2.7888888888888888 grid_dihedral_deg=120.01 pbc="F F F"
C        0.00000000       0.00000000       0.00000000
C        2.78888889       0.00000000       0.00000000
H       -0.56503637       0.92382805       0.00000000
H        3.35392526      -0.46205365       0.79997793
H        3.35392526       0.46205365      -0.79997793
H       -0.56503637      -0.92382805      -0.00000000
6
Properties=species:S:1:pos:R:3 source_frame_index=87 reference_source_frame_index=494 grid_cc_bond_angstrom=2.7888888888888888 grid_dihedral_deg=140.01 pbc="F F F"
C        0.00000000       0.00000000       0.00000000
C        2.78888889       0.00000000       0.00000000
H       -0.56503637       0.92382805       0.00000000
H        3.35392526      -0.70779698       0.59370170
H        3.35392526       0.70779698      -0.59370170
H       -0.56503637      -0.92382805      -0.00000000
6
Properties=species:S:1:pos:R:3 source_frame_index=88 reference_source_frame_index=494 grid_cc_bond_angstrom=2.7888888888888888 grid_dihedral_deg=160.01 pbc="F F F"
C        0.00000000       0.00000000       0.00000000
C        2.78888889       0.00000000       0.00000000
H       -0.56503637       0.92382805       0.00000000
H        3.35392526      -0.86816954       0.31581628
H        3.35392526       0.86816954      -0.31581628
H       -0.56503637      -0.92382805      -0.00000000
6
Properties=species:S:1:pos:R:3 source_frame_index=89 reference_source_frame_index=494 grid_cc_bond_angstrom=2.7888888888888888 grid_dihedral_deg=180.01 pbc="F F F"
C        0.00000000       0.00000000       0.00000000
C        2.78888889       0.00000000       0.00000000
H       -0.56503637       0.92382805       0.00000000
H        3.35392526      -0.92382804      -0.00016124
H        3.35392526       0.92382804       0.00016124
H       -0.56503637      -0.92382805      -0.00000000
6
Properties=species:S:1:pos:R:3 source_frame_index=90 reference_source_frame_index=494 grid_cc_bond_angstrom=3.0 grid_dihedral_deg=0.01 pbc="F F F"
C        0.00000000       0.00000000       0.00000000
C        3.00000000       0.00000000       0.00000000
H       -0.56503637       0.92382805       0.00000000
H        3.56503637       0.92382804       0.00016124
H        3.56503637      -0.92382804      -0.00016124
H       -0.56503637      -0.92382805      -0.00000000
6
Properties=species:S:1:pos:R:3 source_frame_index=91 reference_source_frame_index=494 grid_cc_bond_angstrom=3.0 grid_dihedral_deg=20.01 pbc="F F F"
C        0.00000000       0.00000000       0.00000000
C        3.00000000       0.00000000       0.00000000
H       -0.56503637       0.92382805       0.00000000
H        3.56503637       0.86805924       0.31611931
H        3.56503637      -0.86805924      -0.31611931
H       -0.56503637      -0.92382805      -0.00000000
6
Properties=species:S:1:pos:R:3 source_frame_index=92 reference_source_frame_index=494 grid_cc_bond_angstrom=3.0 grid_dihedral_deg=40.01 pbc="F F F"
C        0.00000000       0.00000000       0.00000000
C        3.00000000       0.00000000       0.00000000
H       -0.56503637       0.92382805       0.00000000
H        3.56503637       0.70758969       0.59394873
H        3.56503637      -0.70758969      -0.59394873
H       -0.56503637      -0.92382805      -0.00000000
6
Properties=species:S:1:pos:R:3 source_frame_index=93 reference_source_frame_index=494 grid_cc_bond_angstrom=3.0 grid_dihedral_deg=60.01 pbc="F F F"
C        0.00000000       0.00000000       0.00000000
C        3.00000000       0.00000000       0.00000000
H       -0.56503637       0.92382805       0.00000000
H        3.56503637       0.46177438       0.80013917
H        3.56503637      -0.46177438      -0.80013917
H       -0.56503637      -0.92382805      -0.00000000
6
Properties=species:S:1:pos:R:3 source_frame_index=94 reference_source_frame_index=494 grid_cc_bond_angstrom=3.0 grid_dihedral_deg=80.01 pbc="F F F"
C        0.00000000       0.00000000       0.00000000
C        3.00000000       0.00000000       0.00000000
H       -0.56503637       0.92382805       0.00000000
H        3.56503637       0.16026227       0.90982101
H        3.56503637      -0.16026227      -0.90982101
H       -0.56503637      -0.92382805      -0.00000000
6
Properties=species:S:1:pos:R:3 source_frame_index=95 reference_source_frame_index=494 grid_cc_bond_angstrom=3.0 grid_dihedral_deg=100.01 pbc="F F F"
C        0.00000000       0.00000000       0.00000000
C        3.00000000       0.00000000       0.00000000
H       -0.56503637       0.92382805       0.00000000
H        3.56503637      -0.16057984       0.90976501
H        3.56503637       0.16057984      -0.90976501
H       -0.56503637      -0.92382805      -0.00000000
6
Properties=species:S:1:pos:R:3 source_frame_index=96 reference_source_frame_index=494 grid_cc_bond_angstrom=3.0 grid_dihedral_deg=120.01 pbc="F F F"
C        0.00000000       0.00000000       0.00000000
C        3.00000000       0.00000000       0.00000000
H       -0.56503637       0.92382805       0.00000000
H        3.56503637      -0.46205365       0.79997793
H        3.56503637       0.46205365      -0.79997793
H       -0.56503637      -0.92382805      -0.00000000
6
Properties=species:S:1:pos:R:3 source_frame_index=97 reference_source_frame_index=494 grid_cc_bond_angstrom=3.0 grid_dihedral_deg=140.01 pbc="F F F"
C        0.00000000       0.00000000       0.00000000
C        3.00000000       0.00000000       0.00000000
H       -0.56503637       0.92382805       0.00000000
H        3.56503637      -0.70779698       0.59370170
H        3.56503637       0.70779698      -0.59370170
H       -0.56503637      -0.92382805      -0.00000000
6
Properties=species:S:1:pos:R:3 source_frame_index=98 reference_source_frame_index=494 grid_cc_bond_angstrom=3.0 grid_dihedral_deg=160.01 pbc="F F F"
C        0.00000000       0.00000000       0.00000000
C        3.00000000       0.00000000       0.00000000
H       -0.56503637       0.92382805       0.00000000
H        3.56503637      -0.86816954       0.31581628
H        3.56503637       0.86816954      -0.31581628
H       -0.56503637      -0.92382805      -0.00000000
6
Properties=species:S:1:pos:R:3 source_frame_index=99 reference_source_frame_index=494 grid_cc_bond_angstrom=3.0 grid_dihedral_deg=180.01 pbc="F F F"
C        0.00000000       0.00000000       0.00000000
C        3.00000000       0.00000000       0.00000000
H       -0.56503637       0.92382805       0.00000000
H        3.56503637      -0.92382804      -0.00016124
H        3.56503637       0.92382804       0.00016124
H       -0.56503637      -0.92382805      -0.00000000
