           6
  t=         0.00000    2    2
C      -0.664590500      0.006839171      0.009389091
C       0.649281350     -0.004109511      0.000375912
H      -1.223139173      0.854160060     -0.059767237
H      -1.187721898     -0.891373273     -0.036310341
H       1.308103829      0.941419779      0.007265688
H       1.285176121     -0.936732221     -0.027544621
           6
  t=         0.50000    2    2
C      -0.664471259      0.006246321      0.010017324
C       0.651505570     -0.004328382      0.000178564
H      -1.230445646      0.856318546     -0.062931864
H      -1.199095069     -0.890116809     -0.038810132
H       1.305161505      0.942272134      0.007545580
H       1.278873957     -0.931327316     -0.027294717
           6
  t=         1.00000    2    2
C      -0.665586444      0.005439603      0.010691049
C       0.655889549     -0.004370853     -0.000005863
H      -1.240995730      0.863986879     -0.068113222
H      -1.212752625     -0.892188995     -0.039791713
H       1.298898297      0.939127894      0.009190264
H       1.270394699     -0.923660566     -0.028607117
           6
  t=         1.50000    2    2
C      -0.667978339      0.004472690      0.011402180
C       0.662257127     -0.004204455     -0.000174505
H      -1.253817125      0.875876156     -0.075323813
H      -1.228121514     -0.896910363     -0.039129205
H       1.289715990      0.932411018      0.012291262
H       1.260394138     -0.914572900     -0.031624487
           6
  t=         2.00000    2    2
C      -0.671662430      0.003408607      0.012139762
C       0.670349490     -0.003802475     -0.000322428
H      -1.267776575      0.890399654     -0.084614591
H      -1.244550246     -0.903428425     -0.036626260
H       1.278268569      0.922870727      0.017011320
H       1.249701986     -0.905148643     -0.036583239
           6
  t=         2.50000    1    1
C      -0.676608362      0.002307936      0.012892246
C       0.679833282     -0.003149029     -0.000442283
H      -1.281772457      0.905943246     -0.096048213
H      -1.261383766     -0.910836153     -0.032072612
H       1.265445590      0.911580390      0.023550802
H       1.239282487     -0.896665176     -0.043781273
           6
  t=         3.00000    1    1
C      -0.686916137     -0.003529238      0.008811766
C       0.684970944     -0.007025205     -0.005298710
H      -1.351434781      0.864446894     -0.164441163
H      -1.334475751     -0.975102102     -0.083286941
H       1.195454088      0.843415437     -0.026020087
H       1.173299955     -0.947330320     -0.108447690
           6
  t=         3.50000    1    1
C      -0.697515956     -0.009684384      0.004418925
C       0.689207294     -0.011581361     -0.010190907
H      -1.418585226      0.822627863     -0.230261500
H      -1.402950599     -1.035064377     -0.133825767
H       1.131151071      0.784262242     -0.076227302
H       1.108719546     -0.999096941     -0.171577672
           6
  t=         4.00000    1    1
C      -0.708598126     -0.016322005     -0.000454636
C       0.691735875     -0.018097109     -0.015067312
H      -1.481754880      0.780226561     -0.292635945
H      -1.464288842     -1.088212316     -0.182570668
H       1.080196767      0.746643992     -0.128210206
H       1.045769808     -1.049531701     -0.232631857
           6
  t=         4.50000    1    1
C      -0.720326165     -0.023543223     -0.005964545
C       0.691916755     -0.027713837     -0.019785752
H      -1.539488229      0.737044904     -0.350723065
H      -1.516781904     -1.133064171     -0.228371513
H       1.048587118      0.741438933     -0.184449283
H       0.984864318     -1.095991149     -0.290960995
           6
  t=         5.00000    1    1
C      -0.732815995     -0.031412566     -0.012247574
C       0.689602691     -0.040698769     -0.024255422
H      -1.590394103      0.693002527     -0.403742525
H      -1.559479079     -1.168872630     -0.270169202
H       1.036551198      0.769942245     -0.246840674
H       0.926567940     -1.136484379     -0.345960654
           6
  t=         5.50000    1    1
C      -0.746116080     -0.039931841     -0.019396352
C       0.685156857     -0.056285866     -0.028614009
H      -1.633448383      0.648085238     -0.451087988
H      -1.592235649     -1.195661498     -0.307281415
H       1.038701782      0.822147656     -0.314349024
H       0.871349065     -1.170073447     -0.397210460
           6
  t=         6.00000    1    1
C      -0.760250074     -0.049075020     -0.027481765
C       0.679061515     -0.073410340     -0.033169384
H      -1.667898681      0.602388307     -0.492197287
H      -1.615086424     -1.213685055     -0.339327323
H       1.048504099      0.884621307     -0.383796851
H       0.819560271     -1.196163310     -0.444317773
           6
  t=         6.50000    1    1
C      -0.775199001     -0.058800444     -0.036568990
C       0.671663870     -0.091261897     -0.038191096
H      -1.693365981      0.556151684     -0.526545331
H      -1.628180163     -1.223338031     -0.366139280
H       1.061072492      0.947264574     -0.452127736
H       0.771493661     -1.214652150     -0.487043233
           6
  t=         7.00000    1    1
C      -0.790923042     -0.069083661     -0.046726620
C       0.663128635     -0.109352057     -0.043854349
H      -1.709709991      0.509824530     -0.553613236
H      -1.631618796     -1.225102950     -0.387568285
H       1.073637688      1.004048660     -0.517235740
H       0.727443023     -1.225589748     -0.525255683
           6
  t=         7.50000    1    1
C      -0.807349625     -0.079940103     -0.057993768
C       0.653484752     -0.127353573     -0.050317677
H      -1.717065562      0.464314127     -0.573149482
H      -1.625332029     -1.219510902     -0.403344753
H       1.084561935      1.050897504     -0.577406572
H       0.687901036     -1.228991696     -0.558835417
           6
  t=         8.00000    1    1
C      -0.824324397     -0.091425525     -0.070341832
C       0.642694247     -0.145014635     -0.057716793
H      -1.716310236      0.420944126     -0.585524234
H      -1.609384434     -1.207085734     -0.413189774
H       1.092783779      1.085128249     -0.631227929
H       0.653484536     -1.225311099     -0.587827161
           6
  t=         8.50000    1    1
C      -0.841605860     -0.103633635     -0.083658020
C       0.630704342     -0.162195991     -0.066107082
H      -1.709284471      0.381442244     -0.591914905
H      -1.584206360     -1.188493401     -0.416952488
H       1.097868368      1.105968450     -0.678073144
H       0.624650462     -1.215379943     -0.612515105
           6
  t=         9.00000    1    1
C      -0.858890938     -0.116662941     -0.097793236
C       0.617467266     -0.178868184     -0.075464448
H      -1.698452649      0.347886343     -0.593881442
H      -1.550548923     -1.164844889     -0.414673804
H       1.099811975      1.114080510     -0.718092605
H       0.601575925     -1.200004724     -0.633211684
           6
  t=         9.50000    1    1
C      -0.875835591     -0.130597284     -0.112570159
C       0.602980693     -0.194984973     -0.085736234
H      -1.686803718      0.322632386     -0.593203691
H      -1.509555530     -1.137826465     -0.406633633
H       1.098666357      1.110265138     -0.751583885
H       0.584269745     -1.180207818     -0.650299916
           6
  t=        10.00000    1    1
C      -0.892071038     -0.145477145     -0.127794067
C       0.587274093     -0.210420713     -0.096865491
H      -1.677554672      0.308078945     -0.591688659
H      -1.462751601     -1.109688695     -0.393309331
H       1.094395421      1.094924998     -0.778636041
H       0.572765022     -1.157554669     -0.664405216
           6
  t=        10.50000    1    1
C      -0.907227084     -0.161230278     -0.143275749
C       0.570371663     -0.224971654     -0.108789161
H      -1.673459737      0.306176312     -0.590764887
H      -1.412038215     -1.083479222     -0.375437026
H       1.086896600      1.068142788     -0.799105645
H       0.567120145     -1.134319324     -0.676512292
           6
  t=        11.00000    1    1
C      -0.920958176     -0.177571683     -0.158841377
C       0.552270436     -0.238374717     -0.121447797
H      -1.676004669      0.317855263     -0.591088471
H      -1.359978069     -1.063684671     -0.354206968
H       1.076043619      1.029825754     -0.812656701
H       0.567427731     -1.113383878     -0.687890417
           6
  t=        11.50000    1    1
C      -0.932968213     -0.193949424     -0.174355390
C       0.532947070     -0.250330828     -0.134791852
H      -1.684885370      0.342542243     -0.592309503
H      -1.310254198     -1.056635033     -0.331252581
H       1.061722392      0.979842588     -0.818850191
H       0.573930695     -1.097853876     -0.699900790
           6
  t=        12.00000    1    1
C      -0.943092331     -0.209669964     -0.189767336
C       0.512392635     -0.260558441     -0.148787008
H      -1.698251152      0.378104860     -0.593234962
H      -1.266915120     -1.069033779     -0.308028503
H       1.043821982      0.918146685     -0.817252582
H       0.587079724     -1.090465606     -0.713725428
           6
  t=        12.50000    1    1
C      -0.951373600     -0.224149276     -0.205124147
C       0.490652782     -0.268857700     -0.163442183
H      -1.713551686      0.421421608     -0.592396328
H      -1.232862178     -1.105431312     -0.285132426
H       1.022198038      0.844789573     -0.807440248
H       0.607339452     -1.092939168     -0.729993262
           6
  t=        13.00000    1    1
C      -0.958084042     -0.237227527     -0.220544047
C       0.467823135     -0.275182722     -0.178845867
H      -1.728293110      0.469177676     -0.588530149
H      -1.208469695     -1.165109154     -0.262125411
H       0.996759607      0.760262533     -0.789046055
H       0.634783163     -1.105620767     -0.748310709
           6
  t=        13.50000    1    1
C      -0.963701584     -0.249304748     -0.236131521
C       0.444097671     -0.279823886     -0.195098901
H      -1.740361819      0.517870622     -0.580892849
H      -1.191870129     -1.240341163     -0.238422236
H       0.967999184      0.666927706     -0.762661807
H       0.668320706     -1.126869543     -0.766968152
           6
  t=        14.00000    1    1
C      -0.968665434     -0.260975766     -0.251915412
C       0.419711320     -0.283258398     -0.212312473
H      -1.748193230      0.564270887     -0.569055980
H      -1.181449414     -1.321493797     -0.214099898
H       0.937015893      0.568372191     -0.729518114
H       0.706108383     -1.153902587     -0.783417885
           6
  t=        14.50000    1    1
C      -0.973350462     -0.272703436     -0.267866106
C       0.394844092     -0.286118342     -0.230506829
H      -1.750765121      0.605988133     -0.552786217
H      -1.176342082     -1.401116837     -0.189646968
H       0.905966860      0.469884787     -0.691858899
H       0.746423303     -1.184021627     -0.795272341
           6
  t=        15.00000    1    1
C      -0.978105269     -0.284756931     -0.283932271
C       0.369516651     -0.289240710     -0.249500912
H      -1.747441257      0.641086001     -0.531991035
H      -1.176205438     -1.474204641     -0.165617830
H       0.879194083      0.379439867     -0.653601943
H       0.787852107     -1.215089622     -0.800920964
           6
  t=        15.50000    1    1
C      -0.983249418     -0.297286125     -0.300055747
C       0.343501027     -0.293705806     -0.268876905
H      -1.738008844      0.668146617     -0.506764735
H      -1.180982451     -1.537544489     -0.142590681
H       0.864320424      0.308074032     -0.620704992
H       0.829026339     -1.245279626     -0.799405097
           6
  t=        16.00000    1    1
C      -0.989075801     -0.310391956     -0.316169321
C       0.316496796     -0.300530789     -0.288173895
H      -1.722657499      0.686235615     -0.477490094
H      -1.190701209     -1.588973707     -0.121232607
H       0.870294558      0.266253894     -0.598825195
H       0.868284786     -1.272963674     -0.790310717
           6
  t=        16.50000    1    1
C      -0.995806122     -0.324150809     -0.332152293
C       0.288586999     -0.310042830     -0.307319072
H      -1.701853652      0.694906280     -0.445237023
H      -1.205386078     -1.627310974     -0.101935395
H       0.901112377      0.256755805     -0.588320001
H       0.903774622     -1.296844090     -0.774124454
           6
  t=        17.00000    1    1
C      -1.003604112     -0.338534192     -0.347899316
C       0.260392810     -0.321876544     -0.326595946
H      -1.676109052      0.693796467     -0.410919446
H      -1.224530667     -1.652141164     -0.085028886
H       0.952838214      0.274271738     -0.585158477
H       0.933986130     -1.316359114     -0.751510565
           6
  t=        17.50000    1    1
C      -1.012676516     -0.353465345     -0.363327118
C       0.233095739     -0.335236050     -0.346387954
H      -1.646137142      0.682832167     -0.375201793
H      -1.247312303     -1.663520602     -0.070935900
H       1.014869647      0.308365396     -0.584114232
H       0.957797506     -1.331340250     -0.723031519
           6
  t=        18.00000    1    1
C      -1.023267623     -0.368874282     -0.378352904
C       0.207835379     -0.349455149     -0.366910522
H      -1.612970815      0.662433826     -0.338756583
H      -1.273003774     -1.661911548     -0.059972706
H       1.077587026      0.350135424     -0.581953414
H       0.974465939     -1.341616444     -0.689351963
           6
  t=        18.50000    1    1
C      -1.035614516     -0.384722837     -0.392898205
C       0.185460866     -0.364148028     -0.388207393
H      -1.577892093      0.633477263     -0.302264257
H      -1.300977110     -1.647824938     -0.052333008
H       1.134852667      0.393969937     -0.577398173
H       0.983490153     -1.346992708     -0.651289428
           6
  t=        19.00000    1    1
C      -1.049890393     -0.401021107     -0.406894047
C       0.166573420     -0.379105014     -0.410224021
H      -1.542452675      0.597512404     -0.266371964
H      -1.330716350     -1.621792230     -0.048109636
H       1.182822795      0.436423087     -0.570152343
H       0.984649474     -1.347419736     -0.609871906
           6
  t=        19.50000    1    1
C      -1.066161695     -0.417824837     -0.420276567
C       0.151543230     -0.394226456     -0.432862023
H      -1.508487992      0.556956016     -0.231671302
H      -1.361873580     -1.584624460     -0.047290898
H       1.219290194      0.475477416     -0.560346926
H       0.978019277     -1.343008987     -0.566321758
           6
  t=        20.00000    1    1
C      -1.084337830     -0.435206571     -0.433008156
C       0.140494300     -0.409477089     -0.456019119
H      -1.477864156      0.514915009     -0.198233966
H      -1.394433010     -1.537784336     -0.049989378
H       1.243312136      0.510218735     -0.548600681
H       0.963835555     -1.334046257     -0.521502829
           6
  t=        20.50000    1    1
C      -1.104134037     -0.453225786     -0.445126693
C       0.133279884     -0.424837298     -0.479586411
H      -1.452179469      0.474630306     -0.165445319
H      -1.428748901     -1.483423138     -0.056188866
H       1.254977106      0.540383728     -0.535813598
H       0.942317847     -1.320882878     -0.475992198
           6
  t=        21.00000    1    1
C      -1.125146968     -0.471850631     -0.456726580
C       0.129580583     -0.440274280     -0.503429155
H      -1.432803819      0.438865441     -0.132643045
H      -1.465239805     -1.424082708     -0.065414635
H       1.254474186      0.565590940     -0.522686147
H       0.914065192     -1.304129507     -0.430707142
           6
  t=        21.50000    1    1
C      -1.146876194     -0.490852441     -0.467942668
C       0.128917750     -0.455707212     -0.527414856
H      -1.420494744      0.409659754     -0.099284996
H      -1.504534007     -1.363689041     -0.076735763
H       1.241749013      0.585206935     -0.509872814
H       0.880258251     -1.284953796     -0.386438187
           6
  t=        22.00000    1    1
C      -1.168676449     -0.509715632     -0.478994468
C       0.130618261     -0.470995483     -0.551343099
H      -1.415346018      0.388294105     -0.065636017
H      -1.548100971     -1.308810613     -0.087927059
H       1.216862880      0.598372783     -0.497938190
H       0.842730893     -1.265028218     -0.344353544
           6
  t=        22.50000    1    1
C      -1.189940245     -0.527759022     -0.490103446
C       0.134038993     -0.485935737     -0.575075250
H      -1.416900453      0.374698470     -0.032451928
H      -1.598585549     -1.266790420     -0.096138861
H       1.179956573      0.604404112     -0.487426250
H       0.803954622     -1.246795237     -0.305016068
           6
  t=        23.00000    1    1
C      -1.210133973     -0.544334127     -0.501430276
C       0.138583212     -0.500278401     -0.598519230
H      -1.424481158      0.367510911     -0.000970801
H      -1.658912870     -1.243331146     -0.098771975
H       1.131164108      0.602637971     -0.478935938
H       0.766795834     -1.233228234     -0.268370599
           6
  t=        23.50000    1    1
C      -1.228940227     -0.559099419     -0.512960533
C       0.143741031     -0.513783253     -0.621644730
H      -1.437335020      0.364855351      0.027353267
H      -1.730348316     -1.240018154     -0.095021752
H       1.070689271      0.592469170     -0.473033492
H       0.733856554     -1.227192520     -0.233734463
           6
  t=        24.00000    1    1
C      -1.246325179     -0.572098725     -0.524466705
C       0.149111373     -0.526290580     -0.644446963
H      -1.454709137      0.364891534      0.051089641
H      -1.811144301     -1.253927104     -0.086587139
H       0.998799995      0.573386562     -0.470217002
H       0.706744386     -1.230641910     -0.200247996
           6
  t=        24.50000    1    1
C      -1.262477918     -0.583607807     -0.535622902
C       0.154405421     -0.537790085     -0.666900846
H      -1.475819270      0.365996836      0.069156409
H      -1.897243459     -1.279779343     -0.076659724
H       0.916130608      0.545264524     -0.470908765
H       0.685677955     -1.243943593     -0.167397496
           6
  t=        25.00000    1    1
C      -1.277664870     -0.593942952     -0.546119485
C       0.159387147     -0.548450091     -0.688906205
H      -1.499926357      0.366734274      0.080725823
H      -1.983868565     -1.312218098     -0.068557554
H       0.824041471      0.508764759     -0.475433806
H       0.669767706     -1.265904620     -0.135595328
           6
  t=        25.50000    1    1
C      -1.292131612     -0.603371880     -0.555734006
C       0.163842878     -0.558572530     -0.710293750
H      -1.526339452      0.365854508      0.085185624
H      -2.066929582     -1.346983242     -0.064824217
H       0.724612117      0.465324609     -0.483938993
H       0.657625390     -1.294185324     -0.106206607
           6
  t=        26.00000    1    1
C      -1.306052969     -0.612095547     -0.564349312
C       0.167549984     -0.568515778     -0.730893575
H      -1.554408340      0.362465306      0.082172727
H      -2.143646515     -1.381272841     -0.066965828
H       0.620396772      0.417067064     -0.496276675
H       0.648002516     -1.326153598     -0.080930273
           6
  t=        26.50000    1    1
C      -1.319554353     -0.620276918     -0.571929360
C       0.170221714     -0.578748986     -0.750604629
H      -1.583613227      0.356064652      0.071617829
H      -2.212032337     -1.413250499     -0.075787891
H       0.514683398      0.367876345     -0.511720185
H       0.640015496     -1.359495919     -0.061251771
           6
  t=        27.00000    1    1
C      -1.332713570     -0.628049736     -0.578492532
C       0.171540087     -0.589919497     -0.769433502
H      -1.613592216      0.346453343      0.053662280
H      -2.270813218     -1.441772562     -0.091573187
H       0.411118117      0.324282612     -0.528684552
H       0.633098565     -1.392379773     -0.048317058
           6
  t=        27.50000    1    1
C      -1.345568113     -0.635523515     -0.584066579
C       0.171272830     -0.602787305     -0.787473749
H      -1.644150206      0.333568088      0.028551743
H      -2.319380995     -1.466150258     -0.114382839
H       0.312515381      0.294337398     -0.544966927
H       0.626848430     -1.423121381     -0.043068108
           6
  t=        28.00000    1    1
C      -1.358126076     -0.642814955     -0.588694043
C       0.169377260     -0.617927927     -0.804845279
H      -1.675271524      0.317519465     -0.003245184
H      -2.357865639     -1.486085459     -0.144059442
H       0.219997777      0.284286938     -0.558637006
H       0.620861866     -1.450127435     -0.046125507
           6
  t=        28.50000    1    1
C      -1.370404085     -0.650083410     -0.592432737
C       0.165935477     -0.635421981     -0.821573556
H      -1.707059929      0.298591545     -0.041102870
H      -2.386514470     -1.501349749     -0.180379014
H       0.133585472      0.295191060     -0.569220330
H       0.614689604     -1.472110856     -0.057821004
           6
  t=        29.00000    1    1
C      -1.382423640     -0.657539396     -0.595375360
C       0.160995704     -0.654780382     -0.837554269
H      -1.739680737      0.277459738     -0.084257920
H      -2.405328484     -1.511680611     -0.223013721
H       0.053515011      0.322041951     -0.577930973
H       0.607943003     -1.488321060     -0.078170140
           6
  t=        29.50000    1    1
C      -1.394216700     -0.665445664     -0.597658945
C       0.154471920     -0.675230701     -0.852633806
H      -1.773304798      0.255367891     -0.131797102
H      -2.414067157     -1.516921782     -0.271503437
H      -0.018676556      0.357271447     -0.586715308
H       0.600421132     -1.498663174     -0.106797461
           6
  t=        30.00000    1    1
C      -1.405804007     -0.674090765     -0.599455051
C       0.146180914     -0.696022546     -0.866702385
H      -1.808122691      0.234018869     -0.182717922
H      -2.412367934     -1.517047695     -0.325241427
H      -0.080775226      0.394183053     -0.597242814
H       0.592168242     -1.503672276     -0.142906568
           6
  t=        30.50000    1    1
C      -1.417177245     -0.683748922     -0.600961984
C       0.135928303     -0.716523254     -0.879731525
H      -1.844285040      0.215217182     -0.236070409
H      -2.399947527     -1.512080229     -0.383358368
H      -0.130973382      0.427839233     -0.610534321
H       0.583461185     -1.504464508     -0.185272372
           6
  t=        31.00000    1    1
C      -1.428294420     -0.694615482     -0.602382814
C       0.123569311     -0.736241838     -0.891767418
H      -1.881883905      0.200359746     -0.291172388
H      -2.376922175     -1.502180692     -0.444668308
H      -0.168342897      0.455029976     -0.626981443
H       0.574804845     -1.502588238     -0.232401245
           6
  t=        31.50000    1    1
C      -1.439079382     -0.706754871     -0.603904672
C       0.109013143     -0.754818253     -0.902914262
H      -1.920888715      0.190157802     -0.347682385
H      -2.344210422     -1.488010893     -0.507769417
H      -0.192666420      0.474030902     -0.646523215
H       0.567044350     -1.499890984     -0.282626095
           6
  t=        32.00000    1    1
C      -1.449402744     -0.720073218     -0.605694318
C       0.092175729     -0.771969945     -0.913304087
H      -1.960910390      0.184587269     -0.405526274
H      -2.303969497     -1.471262047     -0.571212163
H      -0.204030811      0.484232225     -0.668916395
H       0.561494746     -1.498533045     -0.334153521
           6
  t=        32.50000    1    1
C      -1.459079885     -0.734314858     -0.607886891
C       0.072949289     -0.787453870     -0.923061409
H      -2.001058395      0.182883000     -0.464742310
H      -2.259549001     -1.454776733     -0.633795010
H      -0.202590435      0.485548085     -0.693938786
H       0.559853809     -1.500763294     -0.385275040
           6
  t=        33.00000    1    1
C      -1.467903474     -0.749096244     -0.610568759
C       0.051223144     -0.801073962     -0.932265584
H      -2.040051531      0.183612539     -0.525307531
H      -2.214876693     -1.442146086     -0.694871692
H      -0.188514375      0.477949098     -0.721491627
H       0.563785540     -1.508435224     -0.434783930
           6
  t=        33.50000    1    1
C      -1.475645054     -0.763947030     -0.613790215
C       0.026937421     -0.812698268     -0.940924253
H      -2.076436707      0.184989874     -0.586949280
H      -2.174254099     -1.437548985     -0.754410773
H      -0.162012697      0.461156920     -0.751569076
H       0.574339637     -1.522482399     -0.482299802
           6
  t=        34.00000    1    1
C      -1.482103574     -0.778386868     -0.617574046
C       0.000161376     -0.822296239     -0.948982770
H      -2.108827464      0.185294663     -0.649053710
H      -2.141823259     -1.445212447     -0.812967257
H      -0.123541466      0.434701354     -0.784143532
H       0.591506848     -1.542574951     -0.528288724
           6
  t=        34.50000    1    1
C      -1.487230974     -0.792075785     -0.621941070
C      -0.028873903     -0.829952517     -0.956343408
H      -2.136104925      0.183121287     -0.710790190
H      -2.120190876     -1.467986241     -0.871254621
H      -0.073751350      0.398263869     -0.819104441
H       0.614099443     -1.567181405     -0.573894816
           6
  t=        35.00000    1    1
C      -1.491233076     -0.804930970     -0.626943613
C      -0.059769704     -0.835893814     -0.962916720
H      -2.157484025      0.177438653     -0.771331227
H      -2.109148119     -1.505844644     -0.929404380
H      -0.013704914      0.352232841     -0.856165175
H       0.639887682     -1.593970061     -0.620543018
           6
  t=        35.50000    1    1
C      -1.494505294     -0.817088676     -0.632695232
C      -0.092015108     -0.840474763     -0.968670739
H      -2.172413758      0.167497198     -0.829979195
H      -2.106014077     -1.555956215     -0.986463372
H       0.054847323      0.297927984     -0.894784902
H       0.666013829     -1.620493322     -0.669452754
           6
  t=        36.00000    1    1
C      -1.497518975     -0.828794951     -0.639346005
C      -0.125023783     -0.844115481     -0.973644512
H      -2.180598710      0.152782156     -0.886092172
H      -2.107170703     -1.613979557     -1.040712829
H       0.129634582      0.237474264     -0.934370385
H       0.689465103     -1.644764940     -0.721324375
           6
  t=        36.50000    1    1
C      -1.500712993     -0.840289719     -0.647035157
C      -0.158206506     -0.847236136     -0.977922432
H      -2.182031772      0.132960701     -0.939060014
H      -2.109435410     -1.675622317     -1.090377672
H       0.208398663      0.173527798     -0.974462091
H       0.707518469     -1.665535144     -0.776338105
           6
  t=        37.00000    1    1
C      -1.504468413     -0.851755529     -0.655872924
C      -0.191008367     -0.850187944     -0.981604796
H      -2.176945243      0.107902401     -0.988244082
H      -2.110565461     -1.737532106     -1.134042317
H       0.289305674      0.108644620     -1.014823614
H       0.717925917     -1.682221720     -0.834275911
           6
  t=        37.50000    1    1
C      -1.509107174     -0.863323475     -0.665931229
C      -0.222896859     -0.853219726     -0.984806950
H      -2.165874507      0.077796356     -1.033025252
H      -2.109127453     -1.797264217     -1.170744396
H       0.370634967      0.044654936     -1.055348909
H       0.719001021     -1.694761785     -0.894593915
           6
  t=        38.00000    1    1
C      -1.514889724     -0.875089740     -0.677230753
C      -0.253345115     -0.856474027     -0.987669207
H      -2.149730250      0.043180094     -1.072954917
H      -2.104309254     -1.853045202     -1.199955294
H       0.450367946     -0.017556481     -1.095872406
H       0.709686345     -1.703506442     -0.956516542
           6
  t=        38.50000    1    1
C      -1.522056206     -0.887129889     -0.689741897
C      -0.281799397     -0.860024517     -0.990361295
H      -2.129775910      0.004931391     -1.107659961
H      -2.095678983     -1.903633867     -1.221581560
H       0.526172187     -0.077805710     -1.136197203
H       0.689409208     -1.708980357     -1.019037511
           6
  t=        39.00000    1    1
C      -1.530754946     -0.899513389     -0.703370537
C      -0.307798412     -0.863908802     -0.993079267
H      -2.107595067     -0.035648235     -1.137088050
H      -2.083109314     -1.948314902     -1.235948265
H       0.595746261     -0.136156443     -1.175969930
H       0.658198048     -1.711860836     -1.081022934
           6
  t=        39.50000    1    1
C      -1.541080512     -0.912329297     -0.717978006
C      -0.330944225     -0.868141725     -0.996018182
H      -2.084865846     -0.076864919     -1.161599111
H      -2.066770093     -1.986804514     -1.243543657
H       0.656966902     -0.192359844     -1.214709650
H       0.616409308     -1.713136312     -1.141433604
           6
  t=        40.00000    1    1
C      -1.553033127     -0.925718707     -0.733409270
C      -0.350967844     -0.872708631     -0.999342096
H      -2.063233425     -0.116771120     -1.182239708
H      -2.047112166     -2.018959005     -1.244604744
H       0.708240159     -0.245980088     -1.251570554
H       0.564530381     -1.713827271     -1.199724280
           6
  t=        40.50000    1    1
C      -1.566548887     -0.939860800     -0.749514084
C      -0.367656226     -0.877598192     -1.003189353
H      -2.044480395     -0.153124244     -1.200320183
H      -2.024874972     -2.044738802     -1.239276428
H       0.748347291     -0.296497861     -1.285642419
H       0.503002031     -1.714735083     -1.255491724
           6
  t=        41.00000    1    1
C      -1.581483105     -0.954943428     -0.766147843
C      -0.380891234     -0.882809920     -1.007691007
H      -2.030568759     -0.183477548     -1.217136101
H      -2.001031587     -2.064250194     -1.227795562
H       0.776502243     -0.343333034     -1.316083276
H       0.432413656     -1.716547775     -1.308206963
           6
  t=        41.50000    1    1
C      -1.597616391     -0.971135375     -0.783174909
C      -0.390691955     -0.888337497     -1.012954335
H      -2.023430629     -0.205570650     -1.233900441
H      -1.976504533     -2.077527894     -1.210517666
H       0.792264075     -0.386015204     -1.342156685
H       0.353674103     -1.720025518     -1.357375874
           6
  t=        42.00000    1    1
C      -1.614709919     -0.988535792     -0.800481179
C      -0.397201694     -0.894164284     -1.019056131
H      -2.024640260     -0.217786505     -1.251494654
H      -1.951963241     -2.084554006     -1.187928518
H       0.795476897     -0.424246686     -1.363233487
H       0.268044751     -1.726117773     -1.402704966
           6
  t=        42.50000    1    1
C      -1.632532002     -1.007091416     -0.817998353
C      -0.400706819     -0.900261045     -1.026036750
H      -2.034861314     -0.219791634     -1.270007532
H      -1.927974204     -2.085604939     -1.160774645
H       0.786283005     -0.457823770     -1.378876109
H       0.177265002     -1.736068313     -1.444129470
           6
  t=        43.00000    1    1
C      -1.650877431     -1.026559927     -0.835712258
C      -0.401577228     -0.906588854     -1.033896564
H      -2.053760547     -0.212778087     -1.288657946
H      -1.905396771     -2.081592432     -1.130034557
H       0.765009790     -0.486604651     -1.388820918
H       0.083495968     -1.751266439     -1.481880065
           6
  t=        43.50000    1    1
C      -1.669567746     -1.046506198     -0.853638439
C      -0.400197608     -0.913130544     -1.042602099
H      -2.080414784     -0.199187475     -1.306073086
H      -1.885310918     -2.074320669     -1.096956010
H       0.732157499     -0.510475863     -1.393016035
H      -0.011148491     -1.772969174     -1.516347346
           6
  t=        44.00000    1    1
C      -1.688423357     -1.066322617     -0.871781015
C      -0.396969768     -0.919927704     -1.052097530
H      -2.113657345     -0.182227125     -1.320778682
H      -1.869219698     -2.066790347     -1.062972820
H       0.688652251     -0.529328522     -1.391671552
H      -0.104610191     -1.801821952     -1.547977793
           6
  t=        44.50000    1    1
C      -1.707240697     -1.085322383     -0.890126005
C      -0.392344741     -0.927109788     -1.062323217
H      -2.152388168     -0.165103611     -1.331592513
H      -1.859402109     -2.062979535     -1.029156318
H       0.636186752     -0.542855541     -1.385241265
H      -0.194454201     -1.837588342     -1.577305704
           6
  t=        45.00000    1    1
C      -1.725795908     -1.102864857     -0.908672764
C      -0.386872043     -0.934918262     -1.073227057
H      -2.195634149     -0.150453461     -1.337695391
H      -1.857510211     -2.066863503     -0.996027929
H       0.577602363     -0.550367442     -1.374524150
H      -0.278962492     -1.879102479     -1.604458431
           6
  t=        45.50000    1    1
C      -1.743873479     -1.118459565     -0.927458966
C      -0.381241239     -0.943690254     -1.084738612
H      -2.242434928     -0.140246516     -1.338562408
H      -1.864116913     -2.081397804     -0.963538765
H       0.517154575     -0.550660104     -1.360853140
H      -0.357129318     -1.924470289     -1.629067230
           6
  t=        46.00000    1    1
C      -1.761294941     -1.131859180     -0.946553126
C      -0.376301432     -0.953838172     -1.096735178
H      -2.291746331     -0.135962478     -1.333919227
H      -1.879139403     -2.107492974     -0.931144175
H       0.460898959     -0.541671859     -1.346249621
H      -0.428146199     -1.971396163     -1.650575392
           6
  t=        46.50000    1    1
C      -1.777937742     -1.143097281     -0.966010159
C      -0.372961981     -0.965828968     -1.109053185
H      -2.342539068     -0.138608820     -1.323784361
H      -1.902058446     -2.143523115     -0.898208904
H       0.415779955     -0.520527564     -1.333150141
H      -0.491130758     -2.017409494     -1.668457827
           6
  t=        47.00000    1    1
C      -1.793736690     -1.152415668     -0.985835851
C      -0.371949344     -0.980095385     -1.121556485
H      -2.393879266     -0.148757819     -1.308412758
H      -1.932057833     -2.185944814     -0.864418360
H       0.386865840     -0.484511024     -1.323518554
H      -0.545021921     -2.060159988     -1.682363667
           6
  t=        47.50000    1    1
C      -1.808679588     -1.160169165     -1.005972262
C      -0.373522804     -0.996831116     -1.134212805
H      -2.444899966     -0.166635634     -1.288255743
H      -1.968069193     -2.230323738     -0.829962199
H       0.374266642     -0.433017094     -1.317811092
H      -0.588920854     -2.097925001     -1.692270652
           6
  t=        48.00000    1    1
C      -1.822802092     -1.166736465     -1.026302202
C      -0.377453406     -1.015860984     -1.147094563
H      -2.494791425     -0.192197559     -1.263898603
H      -2.008850082     -2.272334050     -0.795529306
H       0.372997969     -0.369011456     -1.315062430
H      -0.622198626     -2.129684366     -1.698403413
           6
  t=        48.50000    1    1
C      -1.836179649     -1.172449536     -1.046676033
C      -0.383301405     -1.036743977     -1.160303150
H      -2.542842149     -0.225166807     -1.235958248
H      -2.053134559     -2.308523220     -0.762100569
H       0.376297595     -0.297936491     -1.313920908
H      -0.644411303     -2.155024365     -1.701090717
           6
  t=        49.00000    1    1
C      -1.848910776     -1.177573595     -1.066941254
C      -0.390674376     -1.058980774     -1.173907790
H      -2.588484147     -0.265038405     -1.205028359
H      -2.099711733     -2.336495748     -0.730716629
H       0.378551819     -0.225534053     -1.313419822
H      -0.655226208     -2.173893109     -1.700657241
           6
  t=        49.50000    1    1
C      -1.861106210     -1.182318215     -1.086957822
C      -0.399307892     -1.082141397     -1.187932162
H      -2.631345252     -0.310984335     -1.171688976
H      -2.147368137     -2.354861295     -0.702380280
H       0.376142134     -0.156562462     -1.313136870
H      -0.654441759     -2.186376918     -1.697329017
           6
  t=        50.00000    1    1
C      -1.872878491     -1.186847337     -1.106602719
C      -0.409053092     -1.105888237     -1.202365368
H      -2.671275039     -0.361833596     -1.136476743
H      -2.194947885     -2.363112623     -0.678009709
H       0.367144591     -0.094543500     -1.313062891
H      -0.641873101     -2.192701635     -1.691256072
           6
  t=        50.50000    1    1
C      -1.884339846     -1.191327251     -1.125760614
C      -0.419807049     -1.129884061     -1.217168159
H      -2.708255342     -0.416122749     -1.099938957
H      -2.241378342     -2.361270414     -0.658449624
H       0.350618129     -0.042258669     -1.313354753
H      -0.617559184     -2.193565378     -1.682731447
           6
  t=        51.00000    1    1
C      -1.895612305     -1.195923951     -1.144324120
C      -0.431487148     -1.153765414     -1.232279905
H      -2.742315915     -0.472184204     -1.062625350
H      -2.285647682     -2.349745296     -0.644414893
H       0.326197741     -0.002008972     -1.314199094
H      -0.581647405     -2.190277033     -1.672305950
           6
  t=        51.50000    1    1
C      -1.906792158     -1.200822787     -1.162194834
C      -0.444029343     -1.177120362     -1.247605028
H      -2.773412550     -0.528309629     -1.025158871
H      -2.326809374     -2.329228901     -0.636561234
H       0.293982127      0.024470732     -1.315815870
H      -0.534843003     -2.184818296     -1.660792376
           6
  t=        52.00000    1    1
C      -1.917916807     -1.206221298     -1.179268640
C      -0.457420553     -1.199520187     -1.263034327
H      -2.801422085     -0.582910715     -0.988283865
H      -2.364033700     -2.300502810     -0.635524968
H       0.254429237      0.036121744     -1.318383961
H      -0.478266975     -2.179691888     -1.649172988
           6
  t=        52.50000    1    1
C      -1.928987341     -1.212283014     -1.195450683
C      -0.471697088     -1.220558153     -1.278471395
H      -2.826197274     -0.634277250     -0.952775908
H      -2.396719271     -2.264883934     -0.641719286
H       0.208179884      0.032572895     -1.321987692
H      -0.412863179     -2.177817870     -1.638453718
           6
  t=        53.00000    1    1
C      -1.940003722     -1.219119870     -1.210680827
C      -0.486918205     -1.239880632     -1.293846835
H      -2.847309027     -0.681064284     -0.919207422
H      -2.424610681     -2.223895825     -0.655386546
H       0.155874949      0.013894144     -1.326650567
H      -0.339251319     -2.181967565     -1.629339748
           6
  t=        53.50000    1    1
C      -1.950949324     -1.226800569     -1.224936312
C      -0.503135186     -1.257291135     -1.309137660
H      -2.864141584     -0.722349311     -0.887995914
H      -2.447659894     -2.179239724     -0.676666011
H       0.098168955     -0.019508734     -1.332432415
H      -0.258336791     -2.193290666     -1.621759565
           6
  t=        54.00000    1    1
C      -1.961796587     -1.235336860     -1.238220524
C      -0.520351740     -1.272832817     -1.324375741
H      -2.876338900     -0.756953078     -0.859565671
H      -2.465950887     -2.133421215     -0.705366809
H       0.035865150     -0.066867492     -1.339456011
H      -0.171479100     -2.210574848     -1.614936909
           6
  t=        54.50000    1    1
C      -1.972517346     -1.244676410     -1.250566485
C      -0.538475218     -1.286755842     -1.339630608
H      -2.883919685     -0.783687228     -0.834216932
H      -2.479895273     -2.089472224     -0.740948698
H      -0.029989297     -0.126956484     -1.347864916
H      -0.080734671     -2.230844933     -1.607746240
           6
  t=        55.00000    1    1
C      -1.983072894     -1.254703876     -1.262048130
C      -0.557321934     -1.299417019     -1.354974896
H      -2.887080958     -0.801415846     -0.812115864
H      -2.490363913     -2.051027494     -0.782455994
H      -0.098057541     -0.197903650     -1.357764524
H       0.010977560     -2.250596886     -1.599125168
           6
  t=        55.50000    1    1
C      -1.993398922     -1.265219513     -1.272779799
C      -0.576687287     -1.311220886     -1.370451900
H      -2.885883155     -0.809267874     -0.793343766
H      -2.499044347     -2.022363824     -0.828474607
H      -0.166624868     -0.276723362     -1.369248716
H       0.100486615     -2.266970377     -1.588434310
           6
  t=        56.00000    1    1
C      -2.003392165     -1.275962576     -1.282886484
C      -0.596415673     -1.322633894     -1.386060190
H      -2.880110901     -0.806633986     -0.777856789
H      -2.508544124     -2.008164744     -0.877543539
H      -0.233503099     -0.358764955     -1.382557687
H       0.184911900     -2.278090714     -1.575465955
           6
  t=        56.50000    1    1
C      -2.012909497     -1.286673109     -1.292443230
C      -0.616481992     -1.334297676     -1.401730702
H      -2.869168303     -0.793218165     -0.765455269
H      -2.522097727     -2.012794730     -0.928967484
H      -0.295708710     -0.436415370     -1.398382947
H       0.261903947     -2.282954588     -1.560352324
           6
  t=        57.00000    1    1
C      -2.021810133     -1.297115807     -1.301552836
C      -0.637035679     -1.347139177     -1.417338436
H      -2.852358954     -0.770092084     -0.756844288
H      -2.542172066     -2.038609457     -0.981297361
H      -0.349073384     -0.498775065     -1.416741365
H       0.329167999     -2.280792811     -1.544085096
           6
  t=        57.50000    1    1
C      -2.030241460     -1.307291258     -1.310296287
C      -0.658190630     -1.362197218     -1.432808319
H      -2.829197356     -0.739576376     -0.753174417
H      -2.568665665     -2.083741684     -1.033182107
H      -0.388632000     -0.533809406     -1.436569130
H       0.384265337     -2.270801373     -1.527858095
           6
  t=        58.00000    1    1
C      -2.038546298     -1.317461111     -1.318644822
C      -0.679842448     -1.379988527     -1.448119847
H      -2.799395682     -0.703830272     -0.754907353
H      -2.599648736     -2.143303100     -1.084948471
H      -0.411885660     -0.535373458     -1.457035483
H       0.425320429     -2.252579403     -1.512300697
           6
  t=        58.50000    1    1
C      -2.047045276     -1.327999137     -1.326522608
C      -0.701659520     -1.400166313     -1.463291442
H      -2.763167461     -0.664405663     -0.761793946
H      -2.632772604     -2.211473867     -1.137702647
H      -0.420342368     -0.506873520     -1.477802865
H       0.451575248     -2.226667064     -1.497577472
           6
  t=        59.00000    1    1
C      -2.055981661     -1.339286469     -1.333866834
C      -0.723175803     -1.421745302     -1.478358605
H      -2.721122372     -0.622409810     -0.773257086
H      -2.665944296     -2.282778363     -1.192420403
H      -0.418039190     -0.458769299     -1.498866965
H       0.462929013     -2.194171759     -1.483619515
           6
  t=        59.50000    1    1
C      -2.065515647     -1.351582408     -1.340694368
C      -0.743927869     -1.443667397     -1.493330421
H      -2.674157255     -0.578988418     -0.789074249
H      -2.697326886     -2.352593738     -1.249029656
H      -0.409712973     -0.402775545     -1.519908169
H       0.459565264     -2.156374083     -1.470731791
           6
  t=        60.00000    1    1
C      -2.075744193     -1.365022673     -1.347034161
C      -0.763540469     -1.465171409     -1.508213865
H      -2.623234733     -0.535345615     -0.809314218
H      -2.725765558     -2.417509452     -1.306989591
H      -0.399090121     -0.347281897     -1.540573129
H       0.441702214     -2.114543680     -1.459311597
           6
  t=        60.50000    1    1
C      -2.086723592     -1.379637099     -1.352925278
C      -0.781763266     -1.485810305     -1.523010983
H      -2.569331995     -0.492929690     -0.834198774
H      -2.750486224     -2.474952373     -1.365496294
H      -0.388594640     -0.297158346     -1.560561234
H       0.409654789     -2.069906618     -1.449751806
           6
  t=        61.00000    1    1
C      -2.098457933     -1.395379958     -1.358424731
C      -0.798462743     -1.505331499     -1.537719170
H      -2.513533296     -0.453212932     -0.863838084
H      -2.771021307     -2.523094562     -1.423667186
H      -0.379768952     -0.255026181     -1.579689764
H       0.364039883     -2.023751884     -1.442359282
           6
  t=        61.50000    1    1
C      -2.110892471     -1.412159173     -1.363609804
C      -0.813615470     -1.523585196     -1.552324499
H      -2.456989526     -0.417494308     -0.898115107
H      -2.787249086     -2.560814997     -1.480682869
H      -0.373586435     -0.222268123     -1.597934222
H       0.305928501     -1.977400850     -1.437339990
           6
  t=        62.00000    1    1
C      -2.123926336     -1.429855158     -1.368573554
C      -0.827328584     -1.540471267     -1.566808715
H      -2.401026046     -0.386883452     -0.936724499
H      -2.799253700     -2.587440110     -1.535787667
H      -0.370574246     -0.199613324     -1.615360788
H       0.237331999     -1.932306373     -1.434797445
           6
  t=        62.50000    1    1
C      -2.137444798     -1.448328898     -1.373416969
C      -0.839884688     -1.555897402     -1.581172018
H      -2.347180458     -0.362461938     -0.979234875
H      -2.807160541     -2.602486363     -1.588247257
H      -0.370867871     -0.187295195     -1.632105901
H       0.162049175     -1.890393391     -1.434555224
           6
  t=        63.00000    1    1
C      -2.151330994     -1.467427460     -1.378242638
C      -0.851787632     -1.569754587     -1.595451662
H      -2.296924024     -0.345344143     -1.025220733
H      -2.811119062     -2.605717411     -1.637348096
H      -0.374331362     -0.184994312     -1.648312937
H       0.086176023     -1.854224571     -1.435942659
           6
  t=        63.50000    1    1
C      -2.165467061     -1.486986119     -1.383153754
C      -0.863787580     -1.581905789     -1.609737288
H      -2.251532107     -0.336547098     -1.074260740
H      -2.811410871     -2.597329348     -1.682461538
H      -0.380675611     -0.191922961     -1.664123061
H       0.018514673     -1.826970147     -1.437570809
           6
  t=        64.00000    1    1
C      -2.179748757     -1.506832883     -1.388257478
C      -0.876747392     -1.592198841     -1.624169761
H      -2.212360476     -0.337001081     -1.125855306
H      -2.808430017     -2.577771756     -1.723019705
H      -0.389536100     -0.207236747     -1.679731197
H      -0.030510125     -1.811957234     -1.437356830
           6
  t=        64.50000    1    1
C      -2.194076769     -1.526793027     -1.393661761
C      -0.891323900     -1.600545774     -1.638886286
H      -2.180812969     -0.347303470     -1.179407547
H      -2.802699662     -2.547835500     -1.758578258
H      -0.400611999     -0.230225783     -1.695350468
H      -0.052628966     -1.811637655     -1.433207613
           6
  t=        65.00000    1    1
C      -2.208336968     -1.546698801     -1.399467461
C      -0.907577114     -1.606981681     -1.653909704
H      -2.157995919     -0.367496808     -1.234357941
H      -2.795031480     -2.508855820     -1.788888761
H      -0.413925590     -0.260596734     -1.711052099
H      -0.046546452     -1.826507645     -1.424385947
           6
  t=        65.50000    1    1
C      -2.222400063     -1.566375917     -1.405746756
C      -0.924908249     -1.611666405     -1.669103262
H      -2.144640166     -0.396983819     -1.290178305
H      -2.786751368     -2.462965401     -1.814082035
H      -0.429841548     -0.298503472     -1.726792791
H      -0.018516677     -1.855050057     -1.412101959
           6
  t=        66.00000    1    1
C      -2.236131994     -1.585620369     -1.412519741
C      -0.942368906     -1.614828208     -1.684241945
H      -2.141420613     -0.434593285     -1.346288637
H      -2.779859044     -2.413244697     -1.834834349
H      -0.448791575     -0.344309282     -1.742542247
H       0.021668458     -1.894703357     -1.398731406
           6
  t=        66.50000    1    1
C      -2.249390936     -1.604201680     -1.419729531
C      -0.959033024     -1.616725972     -1.699112527
H      -2.148931976     -0.478546291     -1.402076200
H      -2.777071976     -2.363752841     -1.852577312
H      -0.471036631     -0.398082298     -1.758355630
H       0.064857518     -1.942780706     -1.386618833
           6
  t=        67.00000    1    1
C      -2.262010036     -1.621876501     -1.427238136
C      -0.974182431     -1.617632079     -1.713553577
H      -2.167615408     -0.526498098     -1.456997882
H      -2.781658160     -2.319338232     -1.869530964
H      -0.496514292     -0.459379844     -1.774314179
H       0.104151552     -1.996875170     -1.377573841
           6
  t=        67.50000    1    1
C      -2.273795674     -1.638434890     -1.434858765
C      -0.987375394     -1.617802948     -1.727465709
H      -2.197864813     -0.575752923     -1.510694137
H      -2.796977224     -2.284817207     -1.888331499
H      -0.524889471     -0.527300218     -1.790463224
H       0.135398330     -2.055214113     -1.372684500
           6
  t=        68.00000    1    1
C      -2.284572893     -1.653808800     -1.442427950
C      -0.998426761     -1.617549765     -1.740786624
H      -2.239910113     -0.623375615     -1.563045682
H      -2.825672824     -2.263562151     -1.911220551
H      -0.555414891     -0.599897477     -1.806851863
H       0.156433234     -2.116409051     -1.372469486
           6
  t=        68.50000    1    1
C      -2.294297345     -1.668164014     -1.449904156
C      -1.007371908     -1.617335072     -1.753460745
H      -2.293611595     -0.666213012     -1.614129765
H      -2.868518530     -2.256437602     -1.938916956
H      -0.586516578     -0.673277355     -1.823633803
H       0.166209233     -2.179155982     -1.377136170
           6
  t=        69.00000    1    1
C      -2.303114981     -1.681869091     -1.457398694
C      -1.014459243     -1.617827646     -1.765425043
H      -2.358399022     -0.701344782     -1.664216386
H      -2.923806810     -2.261818684     -1.970158178
H      -0.615337371     -0.741019552     -1.841168477
H       0.164290441     -2.242059839     -1.386742358
           6
  t=        69.50000    1    1
C      -2.311314982     -1.695312138     -1.465130672
C      -1.020133897     -1.619907710     -1.776600828
H      -2.433417196     -0.727087115     -1.713631927
H      -2.987864083     -2.276637319     -2.002315825
H      -0.637740830     -0.794168888     -1.860115721
H       0.150761466     -2.303714714     -1.401257029
           6
  t=        70.00000    1    1
C      -2.319251804     -1.708737061     -1.473359675
C      -1.024931921     -1.624487006     -1.786897786
H      -2.517415237     -0.743669146     -1.762468929
H      -3.056280509     -2.297767940     -2.032428548
H      -0.649149465     -0.823089007     -1.881412297
H       0.125995107     -2.362883020     -1.420595270
           6
  t=        70.50000    1    1
C      -2.327302613     -1.722181015     -1.482358519
C      -1.029219429     -1.632064236     -1.796248919
H      -2.608461509     -0.753308701     -1.810252319
H      -3.124938721     -2.322784443     -2.057865545
H      -0.647127751     -0.822559661     -1.905827008
H       0.090363504     -2.418608209     -1.444641673
           6
  t=        71.00000    1    1
C      -2.335844724     -1.735534147     -1.492388480
C      -1.033020729     -1.642432115     -1.804673175
H      -2.703344412     -0.759279050     -1.855835347
H      -3.190341119     -2.350051624     -2.076676456
H      -0.633781142     -0.795631662     -1.933320868
H       0.044048525     -2.469980336     -1.473193282
           6
  t=        71.50000    1    1
C      -2.345201620     -1.748658705     -1.503640096
C      -1.036157582     -1.654860452     -1.812287611
H      -2.798861739     -0.764597985     -1.897904189
H      -3.249637414     -2.378517080     -2.087745633
H      -0.613646675     -0.751569036     -1.962940054
H      -0.012734614     -2.516112092     -1.505968196
           6
  t=        72.00000    1    1
C      -2.355629592     -1.761429880     -1.516237476
C      -1.038427538     -1.668577856     -1.819238235
H      -2.892436948     -0.771442375     -1.935250452
H      -3.300935097     -2.407759777     -2.090637055
H      -0.590938682     -0.699985765     -1.993451430
H      -0.079599078     -2.556312490     -1.542625342
           6
  t=        72.50000    1    1
C      -2.367323218     -1.773739679     -1.530274740
C      -1.039747348     -1.682992931     -1.825669634
H      -2.981586183     -0.781453162     -1.966809013
H      -3.342981018     -2.437671355     -2.085208140
H      -0.568731948     -0.648181614     -2.023675084
H      -0.155880529     -2.590082867     -1.582707979
           6
  t=        73.00000    1    1
C      -2.380388470     -1.785522285     -1.545800384
C      -1.040214277     -1.697693322     -1.831718956
H      -3.064208529     -0.795701209     -1.991900429
H      -3.374860514     -2.468087174     -2.071531131
H      -0.548874406     -0.601162019     -2.052590463
H      -0.240324898     -2.617209326     -1.625631772
           6
  t=        73.50000    1    1
C      -2.394865111     -1.796752951     -1.562819857
C      -1.040049298     -1.712388616     -1.837508863
H      -3.138807842     -0.814646553     -2.010227706
H      -3.395818601     -2.498717641     -2.049840071
H      -0.532419401     -0.562262101     -2.079402151
H      -0.331023139     -2.637941627     -1.670728582
           6
  t=        74.00000    1    1
C      -2.410759088     -1.807429782     -1.581304939
C      -1.039564780     -1.726827729     -1.843149583
H      -3.204279005     -0.838420639     -2.021812715
H      -3.405228028     -2.529189623     -2.020442180
H      -0.519925293     -0.533586775     -2.103496825
H      -0.425356297     -2.653430968     -1.717305445
           6
  t=        74.50000    1    1
C      -2.428056276     -1.817556636     -1.601198708
C      -1.039138243     -1.740727017     -1.848742506
H      -3.259736401     -0.867102224     -2.026965095
H      -3.402658117     -2.559068794     -1.983647508
H      -0.511619116     -0.516447453     -2.124322364
H      -0.520083537     -2.666055330     -1.764764938
           6
  t=        75.00000    1    1
C      -2.446673452     -1.827131145     -1.622410650
C      -1.039194451     -1.753730990     -1.854379721
H      -3.304582240     -0.900785602     -2.026188093
H      -3.388126141     -2.587899217     -1.939922304
H      -0.507603029     -0.511838743     -2.141344633
H      -0.611613546     -2.679445909     -1.812652912
           6
  t=        75.50000    1    1
C      -2.466409417     -1.836130719     -1.644825018
C      -1.040138860     -1.765442632     -1.860132276
H      -3.338656871     -0.939507983     -2.019918984
H      -3.362291120     -2.615376524     -1.890117763
H      -0.508107608     -0.520908670     -2.154113621
H      -0.696782495     -2.697721672     -1.860663543
           6
  t=        76.00000    1    1
C      -2.486940014     -1.844510494     -1.668319586
C      -1.042298500     -1.775542141     -1.866036677
H      -3.362310362     -0.983053927     -2.008381285
H      -3.326493904     -2.641617913     -1.835466729
H      -0.513430426     -0.544750308     -2.162387499
H      -0.773567662     -2.724233076     -1.908603703
           6
  t=        76.50000    1    1
C      -2.507897667     -1.852216018     -1.692774683
C      -1.045875109     -1.783930810     -1.872084147
H      -3.376172893     -1.030690535     -1.991641258
H      -3.282549471     -2.667496991     -1.777370104
H      -0.523687954     -0.583774641     -2.166335034
H      -0.841383493     -2.760253394     -1.956368024
           6
  t=        77.00000    1    1
C      -2.528948344     -1.859205119     -1.718039213
C      -1.050933048     -1.790835048     -1.878247062
H      -3.381258482     -1.081091894     -1.970059682
H      -3.232592723     -2.694561729     -1.717093010
H      -0.538537365     -0.637135823     -2.166532673
H      -0.900637219     -2.804211105     -2.003883704
           6
  t=        77.50000    1    1
C      -2.549776628     -1.865466602     -1.743939035
C      -1.057494942     -1.796728292     -1.884521724
H      -3.379243893     -1.132395001     -1.944377608
H      -3.178728512     -2.724595144     -1.655554684
H      -0.557228933     -0.703065504     -2.163752474
H      -0.951785748     -2.852446636     -2.050837480
           6
  t=        78.00000    1    1
C      -2.570052684     -1.871077274     -1.770292330
C      -1.065616429     -1.802185664     -1.890928070
H      -3.372642604     -1.182196903     -1.915664201
H      -3.122541463     -2.758965654     -1.593288294
H      -0.578703339     -0.779114767     -2.158871986
H      -0.995057529     -2.900675259     -2.096678402
           6
  t=        78.50000    1    1
C      -2.589421392     -1.876290528     -1.796926412
C      -1.075400858     -1.807789160     -1.897488104
H      -3.365029195     -1.227433824     -1.885039604
H      -3.064810901     -2.797831506     -1.530640686
H      -0.601489653     -0.861972753     -2.152911008
H      -1.030569638     -2.945159122     -2.140715154
           6
  t=        79.00000    1    1
C      -2.607504005     -1.881570982     -1.823671041
C      -1.087005707     -1.814140555     -1.904193189
H      -3.361016408     -1.264398740     -1.853313745
H      -3.005668214     -2.839787740     -1.468238677
H      -0.623304540     -0.946853787     -2.147271801
H      -1.058497830     -2.983089111     -2.182240178
           6
  t=        79.50000    1    1
C      -2.623930953     -1.887506225     -1.850346422
C      -1.100664387     -1.821938340     -1.910961074
H      -3.365490033     -1.289367773     -1.820689936
H      -2.945194759     -2.882283749     -1.407391850
H      -0.640443423     -1.026580779     -2.144188163
H      -1.079201980     -3.012592289     -2.220629243
           6
  t=        80.00000    1    1
C      -2.638402784     -1.894627168     -1.876710385
C      -1.116749898     -1.831971516     -1.917635908
H      -3.381989213     -1.299841275     -1.787212561
H      -2.884071055     -2.922488808     -1.349952000
H      -0.647399335     -1.091754983     -2.146758583
H      -1.093092981     -3.032670119     -2.255630342
           6
  t=        80.50000    1    1
C      -2.650880632     -1.903193584     -1.902504793
C      -1.135651506     -1.844850305     -1.924088924
H      -3.410614285     -1.296096648     -1.752892764
H      -2.823563358     -2.958021868     -1.297763226
H      -0.638452053     -1.134426960     -2.157790996
H      -1.100349264     -3.043009122     -2.287190547
           6
  t=        81.00000    1    1
C      -2.661661606     -1.913165572     -1.927471991
C      -1.157406251     -1.860590011     -1.930377626
H      -3.447819115     -1.281324319     -1.718058338
H      -2.765293887     -2.987092211     -1.252370086
H      -0.611475066     -1.153313001     -2.177918531
H      -1.101039591     -3.043786409     -2.315189304
           6
  t=        81.50000    1    1
C      -2.671208866     -1.924307646     -1.951325412
C      -1.181552490     -1.878589301     -1.936799395
H      -3.488230960     -1.260124979     -1.683956503
H      -2.710872667     -3.008768058     -1.214791694
H      -0.569851632     -1.154152259     -2.204915845
H      -1.095525393     -3.035565147     -2.339456769
           6
  t=        82.00000    1    1
C      -2.679884139     -1.936323284     -1.973809124
C      -1.207381203     -1.897988009     -1.943748088
H      -3.527106346     -1.236756281     -1.652387539
H      -2.661273116     -3.022884471     -1.185441283
H      -0.520610570     -1.145769400     -2.234966698
H      -1.084686097     -3.019210658     -2.359952193
           6
  t=        82.50000    1    1
C      -2.687927529     -1.948980783     -1.994756522
C      -1.234228450     -1.918053269     -1.951514896
H      -3.561325579     -1.214141280     -1.624776578
H      -2.617129317     -3.029751178     -1.164446817
H      -0.470333004     -1.135221968     -2.264951382
H      -1.069476506     -2.995926145     -2.376757659
           6
  t=        83.00000    1    1
C      -2.695519295     -1.962120249     -2.014081226
C      -1.261574590     -1.938250462     -1.960265129
H      -3.589004628     -1.194178202     -1.602015265
H      -2.579011262     -3.029912146     -1.151726685
H      -0.423541280     -1.126654633     -2.292893737
H      -1.050732276     -2.967400320     -2.390098796
           6
  t=        83.50000    1    1
C      -2.702812094     -1.975619036     -2.031777750
C      -1.289040473     -1.958184860     -1.970055590
H      -3.609117862     -1.178152988     -1.584496170
H      -2.547323519     -3.023998581     -1.146946605
H      -0.382923078     -1.122116502     -2.317676595
H      -1.029085591     -2.935831790     -2.400423018
           6
  t=        84.00000    1    1
C      -2.709942480     -1.989385116     -2.047865352
C      -1.316355742     -1.977543340     -1.980879221
H      -3.621144454     -1.166934117     -1.572408687
H      -2.522330101     -3.012594516     -1.149735604
H      -0.349991217     -1.122430965     -2.338685366
H      -1.004874814     -2.903772291     -2.408381094
           6
  t=        84.50000    1    1
C      -2.717044280     -2.003344077     -2.062383048
C      -1.343308919     -1.996060065     -1.992676273
H      -3.624864522     -1.161111236     -1.565824113
H      -2.504100149     -2.996180323     -1.159768100
H      -0.325757517     -1.127834671     -2.355591932
H      -0.978164125     -2.873969457     -2.414802479
           6
  t=        85.00000    1    1
C      -2.724264358     -2.017424104     -2.075401118
C      -1.369729264     -2.013533783     -2.005348824
H      -3.620256916     -1.161059233     -1.564706594
H      -2.492390714     -2.975200847     -1.176711196
H      -0.310904715     -1.138220383     -2.368263969
H      -0.948819389     -2.848964578     -2.420517651
           6
  t=        85.50000    1    1
C      -2.731754915     -2.031561115     -2.086986468
C      -1.395455769     -2.029831917     -2.018813095
H      -3.607425309     -1.167029691     -1.569066907
H      -2.486891640     -2.950179090     -1.200198041
H      -0.305801896     -1.153224261     -2.376657659
H      -0.916782941     -2.830690223     -2.426127530
           6
  t=        86.00000    1    1
C      -2.739663835     -2.045684190     -2.097209401
C      -1.420302783     -2.044903961     -2.033031916
H      -3.586643395     -1.179167927     -1.578931413
H      -2.487325144     -2.921948522     -1.229663201
H      -0.310577581     -1.172301542     -2.380804903
H      -0.882380359     -2.820159246     -2.431744494
           6
  t=        86.50000    1    1
C      -2.748124951     -2.059707572     -2.106147952
C      -1.444024144     -2.058774856     -2.048032897
H      -3.558402537     -1.197466298     -1.594315488
H      -2.493581855     -2.891818600     -1.264175258
H      -0.325313953     -1.194847515     -2.380781019
H      -0.846485963     -2.817399210     -2.436950434
           6
  t=        87.00000    1    1
C      -2.757251392     -2.073524222     -2.113902129
C      -1.466306131     -2.071524526     -2.063897958
H      -3.523423545     -1.221677644     -1.615191407
H      -2.505749794     -2.861715924     -1.302269840
H      -0.350177237     -1.220241929     -2.376699255
H      -0.810514878     -2.821674013     -2.440956402
           6
  t=        87.50000    1    1
C      -2.767127309     -2.087008351     -2.120612331
C      -1.486791838     -2.083264067     -2.080733301
H      -3.482680636     -1.251207390     -1.641435440
H      -2.524056088     -2.834254105     -1.341867418
H      -0.385385461     -1.247857368     -2.368753674
H      -0.776297794     -2.831767111     -2.442833192
           6
  t=        88.00000    1    1
C      -2.777799411     -2.100033920     -2.126464809
C      -1.505110668     -2.094107541     -2.098643021
H      -3.437584850     -1.284852684     -1.672754514
H      -2.548724967     -2.812735193     -1.380385137
H      -0.431155813     -1.277094514     -2.357234483
H      -0.745841583     -2.846321334     -2.441706826
           6
  t=        88.50000    1    1
C      -2.789243090     -2.112521126     -2.131713310
C      -1.520929956     -2.104160123     -2.117706195
H      -3.390527725     -1.320103114     -1.708415983
H      -2.579696399     -2.801145049     -1.414873320
H      -0.487564275     -1.307383377     -2.342524265
H      -0.720995926     -2.864128925     -2.436911238
           6
  t=        89.00000    1    1
C      -2.801338577     -2.124502834     -2.136671043
C      -1.534012936     -2.113517492     -2.137956773
H      -3.344648172     -1.353272041     -1.746931030
H      -2.616909559     -2.803167231     -1.442595429
H      -0.554359701     -1.338101522     -2.325132526
H      -0.703182221     -2.884283686     -2.428025654
           6
  t=        89.50000    1    1
C      -2.813847134     -2.136198440     -2.141651749
C      -1.544273857     -2.122272686     -2.159372742
H      -3.303370332     -1.379709303     -1.786077211
H      -2.660681398     -2.821256394     -1.461785771
H      -0.630652995     -1.368390314     -2.305764203
H      -0.693414974     -2.906116904     -2.414857118
           6
  t=        90.00000    1    1
C      -2.826400650     -2.148031082     -2.146892145
C      -1.551856733     -2.130552680     -2.181857493
H      -3.269909827     -1.394019946     -1.823365244
H      -2.711657741     -2.856192285     -1.472220784
H      -0.714624244     -1.396870223     -2.285386400
H      -0.692322939     -2.929068337     -2.397481906
           6
  t=        90.50000    1    1
C      -2.838604605     -2.160541233     -2.152480353
C      -1.557124009     -2.138589341     -2.205246709
H      -3.246567946     -1.391239609     -1.856728516
H      -2.770585960     -2.906533099     -1.475369564
H      -0.803474339     -1.421226551     -2.265067212
H      -0.700038750     -2.952655929     -2.376337331
           6
  t=        91.00000    1    1
C      -2.850229542     -2.174210319     -2.158273116
C      -1.560628503     -2.146810765     -2.229331332
H      -3.234151139     -1.368854975     -1.885399278
H      -2.837924438     -2.968561627     -1.474356094
H      -0.892503208     -1.437341492     -2.245882503
H      -0.716144570     -2.976390400     -2.352189399
           6
  t=        91.50000    1    1
C      -2.861282990     -2.189229766     -2.163945354
C      -1.563083371     -2.155860686     -2.253892508
H      -3.231645037     -1.328585876     -1.910290176
H      -2.913136232     -3.037304186     -1.473076096
H      -0.975357257     -1.439055942     -2.228560879
H      -0.739957872     -2.999733257     -2.325982471
           6
  t=        92.00000    1    1
C      -2.871937192     -2.205443873     -2.169156542
C      -1.565133709     -2.166397471     -2.278772086
H      -3.236546803     -1.276321327     -1.933080008
H      -2.995044172     -3.107816418     -1.474913213
H      -1.046643439     -1.420003366     -2.213137775
H      -0.770812574     -3.022116736     -2.298560702
           6
  t=        92.50000    1    1
C      -2.882420856     -2.222509030     -2.173667107
C      -1.567116812     -2.178738025     -2.303876806
H      -3.246072340     -1.219076474     -1.955356982
H      -3.082117145     -3.176511302     -1.482023446
H      -1.104881632     -1.377612700     -2.199148040
H      -0.807759665     -3.043002000     -2.270610988
           6
  t=        93.00000    1    1
C      -2.892932834     -2.240094673     -2.177338073
C      -1.569060671     -2.192670306     -2.329089538
H      -3.258080104     -1.163207965     -1.978101472
H      -3.172446911     -3.240193978     -1.495988538
H      -1.152704632     -1.315548078     -2.186481924
H      -0.849513181     -3.062028650     -2.242732628
           6
  t=        93.50000    1    1
C      -2.903573181     -2.257931421     -2.180125458
C      -1.570909068     -2.207568668     -2.354241488
H      -3.271315198     -1.113578473     -2.001811538
H      -3.264184486     -3.296349010     -1.517655808
H      -1.194308028     -1.242191490     -2.175773087
H      -0.894459034     -3.079132302     -2.215481955
           6
  t=        94.00000    1    1
C      -2.914374456     -2.275810734     -2.182038420
C      -1.572703401     -2.222719478     -2.379154737
H      -3.285279525     -1.073748399     -2.026743729
H      -3.355615331     -3.343078189     -1.547381837
H      -1.232753021     -1.166432533     -2.168006683
H      -0.940867456     -3.094749473     -2.189271600
           6
  t=        94.50000    1    1
C      -2.925335029     -2.293568810     -2.183127161
C      -1.574601048     -2.237552182     -2.403684890
H      -3.299971833     -1.046238648     -2.052938125
H      -3.445224739     -3.379052079     -1.585183101
H      -1.269393566     -1.094994709     -2.164066339
H      -0.987044554     -3.109715545     -2.164283730
           6
  t=        95.00000    1    1
C      -2.936449581     -2.311065454     -2.183485862
C      -1.576815091     -2.251673497     -2.427726214
H      -3.315575610     -1.032750667     -2.080294154
H      -3.531549045     -3.403426354     -1.630754511
H      -1.304554924     -1.032518134     -2.164498506
H      -1.031469657     -3.124890027     -2.140515225
           6
  t=        95.50000    1    1
C      -2.947711088     -2.328180691     -2.183274145
C      -1.579564106     -2.264844321     -2.451189834
H      -3.332307858     -1.034035817     -2.108607582
H      -3.613135593     -3.415940641     -1.683322798
H      -1.338157040     -0.982243237     -2.169465133
H      -1.072937664     -3.140820161     -2.117938619
           6
  t=        96.00000    1    1
C      -2.959122149     -2.344820154     -2.182685573
C      -1.583042816     -2.276955194     -2.473989839
H      -3.350330334     -1.050161442     -2.137596553
H      -3.688656164     -3.416713677     -1.741895914
H      -1.369927178     -0.946389815     -2.178914587
H      -1.110536557     -3.157528789     -2.096596741
           6
  t=        96.50000    1    1
C      -2.970733159     -2.360898985     -2.181916546
C      -1.587375235     -2.287980879     -2.496051791
H      -3.369779425     -1.081036403     -2.166886761
H      -3.756961145     -3.405989519     -1.805438013
H      -1.399497329     -0.926568524     -2.192704450
H      -1.143569357     -3.174564200     -2.076588854
           6
  t=        97.00000    1    1
C      -2.982582992     -2.376360298     -2.181147697
C      -1.592655121     -2.297988210     -2.517303918
H      -3.390676973     -1.126086369     -2.196087074
H      -3.817184034     -3.384331025     -1.872990191
H      -1.426560840     -0.923378557     -2.210657419
H      -1.171606991     -3.191220148     -2.058145168
           6
  t=        97.50000    1    1
C      -2.994689880     -2.391166978     -2.180545781
C      -1.598950512     -2.307102028     -2.537660894
H      -3.413039443     -1.184297337     -2.224836503
H      -3.868703694     -3.352633239     -1.943639169
H      -1.450862740     -0.936725767     -2.232617488
H      -1.194481129     -3.206664404     -2.041725685
           6
  t=        98.00000    1    1
C      -3.007059546     -2.405299689     -2.180276642
C      -1.606298444     -2.315467178     -2.557017138
H      -3.436933452     -1.254216856     -2.252780553
H      -3.911123162     -3.312156026     -2.016427409
H      -1.472155925     -0.966204236     -2.258493392
H      -1.212259724     -3.219999964     -2.028015621
           6
  t=        98.50000    1    1
C      -3.019690432     -2.418764946     -2.180498305
C      -1.614701809     -2.323216376     -2.575251292
H      -3.462474633     -1.333852428     -2.279693512
H      -3.944256110     -3.264567134     -2.090297812
H      -1.490191877     -1.011383934     -2.288213745
H      -1.225246093     -3.230322548     -2.017932248
           6
  t=        99.00000    1    1
C      -3.032601093     -2.431590603     -2.181357495
C      -1.624104156     -2.330457180     -2.592237023
H      -3.489977966     -1.420669042     -2.305595032
H      -3.968070678     -3.211920750     -2.163984576
H      -1.504677795     -1.071867576     -2.321632164
H      -1.233901461     -3.236896777     -2.012625127
           6
  t=        99.50000    1    1
C      -3.045774751     -2.443823035     -2.183006624
C      -1.634419747     -2.337323265     -2.607851671
H      -3.520266703     -1.511740135     -2.330852493
H      -3.982704796     -3.156343571     -2.235883345
H      -1.515378815     -1.146565459     -2.358297083
H      -1.238721079     -3.239466790     -2.013428290
           6
  t=       100.00000    1    1
C      -3.059023835     -2.455627120     -2.185606849
C      -1.645668702     -2.344072627     -2.622011677
H      -3.554225126     -1.601978931     -2.356128275
H      -3.988880013     -3.100893698     -2.304278327
H      -1.522223305     -1.232139770     -2.397378111
H      -1.240166031     -3.238360227     -2.021300884
           6
  t=       100.50000    1    1
C      -3.071979775     -2.467389236     -2.189245022
C      -1.658022085     -2.351067871     -2.634690737
H      -3.592976757     -1.684067509     -2.382079364
H      -3.987977983     -3.049026141     -2.368269236
H      -1.524710959     -1.323281350     -2.438225803
H      -1.238584858     -3.233824565     -2.036414206
           6
  t=       101.00000    1    1
C      -3.084261528     -2.479525617     -2.193912641
C      -1.671695930     -2.358805797     -2.645915564
H      -3.637981744     -1.750505345     -2.409685016
H      -3.981986613     -3.004442032     -2.427506038
H      -1.521450756     -1.412442221     -2.480131888
H      -1.233886715     -3.226327700     -2.058630311
           6
  t=       101.50000    1    1
C      -3.095650897     -2.492266956     -2.199473213
C      -1.686853995     -2.367999573     -2.655874658
H      -3.689702542     -1.796247938     -2.439682759
H      -3.973444307     -2.970747558     -2.482459623
H      -1.510415895     -1.488561670     -2.522115251
H      -1.225746238     -3.217121959     -2.087102178
           6
  t=       102.00000    1    1
C      -3.106159014     -2.505471697     -2.205829875
C      -1.703679176     -2.379537609     -2.664819309
H      -3.746301071     -1.820755752     -2.471975790
H      -3.964673073     -2.950909405     -2.533712537
H      -1.489155410     -1.538645119     -2.562863491
H      -1.213818477     -3.207875501     -2.120816385
           6
  t=       102.50000    1    1
C      -3.115965565     -2.518780043     -2.213002755
C      -1.722333258     -2.393937513     -2.672883634
H      -3.804266779     -1.826327080     -2.505271565
H      -3.957526431     -2.947187036     -2.581853016
H      -1.455534667     -1.555030209     -2.602115362
H      -1.197826225     -3.199812480     -2.158900519
           6
  t=       103.00000    1    1
C      -3.125292299     -2.531828593     -2.221047651
C      -1.742772206     -2.410878799     -2.680051588
H      -3.860082248     -1.816455106     -2.537804845
H      -3.953145326     -2.960604516     -2.627593216
H      -1.409719541     -1.540652061     -2.641076696
H      -1.177862540     -3.193629511     -2.200728194
           6
  t=       103.50000    1    1
C      -3.134329989     -2.544332962     -2.230040913
C      -1.764674000     -2.429417780     -2.686266604
H      -3.911180069     -1.794805202     -2.567829765
H      -3.951583285     -2.990931798     -2.671513909
H      -1.355238370     -1.506153532     -2.681191276
H      -1.154476841     -3.189881738     -2.245784962
           6
  t=       104.00000    1    1
C      -3.143389064     -2.556114740     -2.240111371
C      -1.787496375     -2.448483223     -2.691558396
H      -3.955391087     -1.765257821     -2.593813589
H      -3.951408088     -3.036589038     -2.713254156
H      -1.297517508     -1.463638764     -2.722944904
H      -1.128606623     -3.189054733     -2.293589539
           6
  t=       104.50000    1    1
C      -3.152808635     -2.567121230     -2.251393142
C      -1.810718875     -2.467294696     -2.696027480
H      -3.991213614     -1.731372611     -2.614756822
H      -3.950603915     -3.095067400     -2.751766768
H      -1.241162276     -1.421779536     -2.765941005
H      -1.101324933     -3.191353202     -2.343789380
           6
  t=       105.00000    1    1
C      -3.162871585     -2.577384110     -2.263996515
C      -1.833915427     -2.485424742     -2.699794656
H      -4.017911172     -1.695978686     -2.630152769
H      -3.947207450     -3.163551502     -2.785773824
H      -1.189343610     -1.385431783     -2.809389012
H      -1.073866837     -3.196623429     -2.396206081
           6
  t=       105.50000    1    1
C      -3.173757331     -2.586965459     -2.277979648
C      -1.856757968     -2.502681708     -2.702981341
H      -4.035233528     -1.661441885     -2.639830233
H      -3.939721052     -3.239181773     -2.814272397
H      -1.144162168     -1.357108262     -2.852443300
H      -1.047650767     -3.204390387     -2.450719647
           6
  t=       106.00000    1    1
C      -3.185585668     -2.595946883     -2.293349682
C      -1.878987506     -2.519031871     -2.705697772
H      -4.043148103     -1.629794905     -2.643871374
H      -3.927152226     -3.319180418     -2.836564991
H      -1.106746759     -1.337669504     -2.894412834
H      -1.024231596     -3.213968055     -2.507237796
           6
  t=       106.50000    1    1
C      -3.198404702     -2.604427492     -2.310069653
C      -1.900395714     -2.534532376     -2.708052711
H      -4.041877590     -1.602734955     -2.642600862
H      -3.909066515     -3.400867276     -2.852228769
H      -1.077620718     -1.327025022     -2.934737978
H      -1.005206912     -3.224568015     -2.565562817
           6
  t=       107.00000    1    1
C      -3.212212879     -2.612513408     -2.328084006
C      -1.920790128     -2.549267345     -2.710162818
H      -4.031885830     -1.581695309     -2.636468875
H      -3.885533398     -3.481717359     -2.860969464
H      -1.057047865     -1.324792579     -2.972892461
H      -0.992091425     -3.235397309     -2.625336948
           6
  t=       107.50000    1    1
C      -3.226978720     -2.620299950     -2.347318572
C      -1.940000897     -2.563312123     -2.712151707
H      -4.013777276     -1.567821900     -2.625944231
H      -3.856932397     -3.559561301     -2.862711549
H      -1.045208856     -1.330694703     -3.008384636
H      -0.986119500     -3.245723265     -2.686069410
           6
  t=       108.00000    1    1
C      -3.242644326     -2.627870305     -2.367685438
C      -1.957888600     -2.576719192     -2.714148216
H      -3.988213700     -1.562202659     -2.611498384
H      -3.823842416     -3.632396319     -2.857564947
H      -1.042292948     -1.344630133     -3.040761761
H      -0.988212380     -3.254945438     -2.747143896
           6
  t=       108.50000    1    1
C      -3.259127831     -2.635299577     -2.389089510
C      -1.974350570     -2.589519608     -2.716280270
H      -3.955947794     -1.565830690     -2.593590580
H      -3.786970602     -3.698394769     -2.845776488
H      -1.048454727     -1.366533373     -3.069632198
H      -0.998954504     -3.262698871     -2.807854749
           6
  t=       109.00000    1    1
C      -3.276323669     -2.642667188     -2.411426784
C      -1.989317495     -2.601722088     -2.718673521
H      -3.917905693     -1.579300931     -2.572690809
H      -3.747076961     -3.756070437     -2.827704876
H      -1.063831759     -1.396295371     -3.094639487
H      -1.018605907     -3.268933647     -2.867471807
           6
  t=       109.50000    1    1
C      -3.294089008     -2.650081587     -2.434575275
C      -2.002753264     -2.613311522     -2.721453188
H      -3.875335381     -1.602537648     -2.549354483
H      -3.704991913     -3.804289303     -2.803814900
H      -1.088543447     -1.433691344     -3.115424299
H      -1.047101068     -3.273972130     -2.925295661
           6
  t=       110.00000    1    1
C      -3.312232142     -2.657708930     -2.458390991
C      -2.014655635     -2.624249231     -2.724740197
H      -3.829915739     -1.634537209     -2.524229851
H      -3.661697650     -3.842246089     -2.774704826
H      -1.122654467     -1.478289461     -3.131648448
H      -1.084025219     -3.278536076     -2.980692809
           6
  t=       110.50000    1    1
C      -3.330515953     -2.665791454     -2.482726122
C      -2.025047141     -2.634463960     -2.728647547
H      -3.783679995     -1.673262530     -2.497977916
H      -3.618328148     -3.869409918     -2.741004930
H      -1.166244821     -1.529539256     -3.142905397
H      -1.128688094     -3.283706552     -3.033193335
           6
  t=       111.00000    1    1
C      -3.348656446     -2.674683296     -2.507444236
C      -2.033946215     -2.643847834     -2.733287110
H      -3.739221888     -1.715125611     -2.471152254
H      -3.576198600     -3.885612722     -2.703272309
H      -1.219428416     -1.587050618     -3.148553260
H      -1.180231199     -3.290695347     -3.082621084
           6
  t=       111.50000    1    1
C      -3.366322044     -2.684865211     -2.532434074
C      -2.041344521     -2.652276646     -2.738785313
H      -3.699967835     -1.754545148     -2.443900992
H      -3.536950085     -3.891252610     -2.661969344
H      -1.282162353     -1.650711464     -3.147681848
H      -1.237680235     -3.300549230     -3.129094998
           6
  t=       112.00000    1    1
C      -3.383126325     -2.696788933     -2.557638568
C      -2.047388214     -2.659720124     -2.745230094
H      -3.669298133     -1.785300936     -2.415636414
H      -3.502314338     -3.887478466     -2.617557160
H      -1.353522674     -1.719726593     -3.139664781
H      -1.299710065     -3.314112725     -3.173000222
           6
  t=       112.50000    1    1
C      -3.398769869     -2.710722764     -2.583058301
C      -2.052401398     -2.666253212     -2.752644211
H      -3.648994290     -1.803025197     -2.385129429
H      -3.473762225     -3.875718196     -2.570433519
H      -1.431602657     -1.792075141     -3.124520305
H      -1.364680910     -3.332256569     -3.214871709
           6
  t=       113.00000    1    1
C      -3.413115621     -2.726596087     -2.608724942
C      -2.056876476     -2.672090662     -2.760961104
H      -3.638839631     -1.807047278     -2.351088396
H      -3.452381573     -3.857783105     -2.520696909
H      -1.513114009     -1.864260629     -3.103141581
H      -1.430775726     -3.355619106     -3.255425182
           6
  t=       113.50000    1    1
C      -3.426183359     -2.743893069     -2.634601963
C      -2.061447722     -2.677804750     -2.769949854
H      -3.637742901     -1.800802592     -2.312664026
H      -3.438824365     -3.835965264     -2.468771550
H      -1.592696507     -1.928981977     -3.078818924
H      -1.496000494     -3.385101387     -3.294982245
           6
  t=       114.00000    1    1
C      -3.438055957     -2.761915041     -2.660481229
C      -2.066902208     -2.684527391     -2.779282210
H      -3.645240038     -1.789404822     -2.270230210
H      -3.433893241     -3.812801029     -2.415104915
H      -1.661401181     -1.972850019     -3.057233975
H      -1.558599640     -3.421280105     -3.333431265
           6
  t=       114.50000    1    1
C      -3.448763418     -2.780006552     -2.686033828
C      -2.073972453     -2.693629117     -2.788740957
H      -3.661199040     -1.777605558     -2.225421848
H      -3.438356841     -3.790548239     -2.359911587
H      -1.710559322     -1.980848889     -3.043591580
H      -1.617519268     -3.463641048     -3.370225413
           6
  t=       115.00000    1    1
C      -3.458373221     -2.797570663     -2.710917617
C      -2.082898073     -2.705749705     -2.798431619
H      -3.684600361     -1.769487368     -2.180611442
H      -3.451961632     -3.771068202     -2.303480209
H      -1.738573354     -1.948302945     -3.038924438
H      -1.671970793     -3.510405527     -3.404490281
           6
  t=       115.50000    1    1
C      -3.466989117     -2.814131005     -2.734725417
C      -2.093454507     -2.720560151     -2.808781286
H      -3.714192107     -1.768472100     -2.138584222
H      -3.474292705     -3.755560961     -2.246567934
H      -1.749541204     -1.882122482     -3.040499682
H      -1.720962607     -3.559637930     -3.435179115
           6
  t=       116.00000    1    1
C      -3.474861701     -2.829466846     -2.757148381
C      -2.105066343     -2.736881726     -2.820231437
H      -3.747615288     -1.776834188     -2.101448558
H      -3.504583637     -3.744459300     -2.190716408
H      -1.750744436     -1.797782230     -3.044478437
H      -1.764208977     -3.609831802     -3.460900388
           6
  t=       116.50000    1    1
C      -3.482146517     -2.843837978     -2.778046631
C      -2.117260686     -2.753695461     -2.832960181
H      -3.783297904     -1.794129397     -2.071053014
H      -3.541474681     -3.736304894     -2.136946183
H      -1.746930187     -1.708746760     -3.047576144
H      -1.803675982     -3.658471271     -3.481613987
           6
  t=       117.00000    1    1
C      -3.488970994     -2.857390938     -2.797283107
C      -2.129781388     -2.770429753     -2.847003653
H      -3.820286563     -1.819742894     -2.048522547
H      -3.583426184     -3.729670768     -2.086658884
H      -1.741425670     -1.624013293     -3.048487021
H      -1.840063217     -3.703665859     -3.497301703
           6
  t=       117.50000    1    1
C      -3.495501381     -2.870227427     -2.814701854
C      -2.142468479     -2.786801154     -2.862315838
H      -3.857912871     -1.852858833     -2.034701515
H      -3.629080809     -3.723645750     -2.041417360
H      -1.736082218     -1.548537709     -3.047013086
H      -1.873470244     -3.744352327     -3.508160898
           6
  t=       118.00000    1    1
C      -3.501922535     -2.882435029     -2.830165534
C      -2.155220549     -2.802700736     -2.878821689
H      -3.895623091     -1.892578552     -2.030164574
H      -3.677291845     -3.717755361     -2.002636663
H      -1.731703752     -1.484767884     -3.043511613
H      -1.903799286     -3.779710282     -3.514375338
           6
  t=       118.50000    1    1
C      -3.508409782     -2.894113280     -2.843614098
C      -2.167980048     -2.818087488     -2.896410861
H      -3.932799607     -1.937950087     -2.034926434
H      -3.727168983     -3.711755421     -1.971450410
H      -1.728568278     -1.433713376     -3.038670342
H      -1.930876873     -3.809228956     -3.516139291
           6
  t=       119.00000    1    1
C      -3.515118539     -2.905346181     -2.854993595
C      -2.180733117     -2.832969283     -2.914978598
H      -3.968831986     -1.988072428     -2.048996068
H      -3.777933615     -3.705552826     -1.948810381
H      -1.726678339     -1.395473073     -3.033112899
H      -1.954402745     -3.832708831     -3.513759490
           6
  t=       119.50000    1    1
C      -3.522192156     -2.916201541     -2.864253531
C      -2.193487294     -2.847373890     -2.934427018
H      -4.003092804     -2.041925607     -2.072477636
H      -3.828850778     -3.699307027     -1.935458406
H      -1.725980955     -1.369667506     -3.027306530
H      -1.973994342     -3.850250996     -3.507690690
           6
  t=       120.00000    1    1
C      -3.529758979     -2.926740564     -2.871357683
C      -2.206248350     -2.861313573     -2.954666278
H      -4.035045715     -2.098308741     -2.105432464
H      -3.879251037     -3.693347117     -1.931920448
H      -1.726521970     -1.355974681     -3.021592481
H      -1.989213492     -3.862173816     -3.498506516
           6
  t=       120.50000    1    1
C      -3.537923549     -2.937040353     -2.876318460
C      -2.219012448     -2.874769482     -2.975608623
H      -4.064462662     -2.155620845     -2.147533368
H      -3.928510311     -3.688147638     -1.938486816
H      -1.728425229     -1.354244109     -3.016251551
H      -1.999588558     -3.869060121     -3.486860858
           6
  t=       121.00000    1    1
C      -3.546756117     -2.947213192     -2.879223072
C      -2.231766564     -2.887679435     -2.997162999
H      -4.091581276     -2.211670185     -2.197836706
H      -3.976023754     -3.684369949     -1.955210051
H      -1.731852499     -1.364534354     -3.011550772
H      -2.004643062     -3.871784709     -3.473423568
           6
  t=       121.50000    1    1
C      -3.556284037     -2.957406628     -2.880227465
C      -2.244494325     -2.899928545     -3.019231926
H      -4.117107619     -2.263858747     -2.254856545
H      -4.021208758     -3.682733389     -1.981951676
H      -1.737013368     -1.387186461     -3.007768970
H      -2.003913127     -3.871496049     -3.458843584
           6
  t=       122.00000    1    1
C      -3.566474762     -2.967801542     -2.879557614
C      -2.257184792     -2.911353014     -3.041700779
H      -4.142253907     -2.309358586     -2.316642473
H      -4.063501666     -3.683863466     -2.018371479
H      -1.744189484     -1.422751713     -3.005212472
H      -1.996986700     -3.869641754     -3.443778398
           6
  t=       122.50000    1    1
C      -3.577200108     -2.978621945     -2.877523480
C      -2.269847442     -2.921769264     -3.064431494
H      -4.168883846     -2.344998660     -2.380750756
H      -4.102416809     -3.688324851     -2.063879696
H      -1.753693570     -1.471666953     -3.004241157
H      -1.983587523     -3.867909532     -3.428853341
           6
  t=       123.00000    1    1
C      -3.588233115     -2.990111331     -2.874476347
C      -2.282515717     -2.931024605     -3.087275583
H      -4.199407830     -2.367425223     -2.444693536
H      -4.137621329     -3.696705866     -2.117640818
H      -1.765842606     -1.534059888     -3.005274509
H      -1.963626952     -3.867855121     -3.414555854
           6
  t=       123.50000    1    1
C      -3.599341589     -3.002464545     -2.870687105
C      -2.295215747     -2.939006948     -3.110107104
H      -4.236035073     -2.373757865     -2.506931716
H      -4.168917767     -3.709726626     -2.178768000
H      -1.781033634     -1.610211366     -3.008807289
H      -1.937151588     -3.870371899     -3.401089968
           6
  t=       124.00000    1    1
C      -3.610415743     -3.015711405     -2.866311904
C      -2.307925305     -2.945684678     -3.132838304
H      -4.279248267     -2.363225195     -2.567412636
H      -4.196428211     -3.728113051     -2.246217095
H      -1.799681692     -1.700132105     -3.015345070
H      -1.904714662     -3.875515994     -3.388231915
           6
  t=       124.50000    1    1
C      -3.621500896     -3.029650890     -2.861428809
C      -2.320610047     -2.951176913     -3.155415148
H      -4.327137444     -2.337896975     -2.627110890
H      -4.220672196     -3.752537580     -2.318834782
H      -1.821922274     -1.802710515     -3.025333362
H      -1.867440315     -3.882632750     -3.375428582
           6
  t=       125.00000    1    1
C      -3.632769704     -3.043909089     -2.856123297
C      -2.333238322     -2.955790831     -3.177812146
H      -4.376342118     -2.301914979     -2.687077824
H      -4.242372205     -3.783494520     -2.395254519
H      -1.847252871     -1.915260021     -3.038903393
H      -1.826788905     -3.890567827     -3.362149139
           6
  t=       125.50000    1    1
C      -3.644410547     -3.058080772     -2.850520960
C      -2.345837559     -2.960029540     -3.200018786
H      -4.423418762     -2.259763454     -2.747676923
H      -4.262238201     -3.821338003     -2.474303971
H      -1.874232811     -2.033176922     -3.055871297
H      -1.784363157     -3.897920253     -3.348015072
           6
  t=       126.00000    1    1
C      -3.656560143     -3.071831639     -2.844782488
C      -2.358578990     -2.964706739     -3.222057130
H      -4.465475203     -2.215627412     -2.808446883
H      -4.280875884     -3.865867729     -2.555271474
H      -1.899580979     -2.148236734     -3.075472705
H      -1.742061223     -3.903217446     -3.332786074
           6
  t=       126.50000    1    1
C      -3.669307044     -3.084943785     -2.839095626
C      -2.371917253     -2.971038054     -3.244011458
H      -4.500370147     -2.173132278     -2.868481085
H      -4.298507785     -3.916081657     -2.637705656
H      -1.916727837     -2.247070729     -3.095751243
H      -1.701898924     -3.905316224     -3.316535178
           6
  t=       127.00000    1    1
C      -3.682734525     -3.097327540     -2.833647727
C      -2.386584972     -2.980428914     -3.266035683
H      -4.526734534     -2.135046932     -2.926740993
H      -4.314760917     -3.970210313     -2.721297680
H      -1.916030796     -2.313514135     -3.113589770
H      -1.665538920     -3.903703820     -3.299660456
           6
  t=       127.50000    1    1
C      -3.696952863     -3.109018630     -2.828609748
C      -2.403057489     -2.993597529     -3.288212341
H      -4.543878930     -2.103380680     -2.982126049
H      -4.328750169     -4.025761078     -2.805792850
H      -1.890772578     -2.339304554     -3.126930909
H      -1.634294979     -3.898142247     -3.282554024
           6
  t=       128.00000    1    1
C      -3.712072045     -3.120141395     -2.824148495
C      -2.421106988     -3.010162163     -3.310431619
H      -4.551618707     -2.079471389     -3.033705534
H      -4.339463464     -4.080045354     -2.890565916
H      -1.842478226     -2.328466116     -3.136234746
H      -1.609242790     -3.889025203     -3.265632652
           6
  t=       128.50000    1    1
C      -3.728158620     -3.130863205     -2.820434440
C      -2.439798449     -3.028939485     -3.332400779
H      -4.550322067     -2.064110349     -3.080730491
H      -4.346187145     -4.130530849     -2.974584903
H      -1.780955136     -2.294083864     -3.144316005
H      -1.591268817     -3.877114461     -3.249319408
           6
  t=       129.00000    1    1
C      -3.745263722     -3.141328476     -2.817655036
C      -2.458038818     -3.048782713     -3.353826467
H      -4.540633359     -2.057992833     -3.122558176
H      -4.348481830     -4.174897244     -3.056415047
H      -1.717465380     -2.248991519     -3.153936094
H      -1.581321206     -3.863145243     -3.234192290
           6
  t=       129.50000    1    1
C      -3.763392043     -3.151607735     -2.816053749
C      -2.475052296     -3.068955737     -3.374460233
H      -4.523216351     -2.061894178     -3.158700342
H      -4.346211490     -4.211502757     -3.134167727
H      -1.659661413     -2.201198092     -3.166450772
H      -1.580408024     -3.847905834     -3.221331790
           6
  t=       130.00000    1    1
C      -3.782381521     -3.161743818     -2.815843761
C      -2.490580598     -3.089026849     -3.394106521
H      -4.499066035     -2.075855245     -3.188988719
H      -4.339729449     -4.239776450     -3.206391371
H      -1.611125986     -2.154955763     -3.182335903
H      -1.588606904     -3.832307830     -3.211671868
           6
  t=       130.50000    1    1
C      -3.802049082     -3.171783581     -2.817203188
C      -2.504599663     -3.108735158     -3.412628432
H      -4.469083391     -2.099685563     -3.213180853
H      -4.329518879     -4.259389268     -3.272100090
H      -1.573387428     -2.112433753     -3.201853580
H      -1.605473533     -3.817251884     -3.205687623
           6
  t=       131.00000    1    1
C      -3.822224603     -3.181781069     -2.820230091
C      -2.517230441     -3.127920548     -3.429971820
H      -4.434175962     -2.132987087     -3.231208262
H      -4.316169014     -4.270251694     -3.330720409
H      -1.546472021     -2.074386841     -3.225008070
H      -1.630070791     -3.803734698     -3.203493499
           6
  t=       131.50000    1    1
C      -3.842771402     -3.191792191     -2.824955999
C      -2.528621240     -3.146477777     -3.446122947
H      -4.395341231     -2.175042637     -3.243311055
H      -4.300335064     -4.272652886     -3.381847829
H      -1.529654539     -2.040666790     -3.251580556
H      -1.661332667     -3.792920360     -3.205260693
           6
  t=       132.00000    1    1
C      -3.863526598     -3.201893520     -2.831406009
C      -2.538934108     -3.164296749     -3.461043999
H      -4.354073015     -2.224230711     -3.249845390
H      -4.282842108     -4.267427542     -3.425233481
H      -1.522204478     -2.011137643     -3.281479894
H      -1.697680697     -3.786131077     -3.211124612
           6
  t=       132.50000    1    1
C      -3.884237428     -3.212236703     -2.839618793
C      -2.548343685     -3.181206654     -3.474671186
H      -4.312663050     -2.277547102     -3.251379198
H      -4.264824862     -4.255789414     -3.460646336
H      -1.523919116     -1.986246066     -3.314746396
H      -1.736822028     -3.784938992     -3.221007307
           6
  t=       133.00000    1    1
C      -3.904514616     -3.223105540     -2.849611595
C      -2.557110321     -3.196971930     -3.486938930
H      -4.274150949     -2.330432818     -3.249090224
H      -4.247599520     -4.238863292     -3.487894116
H      -1.535011092     -1.966908313     -3.351436900
H      -1.775724481     -3.791287254     -3.234442422
           6
  t=       133.50000    1    1
C      -3.923914961     -3.234891808     -2.861283325
C      -2.565574991     -3.211355556     -3.497855390
H      -4.241740072     -2.377300956     -3.244935739
H      -4.232197714     -4.217364089     -3.507155076
H      -1.555705126     -1.954252961     -3.391516118
H      -1.811146422     -3.807075241     -3.250437057
           6
  t=       134.00000    1    1
C      -3.942044952     -3.247989564     -2.874420360
C      -2.574003839     -3.224176581     -3.507489939
H      -4.218558526     -2.412092800     -3.241171256
H      -4.219293918     -4.192103226     -3.519097845
H      -1.586274846     -1.949675160     -3.434831934
H      -1.840529292     -3.833615828     -3.267938031
           6
  t=       134.50000    1    1
C      -3.958611246     -3.262710818     -2.888789517
C      -2.582491411     -3.235350035     -3.515885978
H      -4.207292277     -2.429043799     -3.239723306
H      -4.209704103     -4.164581743     -3.524690244
H      -1.626731804     -1.954310622     -3.481170433
H      -1.862728430     -3.871331459     -3.286526274
           6
  t=       135.00000    1    1
C      -3.973423213     -3.279100352     -2.904227595
C      -2.591029039     -3.244904007     -3.523026515
H      -4.208982548     -2.425104764     -3.241486432
H      -4.204750471     -4.137240327     -3.525148789
H      -1.676652310     -1.968880824     -3.530119115
H      -1.878178852     -3.919240864     -3.306650343
           6
  t=       135.50000    1    1
C      -3.986393661     -3.296736390     -2.920661752
C      -2.599539410     -3.252942101     -3.528858558
H      -4.222538383     -2.402258564     -3.245822165
H      -4.206217954     -4.113430238     -3.522195697
H      -1.735654377     -1.994205267     -3.581019867
H      -1.888528753     -3.974981611     -3.329384020
           6
  t=       136.00000    1    1
C      -3.997528395     -3.314748316     -2.938015854
C      -2.607928874     -3.259623382     -3.533376439
H      -4.245199454     -2.367202385     -3.251074978
H      -4.215950305     -4.097323953     -3.518301444
H      -1.803344032     -2.031080323     -3.632901307
H      -1.896135426     -4.035366328     -3.355858443
           6
  t=       136.50000    1    1
C      -4.006874303     -3.332118517     -2.956159508
C      -2.616128717     -3.265150848     -3.536690685
H      -4.273974765     -2.328160731     -3.255315204
H      -4.235386343     -4.093138182     -3.516339808
H      -1.879109652     -2.079904491     -3.684651130
H      -1.903422743     -4.097261963     -3.386478534
           6
  t=       137.00000    1    1
C      -4.014443775     -3.348052525     -2.974965925
C      -2.624141662     -3.269773547     -3.539009093
H      -4.306860623     -2.291370478     -3.256925054
H      -4.265415236     -4.103955889     -3.518575054
H      -1.962000287     -2.140423025     -3.735202719
H      -1.912276095     -4.158102461     -3.420699172
           6
  t=       137.50000    1    1
C      -4.020241076     -3.362158492     -2.994404419
C      -2.632064080     -3.273814110     -3.540543230
H      -4.342748355     -2.260239377     -3.255004622
H      -4.305965543     -4.130414683     -3.525498067
H      -2.050707986     -2.211488333     -3.783636670
H      -1.923984382     -4.215814838     -3.457693445
           6
  t=       138.00000    1    1
C      -4.024351238     -3.374378692     -3.014585972
C      -2.640024854     -3.277639989     -3.541461305
H      -4.380671846     -2.236839508     -3.249254262
H      -4.355966698     -4.170564515     -3.535452659
H      -2.143630218     -2.291219457     -3.829178600
H      -1.939637898     -4.268467404     -3.496864847
           6
  t=       138.50000    1    1
C      -4.027010793     -3.384935096     -3.035660272
C      -2.648224532     -3.281730992     -3.541874018
H      -4.419604326     -2.222519964     -3.239880505
H      -4.413195088     -4.220160320     -3.545599966
H      -2.238079879     -2.375772042     -3.871876904
H      -1.959966020     -4.314438347     -3.537694597
           6
  t=       139.00000    1    1
C      -4.028552066     -3.394177640     -3.057744128
C      -2.656982074     -3.286797070     -3.541744381
H      -4.458586847     -2.218322071     -3.227348157
H      -4.474894884     -4.274025967     -3.553065995
H      -2.329786753     -2.457827848     -3.913677398
H      -1.985193241     -4.352551423     -3.579694938
           6
  t=       139.50000    1    1
C      -4.029339927     -3.402439960     -3.080871132
C      -2.666646161     -3.293791122     -3.540830948
H      -4.496737490     -2.225020828     -3.212252803
H      -4.538277628     -4.327453501     -3.555708401
H      -2.414001454     -2.526832572     -3.959094255
H      -2.015236883     -4.381963970     -3.622375210
           6
  t=       140.00000    1    1
C      -4.029722566     -3.409995442     -3.105008799
C      -2.677427392     -3.303618455     -3.538756709
H      -4.533274230     -2.242958642     -3.195209961
H      -4.600841281     -4.376902639     -3.552139601
H      -2.487521460     -2.572590350     -4.014299342
H      -2.049925187     -4.402024801     -3.665214989
           6
  t=       140.50000    1    1
C      -4.030026918     -3.417089896     -3.130067822
C      -2.689248742     -3.316577823     -3.535344147
H      -4.567540923     -2.271900290     -3.176798795
H      -4.660511389     -4.419965602     -3.541615449
H      -2.550347727     -2.591544948     -4.083280596
H      -2.089009946     -4.412444296     -3.707570728
           6
  t=       141.00000    1    1
C      -4.030558007     -3.423938493     -3.155908886
C      -2.701822326     -3.332149902     -3.530924121
H      -4.598913185     -2.311148984     -3.157588363
H      -4.715655481     -4.455229410     -3.524000514
H      -2.604934393     -2.589174583     -4.164012129
H      -2.132089648     -4.413478187     -3.748752296
           6
  t=       141.50000    1    1
C      -4.031611691     -3.430725944     -3.182359657
C      -2.714846055     -3.349453363     -3.526183752
H      -4.626951090     -2.359702361     -3.138142590
H      -4.764951341     -4.481919311     -3.499581862
H      -2.653646190     -2.574852983     -4.250086855
H      -2.178635955     -4.405830576     -3.788181766
           6
  t=       142.00000    1    1
C      -4.033457329     -3.437613376     -3.209227126
C      -2.728104098     -3.367703847     -3.521811506
H      -4.651517511     -2.416237584     -3.119001115
H      -4.807373713     -4.499749733     -3.468961800
H      -2.697719395     -2.556394818     -4.334878530
H      -2.227937155     -4.390721383     -3.825439726
           6
  t=       142.50000    1    1
C      -4.036334504     -3.444733338     -3.236319651
C      -2.741462662     -3.386368813     -3.518289322
H      -4.672624416     -2.479322200     -3.100600702
H      -4.842156628     -4.508730505     -3.432948520
H      -2.737627889     -2.538315769     -4.413955003
H      -2.279012808     -4.369823763     -3.860254284
           6
  t=       143.00000    1    1
C      -4.040442618     -3.452210733     -3.263445646
C      -2.754846544     -3.405053040     -3.515913992
H      -4.690438596     -2.547168159     -3.083265244
H      -4.868799465     -4.509219887     -3.392555909
H      -2.773572727     -2.522995907     -4.484714091
H      -2.330515758     -4.345408434     -3.892636247
           6
  t=       143.50000    1    1
C      -4.045925700     -3.460190723     -3.290428316
C      -2.768223908     -3.423434370     -3.514827058
H      -4.705457574     -2.617411510     -3.067165118
H      -4.886953412     -4.501835128     -3.348895193
H      -2.805681930     -2.511480210     -4.545865541
H      -2.380832440     -4.320286149     -3.923014332
           6
  t=       144.00000    1    1
C      -4.052852320     -3.468842543     -3.317125241
C      -2.781585490     -3.441216150     -3.515042549
H      -4.718709737     -2.687122652     -3.052222967
H      -4.896455024     -4.487420765     -3.303096197
H      -2.834107254     -2.504125672     -4.596907967
H      -2.428239487     -4.297703270     -3.952367313
           6
  t=       144.50000    1    1
C      -4.061228800     -3.478338372     -3.343417539
C      -2.794927361     -3.458113398     -3.516511792
H      -4.731728958     -2.753050591     -3.038050620
H      -4.897356390     -4.467112316     -3.256302473
H      -2.858918226     -2.500975964     -4.637696714
H      -2.471052862     -4.281075689     -3.982081008
           6
  t=       145.00000    1    1
C      -4.071020169     -3.488822793     -3.369204036
C      -2.808229579     -3.473880637     -3.519179498
H      -4.746343369     -2.812160505     -3.024035213
H      -4.889849213     -4.442201510     -3.209610358
H      -2.880060033     -2.501936050     -4.668176014
H      -2.507961906     -4.273443788     -4.013592058
           6
  t=       145.50000    1    1
C      -4.082185844     -3.500372835     -3.394387186
C      -2.821432745     -3.488376970     -3.523032317
H      -4.764179464     -2.862215996     -3.009563462
H      -4.874269923     -4.414080958     -3.164033011
H      -2.897350476     -2.506820302     -4.688376324
H      -2.538377214     -4.276597990     -4.047791547
           6
  t=       146.00000    1    1
C      -4.094705131     -3.512958742     -3.418858543
C      -2.834433301     -3.501618109     -3.528112132
H      -4.785950660     -2.901990018     -2.994347546
H      -4.851332732     -4.384544639     -3.120491527
H      -2.910616017     -2.515322509     -4.698612063
H      -2.562525275     -4.290444908     -4.084524900
           6
  t=       146.50000    1    1
C      -4.108605713     -3.526453052     -3.442471836
C      -2.847104128     -3.513731688     -3.534539634
H      -4.811213872     -2.931068052     -2.978705143
H      -4.822154399     -4.355854941     -3.079777513
H      -2.919730301     -2.527123664     -4.699270709
H      -2.581043595     -4.313453665     -4.122600191
           6
  t=       147.00000    1    1
C      -4.123949218     -3.540658196     -3.465046656
C      -2.859321725     -3.524892651     -3.542489992
H      -4.838627189     -2.949569189     -2.963588935
H      -4.788125391     -4.330588711     -3.042509875
H      -2.924678869     -2.542020755     -4.690646077
H      -2.594635350     -4.343400912     -4.160214430
           6
  t=       147.50000    1    1
C      -4.140781903     -3.555335299     -3.486405909
C      -2.870987868     -3.535269387     -3.552138540
H      -4.866479501     -2.958154261     -2.950413221
H      -4.750765007     -4.311176940     -3.009015168
H      -2.925634956     -2.560067796     -4.672837082
H      -2.603938307     -4.377980694     -4.195548830
           6
  t=       148.00000    1    1
C      -4.159076242     -3.570225645     -3.506421599
C      -2.882047096     -3.545001680     -3.563619320
H      -4.893202128     -2.957979111     -2.940743237
H      -4.711723549     -4.299694569     -2.979131030
H      -2.922904460     -2.581620494     -4.645809746
H      -2.609553842     -4.415023682     -4.227162456
           6
  t=       148.50000    1    1
C      -4.178712895     -3.585091262     -3.525032056
C      -2.892498862     -3.554197456     -3.577020026
H      -4.917661866     -2.950510383     -2.935977348
H      -4.672671789     -4.297738043     -2.952170490
H      -2.916715945     -2.607172595     -4.609584458
H      -2.612144310     -4.452522622     -4.254013422
           6
  t=       149.00000    1    1
C      -4.199518841     -3.599760979     -3.542201043
C      -2.902400855     -3.562941853     -3.592395551
H      -4.939132723     -2.937358113     -2.937233699
H      -4.634999891     -4.306187362     -2.927308220
H      -2.907057702     -2.637007103     -4.564461221
H      -2.612431535     -4.488729616     -4.275286602
           6
  t=       149.50000    1    1
C      -4.221333298     -3.614143278     -3.557878345
C      -2.911864529     -3.571310130     -3.609767943
H      -4.957094368     -2.920138909     -2.945359115
H      -4.599523861     -4.325083998     -2.904012222
H      -2.893634895     -2.671029165     -4.511069564
H      -2.611002455     -4.522275179     -4.290373284
           6
  t=       150.00000    1    1
C      -4.244025617     -3.628228456     -3.571977836
C      -2.921042931     -3.579392942     -3.629128175
H      -4.971190151     -2.900355966     -2.960985591
H      -4.566523688     -4.353657699     -2.882259190
H      -2.875866445     -2.708517747     -4.450396713
H      -2.608247891     -4.552182813     -4.298811377
           6
  t=       150.50000    1    1
C      -4.267489608     -3.642090363     -3.584362314
C      -2.930109775     -3.587336774     -3.650419806
H      -4.981198651     -2.879273057     -2.984595188
H      -4.535939049     -4.390433275     -2.862737645
H      -2.852943434     -2.747697754     -4.383998417
H      -2.604453944     -4.577813556     -4.300181895
           6
  t=       151.00000    1    1
C      -4.291614736     -3.655856031     -3.594923388
C      -2.939236572     -3.595393858     -3.673423963
H      -4.986997039     -2.858001519     -3.016306271
H      -4.507704325     -4.433287274     -2.846610271
H      -2.824094419     -2.785479193     -4.314531843
H      -2.599853923     -4.598750378     -4.294446238
           6
  t=       151.50000    1    1
C      -4.316307901     -3.669697573     -3.603475509
C      -2.948606979     -3.603910022     -3.697864594
H      -4.988251448     -2.837420771     -3.056430513
H      -4.482087675     -4.479993942     -2.835661400
H      -2.788159649     -2.817219097     -4.245344807
H      -2.594594261     -4.614810911     -4.281660858
           6
  t=       152.00000    1    1
C      -4.341391008     -3.683742087     -3.609834097
C      -2.958490778     -3.613357485     -3.723372648
H      -4.984468294     -2.818345451     -3.105075758
H      -4.460145248     -4.528948282     -2.831939617
H      -2.743507312     -2.836637587     -4.180881555
H      -2.588651637     -4.625924179     -4.261821969
           6
  t=       152.50000    1    1
C      -4.366512901     -3.697949298     -3.614189059
C      -2.969215681     -3.624246162     -3.749354317
H      -4.975609552     -2.801856713     -3.160647835
H      -4.442869862     -4.578914352     -2.836747753
H      -2.689394453     -2.838143856     -4.125880991
H      -2.582093623     -4.632239654     -4.235294742
           6
  t=       153.00000    1    1
C      -4.391310197     -3.712307357     -3.616865333
C      -2.981153395     -3.636918704     -3.775554905
H      -4.962938508     -2.788822134     -3.221607545
H      -4.430467777     -4.627873645     -2.849416497
H      -2.624220139     -2.818958937     -4.080503051
H      -2.574952394     -4.633745533     -4.203290776
           6
  t=       153.50000    1    1
C      -4.415490250     -3.726847506     -3.618153244
C      -2.994354541     -3.651034167     -3.802044020
H      -4.947759521     -2.779646454     -3.286476943
H      -4.423120659     -4.674007832     -2.869470989
H      -2.549270628     -2.783727314     -4.041285469
H      -2.567339548     -4.630901215     -4.166936305
           6
  t=       154.00000    1    1
C      -4.438810213     -3.741618591     -3.618344193
C      -3.008570872     -3.665812793     -3.828879313
H      -4.931251178     -2.774240821     -3.353723859
H      -4.420946306     -4.715896794     -2.896588085
H      -2.469131343     -2.741493876     -4.004776431
H      -2.559225022     -4.624880104     -4.127379273
           6
  t=       154.50000    1    1
C      -4.461011051     -3.756673238     -3.617703891
C      -3.023528920     -3.680517111     -3.855983548
H      -4.914592942     -2.772163537     -3.422008484
H      -4.424225064     -4.752494576     -2.930341268
H      -2.389075329     -2.700128230     -3.969320520
H      -2.550221066     -4.617460616     -4.085795606
           6
  t=       155.00000    1    1
C      -4.481835300     -3.772047072     -3.616480998
C      -3.039061774     -3.694632583     -3.883188587
H      -4.899017987     -2.772806522     -3.490239572
H      -4.433339498     -4.783237699     -2.970025621
H      -2.313190500     -2.664426960     -3.934708659
H      -2.539680757     -4.610724327     -4.043231077
           6
  t=       155.50000    1    1
C      -4.501053295     -3.787744876     -3.614920349
C      -3.055077455     -3.707837794     -3.910299059
H      -4.885657783     -2.775637572     -3.557528097
H      -4.448712790     -4.807973628     -3.014694107
H      -2.244398366     -2.637033004     -3.901420274
H      -2.526960516     -4.606485898     -4.000452932
           6
  t=       156.00000    1    1
C      -4.518482261     -3.803712548     -3.613269461
C      -3.071520453     -3.719997827     -3.937145313
H      -4.875414361     -2.780432088     -3.623144091
H      -4.470680314     -4.826952097     -3.063137577
H      -2.184694258     -2.619321758     -3.870062587
H      -2.511666971     -4.605597098     -3.957865211
           6
  t=       156.50000    1    1
C      -4.533982548     -3.819820105     -3.611758232
C      -3.088345224     -3.731163660     -3.963594341
H      -4.869009669     -2.787312376     -3.686587089
H      -4.499358831     -4.840901519     -3.114066567
H      -2.135270100     -2.611797019     -3.841119169
H      -2.493976169     -4.607644802     -3.915619790
           6
  t=       157.00000    1    1
C      -4.547448669     -3.835874455     -3.610585287
C      -3.105463902     -3.741507303     -3.989514717
H      -4.867128690     -2.796659168     -3.747571029
H      -4.534659004     -4.850926219     -3.166357254
H      -2.096949092     -2.614573977     -3.814983250
H      -2.474773202     -4.611279981     -3.873932587
           6
  t=       157.50000    1    1
C      -4.558854957     -3.851632644     -3.609918909
C      -3.122708322     -3.751252434     -4.014751366
H      -4.870314889     -2.809035853     -3.805959231
H      -4.576284954     -4.858577057     -3.219076542
H      -2.070321107     -2.627526058     -3.792060943
H      -2.455530275     -4.614744628     -3.833309913
           6
  t=       158.00000    1    1
C      -4.568228410     -3.866815964     -3.609915159
C      -3.139876167     -3.760617043     -4.039114225
H      -4.878889233     -2.825163444     -3.861616714
H      -4.623938635     -4.865801589     -3.271444051
H      -2.055810242     -2.650310125     -3.772836814
H      -2.437889389     -4.616436810     -3.794587671
           6
  t=       158.50000    1    1
C      -4.575641047     -3.881150494     -3.610714388
C      -3.156775941     -3.769790313     -4.062399526
H      -4.892957404     -2.845753291     -3.914356854
H      -4.677374679     -4.874682227     -3.322882739
H      -2.053485083     -2.682190819     -3.757816492
H      -2.423345303     -4.615307858     -3.758779593
           6
  t=       159.00000    1    1
C      -4.581174499     -3.894413803     -3.612432510
C      -3.173231217     -3.778912974     -4.084403297
H      -4.912498923     -2.871391631     -3.963934833
H      -4.736449097     -4.886923913     -3.373114862
H      -2.063372127     -2.722296420     -3.747522324
H      -2.413165535     -4.610911808     -3.726935145
           6
  t=       159.50000    1    1
C      -4.584930397     -3.906494095     -3.615144543
C      -3.189068874     -3.788081966     -4.104941302
H      -4.937392820     -2.902402394     -4.010093394
H      -4.800966911     -4.903263096     -3.422214328
H      -2.085555592     -2.769657443     -3.742468516
H      -2.408433680     -4.603334806     -3.700024881
           6
  t=       160.00000    1    1
C      -4.587057163     -3.917426841     -3.618886423
C      -3.204108421     -3.797362200     -4.123861296
H      -4.967439629     -2.938760534     -4.052598509
H      -4.870420289     -4.923091073     -3.470469040
H      -2.120197149     -2.823189266     -3.743129705
H      -2.410077476     -4.593099096     -3.678906194
           6
  t=       160.50000    1    1
C      -4.587783952     -3.927383956     -3.623679815
C      -3.218149124     -3.806800459     -4.141041048
H      -5.002358614     -2.980091231     -4.091231268
H      -4.943730520     -4.944556502     -3.518076282
H      -2.167527044     -2.881671530     -3.749924998
H      -2.418887484     -4.581045246     -3.664379908
           6
  t=       161.00000    1    1
C      -4.587456548     -3.936612547     -3.629574518
C      -3.230939504     -3.816448944     -4.156356907
H      -5.041730067     -3.025791765     -4.125654138
H      -5.019118666     -4.965124820     -3.564868027
H      -2.227799456     -2.943414453     -3.763333507
H      -2.435684456     -4.568433892     -3.657352484
           6
  t=       161.50000    1    1
C      -4.586529417     -3.945357699     -3.636682290
C      -3.242276564     -3.826370983     -4.169705358
H      -5.084918876     -3.075078965     -4.155253299
H      -5.094234386     -4.982446848     -3.610225487
H      -2.300771110     -3.006375828     -3.783802126
H      -2.460700693     -4.556764640     -3.658511397
           6
  t=       162.00000    1    1
C      -4.585433495     -3.953841509     -3.645091612
C      -3.252146280     -3.836588885     -4.181084813
H      -5.131038308     -3.126984615     -4.179466885
H      -5.166775603     -4.994930855     -3.653624050
H      -2.385505821     -3.068968495     -3.811650717
H      -2.493093407     -4.547272301     -3.667587880
           6
  t=       162.50000    1    1
C      -4.584567651     -3.962246124     -3.654863121
C      -3.260688133     -3.847140475     -4.190564229
H      -5.179065839     -3.180578311     -4.197915283
H      -5.234698890     -5.001635740     -3.694590098
H      -2.480080009     -3.129240176     -3.846861651
H      -2.531437322     -4.541159585     -3.683908589
           6
  t=       163.00000    1    1
C      -4.584331697     -3.970722050     -3.666028539
C      -3.268240341     -3.858222139     -4.198316341
H      -5.227840923     -3.234797788     -4.210324153
H      -5.296119392     -5.002149833     -3.732709373
H      -2.580484110     -3.183203172     -3.888568951
H      -2.573993283     -4.539754664     -3.706591852
           6
  t=       163.50000    1    1
C      -4.585041166     -3.979411412     -3.678593250
C      -3.275557162     -3.870260765     -4.204690038
H      -5.275950986     -3.288183894     -4.216599186
H      -5.349239855     -4.996592249     -3.767714132
H      -2.679655567     -3.223860334     -3.934526968
H      -2.618286394     -4.544614538     -3.734023989
           6
  t=       164.00000    1    1
C      -4.586889760     -3.988466094     -3.692571444
C      -3.283872285     -3.884008070     -4.210210675
H      -5.322079602     -3.339118637     -4.217002299
H      -5.392656412     -4.985395462     -3.799158256
H      -2.766645834     -3.239591748     -3.980585409
H      -2.660977149     -4.557777625     -3.764110432
           6
  t=       164.50000    1    1
C      -4.590014740     -3.998005255     -3.707964898
C      -3.294211052     -3.900223087     -4.215290662
H      -5.365362584     -3.386278690     -4.211876189
H      -5.425475525     -4.969133640     -3.826680147
H      -2.832655197     -3.218742065     -4.023684929
H      -2.698769808     -4.581184180     -3.794994115
           6
  t=       165.00000    1    1
C      -4.594501571     -4.008101973     -3.724733242
C      -3.306771559     -3.918970390     -4.220014978
H      -5.405178744     -3.428477231     -4.201685661
H      -5.447233061     -4.948772610     -3.849981113
H      -2.877709247     -3.158954396     -4.064395447
H      -2.729345279     -4.615771887     -3.825407472
           6
  t=       165.50000    1    1
C      -4.600440217     -4.018809009     -3.742807926
C      -3.321054385     -3.939417889     -4.224242248
H      -5.440995352     -3.464347438     -4.187068832
H      -5.457693960     -4.925837380     -3.868622091
H      -2.908518287     -3.069473472     -4.105552211
H      -2.751639987     -4.661424050     -3.854817583
           6
  t=       166.00000    1    1
C      -4.608029096     -4.030176944     -3.762072251
C      -3.336211808     -3.960278008     -4.227813779
H      -5.472323247     -3.492580630     -4.168703924
H      -5.456651429     -4.901951990     -3.882196244
H      -2.933139624     -2.965793770     -4.149759037
H      -2.766029498     -4.717070458     -3.883630726
           6
  t=       166.50000    1    1
C      -4.617387635     -4.042224211     -3.782381414
C      -3.351571602     -3.980604547     -4.230715883
H      -5.499036109     -3.512166671     -4.147293904
H      -5.444472677     -4.878754940     -3.890526018
H      -2.956490241     -2.860754272     -4.197531392
H      -2.773942908     -4.780298738     -3.912694546
           6
  t=       167.00000    1    1
C      -4.628486821     -4.054901947     -3.803578465
C      -3.366707088     -3.999963298     -4.233008529
H      -5.521118966     -3.522559703     -4.123543717
H      -5.422329475     -4.858179734     -3.893739663
H      -2.980550275     -2.762398391     -4.248127397
H      -2.777673151     -4.847433953     -3.943073338
           6
  t=       167.50000    1    1
C      -4.641297020     -4.068099442     -3.825512687
C      -3.381286469     -4.018205600     -4.234777925
H      -5.538331413     -3.523577192     -4.098091935
H      -5.391879756     -4.842570976     -3.891980953
H      -3.005802154     -2.675360618     -4.300511733
H      -2.779626965     -4.914770127     -3.975788745
           6
  t=       168.00000    1    1
C      -4.655623989     -4.081584027     -3.847976835
C      -3.395127903     -4.035325467     -4.236124066
H      -5.550660349     -3.515784892     -4.071986620
H      -5.355827716     -4.834573980     -3.885703794
H      -3.032232299     -2.602645274     -4.353545076
H      -2.781608157     -4.978935585     -4.011756064
           6
  t=       168.50000    1    1
C      -4.670883611     -4.094966318     -3.870798367
C      -3.408332798     -4.051473647     -4.237186735
H      -5.559190375     -3.500004536     -4.045650917
H      -5.318387181     -4.837676189     -3.876136202
H      -3.059522637     -2.545230542     -4.406253060
H      -2.784388147     -5.037486494     -4.050688856
           6
  t=       169.00000    1    1
C      -4.686575126     -4.107837187     -3.893907352
C      -3.420980746     -4.066799740     -4.238101463
H      -5.564523900     -3.476948255     -4.018997383
H      -5.283859394     -4.855876225     -3.863941729
H      -3.087358759     -2.503099175     -4.457925240
H      -2.788396215     -5.088821803     -4.091939783
           6
  t=       169.50000    1    1
C      -4.702349650     -4.119855975     -3.917253441
C      -3.433128683     -4.081412766     -4.238981403
H      -5.566822126     -3.447933210     -3.992210741
H      -5.255497720     -4.891873381     -3.849191883
H      -3.115503713     -2.476200450     -4.507950422
H      -2.793933491     -5.131735901     -4.135115462
           6
  t=       170.00000    1    1
C      -4.718096899     -4.130879525     -3.940801032
C      -3.444843250     -4.095450882     -4.239907972
H      -5.565919843     -3.414784221     -3.965466387
H      -5.234148214     -4.945508351     -3.831822303
H      -3.143580941     -2.463906518     -4.555971887
H      -2.801215745     -5.165250709     -4.179915634
           6
  t=       170.50000    1    1
C      -4.733914996     -4.141029420     -3.964492934
C      -3.456208924     -4.109058940     -4.240930595
H      -5.561448764     -3.379692229     -3.938934165
H      -5.218304881     -5.013139309     -3.812108121
H      -3.171110631     -2.465236309     -4.601879945
H      -2.810421233     -5.188623436     -4.226097602
           6
  t=       171.00000    1    1
C      -4.750008948     -4.150618837     -3.988231822
C      -3.467292487     -4.122351902     -4.242086647
H      -5.552928722     -3.344810671     -3.912792308
H      -5.205478988     -5.089027843     -3.790815007
H      -3.197630182     -2.479152650     -4.645704477
H      -2.821742940     -5.201374653     -4.273401879
           6
  t=       171.50000    1    1
C      -4.766581342     -4.160021400     -4.011877385
C      -3.478120660     -4.135375341     -4.243429145
H      -5.539961128     -3.312061257     -3.887277000
H      -5.193529671     -5.167109404     -3.769071671
H      -3.222794845     -2.504923364     -4.687448694
H      -2.835332695     -5.203384375     -4.321500542
           6
  t=       172.00000    1    1
C      -4.783752126     -4.169546311     -4.035270809
C      -3.488713294     -4.148105264     -4.245034699
H      -5.522326625     -3.282970960     -3.862720424
H      -5.181103824     -5.242405978     -3.748102785
H      -3.246454141     -2.542483015     -4.726917624
H      -2.851247638     -5.194770605     -4.370011231
           6
  t=       172.50000    1    1
C      -4.801534110     -4.179386283     -4.058266595
C      -3.499115613     -4.160473349     -4.246998627
H      -5.500080406     -3.258653682     -3.839486584
H      -5.167572090     -5.311559113     -3.728970708
H      -3.268575346     -2.592208929     -4.763718317
H      -2.869403145     -5.175918364     -4.418498480
           6
  t=       173.00000    1    1
C      -4.819863200     -4.189653639     -4.080737187
C      -3.509387174     -4.172360366     -4.249437727
H      -5.473562197     -3.240228745     -3.817870646
H      -5.152918882     -5.372144385     -3.712528557
H      -3.289150189     -2.654658902     -4.797311442
H      -2.889537420     -5.147657273     -4.466481493
           6
  t=       173.50000    1    1
C      -4.838634087     -4.200434910     -4.102553957
C      -3.519576652     -4.183577721     -4.252495943
H      -5.443319301     -3.228664304     -3.798181333
H      -5.137559926     -5.422454904     -3.699474689
H      -3.308204685     -2.730372955     -4.827013492
H      -2.911336230     -5.111402196     -4.513454230
           6
  t=       174.00000    1    1
C      -4.857701872     -4.211805873     -4.123583165
C      -3.529753003     -4.193886331     -4.256327760
H      -5.410105921     -3.224616151     -3.780768135
H      -5.122242081     -5.461490459     -3.690349327
H      -3.325732950     -2.819379022     -4.852106216
H      -2.934209331     -5.069415514     -4.558998031
           6
  t=       174.50000    1    1
C      -4.876898381     -4.223860094     -4.143669664
C      -3.540023594     -4.203016214     -4.261087207
H      -5.374810688     -3.228368507     -3.766032650
H      -5.107987736     -5.488684400     -3.685643026
H      -3.341657493     -2.920819862     -4.871946693
H      -2.957047732     -5.024939000     -4.602876975
           6
  t=       175.00000    1    1
C      -4.896050309     -4.236706135     -4.162662957
C      -3.550535429     -4.210720614     -4.266911856
H      -5.338488622     -3.239621168     -3.754406072
H      -5.095771950     -5.503915440     -3.685643042
H      -3.355701427     -3.033170042     -4.885844292
H      -2.978411653     -4.981566276     -4.645217245
           6
  t=       175.50000    1    1
C      -4.915011577     -4.250468773     -4.180432473
C      -3.561462757     -4.216805113     -4.273894621
H      -5.302240713     -3.257614445     -3.746196187
H      -5.086304153     -5.507218763     -3.690561453
H      -3.367264976     -3.154692997     -4.893152759
H      -2.996754776     -4.942588208     -4.686593976
           6
  t=       176.00000    1    1
C      -4.933660109     -4.265263252     -4.196876936
C      -3.572970198     -4.221224575     -4.282060378
H      -5.267223943     -3.281193682     -3.741529885
H      -5.080179391     -5.498808962     -3.700527754
H      -3.375672442     -3.282244509     -4.893723046
H      -3.010493833     -4.911253718     -4.727810165
           6
  t=       176.50000    1    1
C      -4.951853045     -4.281168314     -4.211937817
C      -3.585179199     -4.224244940     -4.291365018
H      -5.234848025     -3.308837941     -3.740171282
H      -5.078130990     -5.479085923     -3.715526510
H      -3.380309528     -3.410177431     -4.888627277
H      -3.018355217     -4.890223873     -4.769268007
           6
  t=       177.00000    1    1
C      -4.969454556     -4.298287154     -4.225596541
C      -3.598163768     -4.226576883     -4.301642471
H      -5.206516316     -3.338704064     -3.741717104
H      -5.080831769     -5.448275231     -3.735322962
H      -3.379653875     -3.529742150     -4.881119714
H      -3.020521768     -4.880168052     -4.810551447
           6
  t=       177.50000    1    1
C      -4.986313154     -4.316696038     -4.237860888
C      -3.612113981     -4.229478182     -4.312417125
H      -5.183969151     -3.368568388     -3.745434859
H      -5.088823344     -5.407013164     -3.759466625
H      -3.369694582     -3.626872619     -4.879318063
H      -3.018262633     -4.880843632     -4.850300274
           6
  t=       178.00000    1    1
C      -5.002335621     -4.336216706     -4.248831772
C      -3.627271081     -4.234292423     -4.323014797
H      -5.168849412     -3.396594998     -3.750307937
H      -5.102560235     -5.357887031     -3.786848644
H      -3.345134240     -3.687034649     -4.894154063
H      -3.013013993     -4.892147793     -4.886539142
           6
  t=       178.50000    1    1
C      -5.017492822     -4.356391260     -4.258688075
C      -3.643661958     -4.241593635     -4.333233922
H      -5.161889742     -3.421969524     -3.755707227
H      -5.122452234     -5.305612921     -3.815702518
H      -3.303275460     -3.705532677     -4.930365164
H      -3.006357559     -4.913490583     -4.917196464
           6
  t=       179.00000    1    1
C      -5.031787923     -4.376543322     -4.267674404
C      -3.660858551     -4.251017113     -4.343614944
H      -5.162684295     -3.444893294     -3.761647025
H      -5.148871778     -5.256804965     -3.843828195
H      -3.247263592     -3.689452723     -4.982640442
H      -3.000244308     -4.943375731     -4.940414505
           6
  t=       179.50000    1    1
C      -5.045153302     -4.395842392     -4.276083457
C      -3.678125276     -4.261771814     -4.355118347
H      -5.170582385     -3.465673079     -3.768586613
H      -5.182338159     -5.219912581     -3.868394196
H      -3.184862476     -3.651028119     -5.039810197
H      -2.996612511     -4.980135501     -4.954802657
           6
  t=       180.00000    1    1
C      -5.057459491     -4.413484832     -4.284229194
C      -3.694880416     -4.273272119     -4.368446501
H      -5.185254145     -3.484197813     -3.776735016
H      -5.223947568     -5.203600203     -3.886087401
H      -3.122560455     -3.599955536     -5.093536767
H      -2.996681777     -5.022073784     -4.959692432
           6
  t=       180.50000    1    1
C      -5.068557348     -4.428975151     -4.292354456
C      -3.710781074     -4.285239155     -4.383893616
H      -5.206571425     -3.500369801     -3.786008481
H      -5.275024870     -5.212982562     -3.894615685
H      -3.064192823     -3.542319690     -5.139877229
H      -3.001283061     -5.067315894     -4.955003302
           6
  t=       181.00000    1    1
C      -5.078385145     -4.442307835     -4.300516031
C      -3.725594147     -4.297538131     -4.401516225
H      -5.234345472     -3.514203533     -3.796211971
H      -5.335793855     -5.247130601     -3.894397436
H      -3.012647302     -3.482692006     -5.176930792
H      -3.011006707     -5.113876814     -4.941062409
           6
  t=       181.50000    1    1
C      -5.087061395     -4.453954527     -4.308538883
C      -3.739194664     -4.310154504     -4.421207469
H      -5.268383408     -3.525654123     -3.807281582
H      -5.404722688     -5.299596845     -3.888473586
H      -2.969450434     -3.424154043     -5.204299367
H      -3.026127860     -5.159720678     -4.918649760
           6
  t=       182.00000    1    1
C      -5.094841922     -4.464574294     -4.316152132
C      -3.751558149     -4.323124499     -4.442767664
H      -5.308632414     -3.534839794     -3.819346135
H      -5.478732708     -5.361642887     -3.880717470
H      -2.935057527     -3.368385048     -5.222353440
H      -3.046565999     -5.203503558     -4.888999834
           6
  t=       182.50000    1    1
C      -5.102034201     -4.474697535     -4.323117966
C      -3.762721227     -4.336475091     -4.465972666
H      -5.354879958     -3.542509588     -3.832722510
H      -5.554200359     -5.425548472     -3.874406039
H      -2.909557393     -3.317087865     -5.231624748
H      -3.071968230     -5.243852334     -4.853491569
           6
  t=       183.00000    1    1
C      -5.108906574     -4.484639206     -4.329309084
C      -3.772744806     -4.350172855     -4.490589942
H      -5.406462158     -3.549658081     -3.847806574
H      -5.628090764     -5.486164923     -3.871613628
H      -2.893294779     -3.272070225     -5.232536651
H      -3.101765332     -5.279758742     -4.813519059
           6
  t=       183.50000    1    1
C      -5.115668318     -4.494568236     -4.334693505
C      -3.781729867     -4.364145723     -4.516383796
H      -5.462304011     -3.557226472     -3.864907134
H      -5.698159859     -5.540344999     -3.873477999
H      -2.886707532     -3.234903238     -5.225539961
H      -3.135141572     -5.310703536     -4.770374488
           6
  t=       184.00000    1    1
C      -5.122486197     -4.504572562     -4.339285138
C      -3.789803725     -4.378315120     -4.543127624
H      -5.521209505     -3.566132372     -3.884209177
H      -5.762703279     -5.585983520     -3.880672000
H      -2.890155031     -3.206797586     -5.211206432
H      -3.171133824     -5.336552079     -4.725162676
           6
  t=       184.50000    1    1
C      -5.129511302     -4.514692169     -4.343118103
C      -3.797092783     -4.392580700     -4.570610491
H      -5.581998030     -3.577239030     -3.905799100
H      -5.820322104     -5.621545168     -3.893658028
H      -2.904057206     -3.188895171     -5.190110301
H      -3.208595137     -5.357553765     -4.678867435
           6
  t=       185.00000    1    1
C      -5.136872289     -4.524925506     -4.346246477
C      -3.803739738     -4.406814029     -4.598641657
H      -5.643566962     -3.591287834     -3.929813928
H      -5.869919817     -5.646173808     -3.912479489
H      -2.928612775     -3.182178808     -5.162733642
H      -3.246292602     -5.374389379     -4.632454706
           6
  t=       185.50000    1    1
C      -5.144675086     -4.535233485     -4.348728493
C      -3.809906324     -4.420867160     -4.627063195
H      -5.704852497     -3.608928558     -3.956480769
H      -5.910682575     -5.659653963     -3.936862022
H      -2.963725639     -3.187484806     -5.129485396
H      -3.283010583     -5.388016963     -4.586750741
           6
  t=       186.00000    1    1
C      -5.153016828     -4.545569980     -4.350618055
C      -3.815763982     -4.434594177     -4.655742121
H      -5.764803591     -3.630648713     -3.986029524
H      -5.941960895     -5.662135365     -3.966445823
H      -3.009012196     -3.205537530     -5.090821320
H      -3.317632941     -5.399363220     -4.542371947
           6
  t=       186.50000    1    1
C      -5.161978624     -4.555902326     -4.351971596
C      -3.821478268     -4.447870103     -4.684557495
H      -5.822411329     -3.656609635     -4.018665513
H      -5.963270138     -5.654084810     -4.000805746
H      -3.063875529     -3.236923558     -5.047261771
H      -3.349310970     -5.409091862     -4.499786475
           6
  t=       187.00000    1    1
C      -5.171594751     -4.566213236     -4.352866347
C      -3.827189445     -4.460603599     -4.713382777
H      -5.876801043     -3.686502833     -4.054590181
H      -5.974400050     -5.636408099     -4.039310391
H      -3.127661628     -3.281974123     -4.999359518
H      -3.377703823     -5.417568698     -4.459459014
           6
  t=       187.50000    1    1
C      -5.181948200     -4.576500146     -4.353380394
C      -3.832943101     -4.472746344     -4.742080395
H      -5.927223564     -3.719923759     -4.093881103
H      -5.974982715     -5.609780782     -4.081403937
H      -3.199976127     -3.341082749     -4.947763037
H      -3.402790878     -5.424735523     -4.421928172
           6
  t=       188.00000    1    1
C      -5.193035944     -4.586740364     -4.353634003
C      -3.838916357     -4.484444379     -4.770432128
H      -5.973091206     -3.756181290     -4.136641595
H      -5.965250007     -5.575632772     -4.126129031
H      -3.278917484     -3.412080855     -4.893720814
H      -3.424755022     -5.430552337     -4.387966726
           6
  t=       188.50000    1    1
C      -5.204824187     -4.596887439     -4.353778621
C      -3.845352487     -4.495958885     -4.798193550
H      -6.013876021     -3.794362659     -4.182786818
H      -5.945805214     -5.535895986     -4.172482532
H      -3.361937835     -3.491508511     -4.838625740
H      -3.443572715     -5.434901269     -4.358377624
           6
  t=       189.00000    1    1
C      -5.217218596     -4.606864632     -4.353994694
C      -3.852561023     -4.507718028     -4.825120657
H      -6.049182440     -3.833508432     -4.231984236
H      -5.917676100     -5.492870464     -4.219518666
H      -3.445896508     -3.574161940     -4.783736518
H      -3.459188187     -5.437458001     -4.333937843
           6
  t=       189.50000    1    1
C      -5.230018367     -4.616499152     -4.354461835
C      -3.860892929     -4.520459411     -4.851058918
H      -6.078946841     -3.872729908     -4.283855987
H      -5.882946533     -5.449973365     -4.266153392
H      -3.526664312     -3.651226578     -4.729398813
H      -3.471921116     -5.437778538     -4.315464739
           6
  t=       190.00000    1    1
C      -5.242902770     -4.625454270     -4.355310132
C      -3.870656231     -4.535199466     -4.876051039
H      -6.103034432     -3.911020188     -4.338270131
H      -5.844929765     -5.412825177     -4.311260224
H      -3.600102944     -3.710030321     -4.673934482
H      -3.482882740     -5.435822252     -4.303835930
           6
  t=       190.50000    1    1
C      -5.255370096     -4.633332029     -4.356740048
C      -3.882160014     -4.552730835     -4.900226794
H      -6.121439182     -3.946568928     -4.394195963
H      -5.808477142     -5.389342103     -4.354519472
H      -3.663128340     -3.739418556     -4.614640290
H      -3.492607046     -5.431934968     -4.299170057
           6
  t=       191.00000    1    1
C      -5.266935412     -4.639749648     -4.359022386
C      -3.895487737     -4.573025645     -4.923553530
H      -6.134684878     -3.977568134     -4.450160139
H      -5.778904750     -5.387785944     -4.395905937
H      -3.715066963     -3.737327682     -4.550126135
H      -3.500711515     -5.426619706     -4.301518025
           6
  t=       191.50000    1    1
C      -5.277308661     -4.644539095     -4.362449106
C      -3.910435588     -4.595147332     -4.945707875
H      -6.143496960     -4.002866474     -4.504672085
H      -5.759972159     -5.413504756     -4.435144596
H      -3.757665050     -3.712094597     -4.482642489
H      -3.506849729     -5.420504846     -4.310769274
           6
  t=       192.00000    1    1
C      -5.286547276     -4.648119014     -4.367285780
C      -3.926689643     -4.617697026     -4.966160694
H      -6.148819354     -4.022084779     -4.556475414
H      -5.751774103     -5.464752351     -4.471458683
H      -3.792713272     -3.676434273     -4.418003729
H      -3.511248564     -5.414680822     -4.326283090
           6
  t=       192.50000    1    1
C      -5.294914136     -4.651376473     -4.373823236
C      -3.944046456     -4.639474394     -4.984439986
H      -6.151553142     -4.035344059     -4.604685643
H      -5.752074443     -5.534166264     -4.503232635
H      -3.820552194     -3.639750538     -4.361854501
H      -3.514194363     -5.410718017     -4.347073691
           6
  t=       193.00000    1    1
C      -5.302761486     -4.654784086     -4.381930937
C      -3.962383263     -4.660225894     -5.000818341
H      -6.152764933     -4.043784244     -4.650033202
H      -5.757080411     -5.613955650     -4.530130922
H      -3.842378668     -3.604945872     -4.313573163
H      -3.514482002     -5.409754505     -4.371675160
           6
  t=       193.50000    1    1
C      -5.310288300     -4.658745616     -4.391544793
C      -3.981657947     -4.679830304     -5.015438436
H      -6.153044488     -4.048053092     -4.692918136
H      -5.763313772     -5.697042284     -4.551870488
H      -3.860088565     -3.574381997     -4.272982985
H      -3.511235017     -5.412492332     -4.399210805
           6
  t=       194.00000    1    1
C      -5.317555738     -4.663596939     -4.402646044
C      -4.001835512     -4.698165372     -5.028353649
H      -6.152675438     -4.048546452     -4.733368556
H      -5.768874497     -5.778422911     -4.568278558
H      -3.875060653     -3.549637779     -4.240463808
H      -3.504379301     -5.419414605     -4.429032980
           6
  t=       194.50000    1    1
C      -5.324603223     -4.669568144     -4.415189181
C      -4.022832582     -4.715176933     -5.039629853
H      -6.151753015     -4.045578724     -4.771364461
H      -5.772864160     -5.854968668     -4.579351034
H      -3.888190579     -3.531209689     -4.216111775
H      -3.494346113     -5.430743006     -4.460826966
           6
  t=       195.00000    1    1
C      -5.331467932     -4.676773588     -4.429112345
C      -4.044541925     -4.730870066     -5.049342800
H      -6.150133258     -4.039713470     -4.806831785
H      -5.775101117     -5.924902019     -4.585264676
H      -3.900021954     -3.518939658     -4.199699036
H      -3.481752190     -5.446426472     -4.494552360
           6
  t=       195.50000    1    1
C      -5.338182652     -4.685246057     -4.444347527
C      -4.066847067     -4.745292592     -5.057574229
H      -6.147521389     -4.031762197     -4.839590732
H      -5.775821739     -5.987282354     -4.586381034
H      -3.910845146     -3.512387536     -4.190821570
H      -3.467362782     -5.466073743     -4.530267869
           6
  t=       196.00000    1    1
C      -5.344790840     -4.694994181     -4.460830629
C      -4.089618103     -4.758516066     -5.064394069
H      -6.143599958     -4.022549202     -4.869368066
H      -5.775353129     -6.041531480     -4.583146985
H      -3.920747083     -3.511085761     -4.189105212
H      -3.452111371     -5.488950810     -4.568104514
           6
  t=       196.50000    1    1
C      -5.351364512     -4.706023498     -4.478496467
C      -4.112698854     -4.770619113     -5.069852257
H      -6.138076624     -4.012867936     -4.895837938
H      -5.773997448     -6.087152831     -4.576060130
H      -3.929680247     -3.514750622     -4.194365952
H      -3.437038525     -5.514041659     -4.608256241
           6
  t=       197.00000    1    1
C      -5.358015822     -4.718344639     -4.497271275
C      -4.135894654     -4.781676379     -5.073984303
H      -6.130726310     -4.003461541     -4.918654654
H      -5.772023099     -6.123623318     -4.565655443
H      -3.937512838     -3.523321521     -4.206658711
H      -3.423215915     -5.540170689     -4.650934676
           6
  t=       197.50000    1    1
C      -5.364901405     -4.731973219     -4.517065313
C      -4.158965783     -4.791757553     -5.076826999
H      -6.121434904     -3.994985936     -4.937488570
H      -5.769676324     -6.150419100     -4.552497114
H      -3.944053418     -3.536859706     -4.226206805
H      -3.411692860     -5.566128122     -4.696312899
           6
  t=       198.00000    1    1
C      -5.372223415     -4.746922798     -4.537765490
C      -4.181626491     -4.800933799     -5.078437866
H      -6.110228154     -3.987978023     -4.952074243
H      -5.767189589     -6.167114131     -4.537169447
H      -3.949050809     -3.555397441     -4.253262493
H      -3.403458396     -5.590761311     -4.744481902
           6
  t=       198.50000    1    1
C      -5.380226017     -4.763193772     -4.559227431
C      -4.203544170     -4.809285755     -5.078911609
H      -6.097308187     -3.982834944     -4.962238721
H      -5.764780830     -6.173436990     -4.520284090
H      -3.952252387     -3.578900930     -4.288015876
H      -3.399398984     -5.613012738     -4.795404773
           6
  t=       199.00000    1    1
C      -5.389193108     -4.780795381     -4.581282017
C      -4.224348054     -4.816884546     -5.078370487
H      -6.083019441     -3.979789126     -4.967940127
H      -5.762652484     -6.169183247     -4.502432827
H      -3.953375891     -3.607261252     -4.330608529
H      -3.400285084     -5.632005712     -4.848948392
           6
  t=       199.50000    1    1
C      -5.399433658     -4.799757720     -4.603740944
C      -4.243636987     -4.823769662     -5.076950607
H      -6.067829006     -3.978912971     -4.969253057
H      -5.760993092     -6.154065706     -4.484187164
H      -3.952243260     -3.640523037     -4.381242572
H      -3.406737591     -5.647081273     -4.904886490
           6
  t=       200.00000    1    1
C      -5.411242993     -4.820121669     -4.626402408
C      -4.261010709     -4.829941443     -5.074799604
H      -6.052309408     -3.980111218     -4.966359877
H      -5.760009314     -6.127758895     -4.466124115
H      -3.948942344     -3.679004900     -4.440160128
H      -3.419139834     -5.657850359     -4.962863034
