24

C        4.47331297      -0.77470619       0.46738645
C        3.87112613      -0.48977397       1.65383207
C        2.56057317      -0.11845248       1.65594611
C        1.76896758      -0.01576061       0.53779545
N        0.45230682       0.23035649       0.70560459
N       -0.37585968       0.36919244      -0.30145788
C       -1.74071203       0.32987338      -0.08991926
C       -2.42874171       0.18662918       1.06342916
C       -3.84772880       0.16679265       1.16844661
C       -4.61550806       0.25024473      -0.05852989
C       -3.90800718       0.34539500      -1.31292093
C       -2.53242964       0.42170077      -1.22208069
C        2.46806345      -0.24957114      -0.73099954
C        3.82813028      -0.65909945      -0.80518127
H        5.50388328      -0.87831199       0.41998377
H        4.48473689      -0.39032605       2.50368905
H        2.14330896       0.08075989       2.62708077
H       -1.81670528       0.02582044       2.02007992
H       -4.44297622       0.22500139       2.01585568
H       -5.69816139       0.15270703      -0.24328530
H       -4.26617708       0.30293170      -2.25673461
H       -1.92852032       0.49585770      -2.18581407
H        1.90665832      -0.12892061      -1.66310836
H        4.27885510      -0.98540739      -1.68696063