6
Properties=species:S:1:pos:R:3 REF_energy="_JSON [[-2123.0063975510634, -2115.4640051657643, -2111.00109268318]]" REF_forces="_JSON [[[-4.401597537665223, 7.432341345741235e-10, 5.375506092599171e-10], [-4.660812437801297, 9.261457147098539e-10, 1.2487125272357072e-09], [-13.401138096703098, 5.801609485687825e-10, 5.196277663193771e-10]], [[4.401762555279057, -4.1488414153591667e-10, -5.889813886859227e-10], [4.6609279724552515, -5.870495438795885e-10, -1.4451314845070831e-09], [13.40120670515573, -5.096490462084635e-10, -5.398996378509179e-10]], [[-0.09964625050576485, 0.001935118853217081, -1.2799893825111033], [-0.8792578077998223, 0.23048582720681235, 1.6783287133912794], [-0.9925028435263145, 0.20534984382338248, 4.07002615397652]], [[0.09956374160346225, -0.7066008505167353, -1.0672800660471828], [0.8792000404379503, 0.7319897514761141, 1.5277361083824539], [0.9924685391161234, 2.069829777496659, 3.5104701583718545]], [[0.0995637414449347, 0.7066008506470131, 1.0672800662716915], [0.8792000401985703, -0.7319897513738768, -1.527736108064069], [0.9924685390472744, -2.069829777256081, -3.5104701581815463]], [[-0.09964625015596316, -0.0019351193125172516, 1.2799893823379138], [-0.8792578074902822, -0.23048582764734157, -1.6783287135134635], [-0.992502843088363, -0.20534984413406634, -4.070026154146887]]]" REF_nacs="_JSON [[[0.3716959595003903, -1.0919213257538639e-12, 4.5878208253770936e-12], [0.47889461079409396, 3.847600529168243e-12, 7.645018266818112e-12], [0.33770452213628266, 8.115361364720384e-12, 5.761942365400354e-12]], [[0.37162090063104536, 6.749572228118825e-12, -7.024015275296042e-12], [-0.4788978674542101, -9.492709746636216e-13, -1.4396148280713676e-11], [0.33765830353395104, -8.486126631624144e-13, 1.1392528412924385e-11]], [[-0.07276600144471232, 0.0276946773556845, 0.17837342197598235], [-0.023182432104601386, 0.013690161404859109, -0.036386637927643024], [-0.08570347793600476, 0.03154903155843514, 0.13109987985272079]], [[-0.07276049276772943, -0.07511788631725871, -0.16414445884568876], [0.023184060458520072, -0.03145153942035302, -0.022852663724329564], [-0.08574822189640181, -0.045844368733662696, -0.12682391391013903]], [[-0.07276049277305752, 0.07511788631971027, 0.16414445884652518], [0.023184060456251265, 0.03145153942032562, 0.02285266373215152], [-0.08574822188544613, 0.0458443687502749, 0.12682391389331538]], [[-0.07276600142998511, -0.027694677359411418, -0.1783734219691759], [-0.023182432106052697, -0.013690161407729528, 0.03638663792657362], [-0.08570347793596185, -0.03154903157909778, -0.13109987984922988]]]" REF_dip_perm="_JSON [[-4.1557671094499554e-10, 2.5324758839411477e-12, 1.084234454816566e-13], [-3.616543783290174e-10, 1.551401721831984e-11, -3.3038358929843862e-12], [1.6166914651075464e-05, 1.1256026690667392e-11, -1.578737637941937e-12]]" REF_dip_trans="_JSON [[-0.5009091249033639, -2.890684800995014e-12, -3.195346393025986e-12], [0.0, 0.0, 0.0], [-0.6814157842209562, -3.932271924699655e-12, -4.346925418286174e-12]]" pbc="F F F"
C        0.00000000       0.00000000       0.00000000
C        1.28644539       0.00000000       0.00000000
H       -0.56503637       0.92382805       0.00000000
H        1.85148176      -0.77113368       0.50873482
H        1.85148176       0.77113368      -0.50873482
H       -0.56503637      -0.92382805      -0.00000000
6
Properties=species:S:1:pos:R:3 REF_energy="_JSON [[-2121.442450894926, -2115.799195835154, -2114.5247843128213]]" REF_forces="_JSON [[[4.801225745593155, 8.123603621418527e-09, 8.277452584150314e-10], [7.563634366456356, 5.795623693347207e-09, 1.7339804405118938e-09], [4.145519385224962, 7.827111833361827e-09, 1.1430777635780559e-09]], [[-4.8012253835856535, -2.979599674142251e-09, -1.1728369434631979e-08], [-7.563634170989817, -6.323198940286624e-09, -1.696873595618782e-08], [-4.145519656828905, -4.032868062665804e-09, -1.2703958153115428e-08]], [[0.3095316391236825, 0.07788668675834162, 1.2376853322594803], [-0.2202231710738788, 0.22134516432419085, -0.7537205190827234], [-0.22284749761808925, 0.19364899728435112, -2.3226552397102687]], [[-0.30953183299940373, 1.0702300251914991, -0.6265293766773748], [0.22022306085846272, -0.5016556783055074, 0.6045080030949979], [0.22284762047759613, -1.8186504584823022, 1.4576480630578694]], [[-0.3095318079081141, -1.0702300222598964, 0.6265293866866133], [0.22022308387659925, 0.501655684546673, -0.604507988906508], [0.2228476455593403, 1.818650462419726, -1.4576480524576678]], [[0.30953163977587833, -0.07788669483428783, -1.2376853313682483], [-0.22022316912667675, -0.22134517003805151, 0.7537205201293682], [-0.22284749681576982, -0.19364900501647858, 2.322655240670642]]]" REF_nacs="_JSON [[[0.27468376428793484, 9.229533487084845e-11, 2.8661073418444845e-11], [0.6158519612412642, -7.492902391428333e-12, 3.310317723288663e-12], [0.8892400070602793, -3.024395100372693e-09, -2.708908595282941e-10]], [[0.27468390097799167, -9.788668966674198e-11, 1.0009355317396537e-10], [-0.6158519173888996, 1.3675468609091703e-11, 1.553520530413289e-11], [0.8892416685622798, 1.6431209568465974e-09, 6.20603351109197e-10]], [[-0.05376577902223726, 0.0035099443580359573, -0.13974037507008083], [-0.019271651040125955, 0.012946208442899601, 0.18400460098383173], [-0.4076442905017629, -0.030385982000373245, -0.061662216277305865]], [[-0.053765828562866894, 0.11396328300144712, -0.08094481410296483], [0.019271628985646532, 0.15987260288396063, -0.09201113356625418], [-0.4076439905810013, 0.0681205934596114, -0.009226004525235676]], [[-0.05376582880020818, -0.11396328293569957, 0.08094481402786637], [0.019271629064707575, -0.1598726029156946, 0.09201113354196742], [-0.4076439925715897, -0.06812059402677283, 0.009226004068873335]], [[-0.05376577902898226, -0.0035099444039222868, 0.13974037501139822], [-0.019271651010115968, -0.012946208417347916, -0.18400460097838764], [-0.407644289484015, 0.030385983955116724, 0.0616622163817378]]]" REF_dip_perm="_JSON [[1.9049989794187683e-10, -1.807022725638539e-11, -1.17388293521981e-11], [-7.508112282355278e-10, -1.4781173161145154e-11, -1.1740911295542345e-11], [1.125415294165757e-09, -1.5275634705403643e-11, -1.1649513982729935e-11]]" REF_dip_trans="_JSON [[-0.5001201031612109, 1.7099058777995839e-12, 1.6791252164091728e-12], [0.0, 0.0, 0.0], [-1.1304029514085983, 3.864791500813615e-12, 3.795269495373903e-12]]" pbc="F F F"
C        0.00000000       0.00000000       0.00000000
C        1.56720000       0.00000000       0.00000000
H       -0.56503637       0.92382805       0.00000000
H        2.13223637       0.51587884       0.76637281
H        2.13223637      -0.51587884      -0.76637281
H       -0.56503637      -0.92382805      -0.00000000
6
Properties=species:S:1:pos:R:3 REF_energy="_JSON [[-2121.0860456847645, -2117.0705134228956, -2116.17420329303]]" REF_forces="_JSON [[[-2.460502900843106, 1.7105323774505814e-10, -2.291753588989452e-10], [1.6067607821875578, -1.0118802753414771e-10, -3.2510861455382215e-10], [-0.6114597103946576, -3.0148628717712727e-09, -1.4745373327724334e-09]], [[2.460505099961721, 6.51905647532227e-10, -8.502989947403556e-10], [-1.6067605664335332, 6.285707217596636e-10, -5.042923583201004e-10], [0.6114587384667228, 8.884572423975823e-10, 2.4919283668030934e-09]], [[-0.1679659974116452, 0.08631096617498922, -1.7553933271225541], [-0.730388315019776, 0.2513286826695084, 0.5316282202703462], [-0.7678878321309293, 0.27291632837672725, 2.6922797039873028]], [[0.1679648976318799, -1.6992423266439562, -0.4488101916137171], [0.730388206788054, 0.43067778738342966, 0.40038884023879745], [0.7678883167356879, 2.4835433691317714, 1.074646766181346]], [[0.16796489771199957, 1.6992423261634277, 0.4488101923482366], [0.7303882070285653, -0.4306777877970523, -0.4003888397849092], [0.7678883179422039, -2.483543368982575, -1.0746467675999058]], [[-0.16796599704897563, -0.08631096651771164, 1.7553933274671953], [-0.7303883145521437, -0.25132868278355125, -0.5316282198950062], [-0.7678878306178967, -0.27291632639947316, -2.692279703585912]]]" REF_nacs="_JSON [[[-0.2251226613882381, -7.91011117240112e-12, -8.336644716816182e-12], [0.6658500088462339, -2.638130232135306e-12, -5.8679091120851205e-12], [-1.3113704451742798, -4.5716062951965945e-12, -7.023060822726888e-11]], [[-0.22512269196433, -2.527647832476909e-12, 2.5792904165935832e-11], [-0.6658500014462271, 7.143849978369067e-12, 5.424345363928487e-13], [-1.3113703719306344, -2.1780661327975683e-11, 1.0848063015525924e-10]], [[0.0758399704157473, -0.016460586656630343, -0.19727167491706438], [-0.021102028388490707, 0.011419145992307388, -0.4225799016164548], [0.6403398020660226, -0.11421108528200485, -0.08232658111040418]], [[0.07583990992986649, 0.18304697103623355, 0.07537157270684504], [0.021102024706724256, -0.4062312449930735, -0.11696292062217871], [0.6403436952002447, 0.04391597503578672, 0.13376713205517257]], [[0.07583990993140302, -0.18304697102398682, -0.07537157271631899], [0.021102024702780775, 0.40623124499128016, 0.1169629206250955], [0.6403436951760164, -0.043915975022201285, -0.1337671321024246]], [[0.07583997040946096, 0.016460586658316848, 0.19727167491381972], [-0.021102028392290757, -0.011419145995001741, 0.42257990161884534], [0.6403398020478264, 0.11421108529618176, 0.0823265811213714]]]" REF_dip_perm="_JSON [[-5.741166966093481e-10, 1.5305198300891937e-11, -3.332150322466135e-11], [-3.019026043491498e-10, 2.0561897050779313e-11, -3.1680931869395305e-11], [-8.587808100681388e-10, 1.9207176516678274e-11, -3.103552943267897e-11]]" REF_dip_trans="_JSON [[0.30475440177604696, 1.5561531376392498e-13, 1.5627992806058333e-12], [0.0, 0.0, 0.0], [0.7293668384827839, 3.724339317626249e-13, 3.740040381179497e-12]]" pbc="F F F"
C        0.00000000       0.00000000       0.00000000
C        1.35709185       0.00000000       0.00000000
H       -0.56503637       0.92382805       0.00000000
H        1.92212822      -0.27949416       0.88053466
H        1.92212822       0.27949416      -0.88053466
H       -0.56503637      -0.92382805      -0.00000000
6
Properties=species:S:1:pos:R:3 REF_energy="_JSON [[-2120.118083349561, -2109.4685501434265, -2099.896751092173]]" REF_forces="_JSON [[[-34.326805463021046, -3.2977569378021246e-08, 1.9042565606337905e-08], [-31.79421007664963, -6.788138169560518e-08, 1.961286041603762e-08], [-48.421262182715566, 4.646567100460786e-09, 2.468162171448983e-08]], [[34.32673439213875, 2.994416486148732e-08, 3.914387189402627e-09], [31.7940057361011, 6.366200203480678e-08, -5.020944769204051e-09], [48.4215071303293, -1.7423797568321338e-08, 1.0284832311148454e-08]], [[-0.5722270029461982, -0.07646548823270327, 0.17458939925385256], [-1.8225610369584626, 0.2609756734046629, -1.3677445694932118], [-2.1170007034697536, 0.5925681875324367, -6.0139542996820765]], [[0.5722625418014069, -0.06150043423027839, -0.18034158191944105], [1.8226632172042825, 0.14644445895682268, 1.3845264546982894], [2.116878222485376, 0.08998595505281227, 6.0425149832796015]], [[0.5722625361501834, 0.06150042556788101, 0.18034157126534617], [1.8226632034315244, -0.14644447731937543, -1.3845264599917952], [2.116878225136086, -0.08998595699478465, -6.0425149996478105]], [[-0.572227004125481, 0.07646549992895223, -0.17458941155665922], [-1.822561043126797, -0.2609756508221114, 1.36774456019476], [-2.117000691766492, -0.5925681728142789, 6.013954281084154]]]" REF_nacs="_JSON [[[-0.3599941448603398, -4.4050234443286717e-10, 4.261115585091803e-09], [0.4618569399959874, -1.2707935202972863e-09, -7.311304244550035e-11], [-0.2512042369260436, -3.1637504750468325e-10, 2.700314205920889e-10]], [[-0.35985628650715173, -1.2337742831065992e-09, -2.564569429860179e-09], [-0.46186273889377016, 1.2032304341503808e-09, -5.210207144684538e-10], [-0.25130921584982757, -1.4351091321590935e-10, -4.573320507587815e-10]], [[0.08714486812845992, -0.05640612824543578, 0.2820480640629057], [-0.02667955402192825, 0.01340900425267018, 0.04910642379908609], [0.04187474531925552, -0.051260102266907234, 0.2544963489439095]], [[0.08711114940164723, 0.03272217529522065, 0.2857424668439815], [0.026682453532207735, 0.017452742275779046, -0.047828899942782305], [0.04186859866972684, 0.029902832927951963, 0.2578474382147013]], [[0.08711114622534472, -0.0327221688478729, -0.2857424692861785], [0.026682453342723386, -0.01745274264833241, 0.047828900253427196], [0.04186859924741045, -0.029902832966875785, -0.25784743938633903]], [[0.08714485823897603, 0.05640612190888627, -0.2820480636232477], [-0.026679554167399557, -0.013409003812551511, -0.04910642351559447], [0.04187474486419605, 0.05126010135512893, -0.2544963478610511]]]" REF_dip_perm="_JSON [[-1.3479542182322396e-09, 2.14460983890807e-10, 3.573031167395427e-10], [5.224428628051559e-10, -4.968765985378119e-10, 7.1904077280233e-10], [-2.822074203125802e-06, -5.54359054272451e-10, 8.05774532523629e-10]]" REF_dip_trans="_JSON [[0.2817376596114983, 1.0001928925880253e-09, 1.3929572513234924e-10], [0.0, 0.0, 0.0], [0.31227360141335264, 1.1085981303625057e-09, 1.543932451432791e-10]]" pbc="F F F"
C        0.00000000       0.00000000       0.00000000
C        1.07690066       0.00000000       0.00000000
H       -0.56503637       0.92382805       0.00000000
H        1.64193703       0.92062617       0.07684872
H        1.64193703      -0.92062617      -0.07684872
H       -0.56503637      -0.92382805      -0.00000000
6
Properties=species:S:1:pos:R:3 REF_energy="_JSON [[-2120.051900088586, -2115.68882155539, -2113.574186379382]]" REF_forces="_JSON [[[-16.381595796667206, -3.0504035100105483e-10, -1.7087765194662216e-09], [-14.092894590029845, -9.235866158565457e-10, -2.26486273697565e-09], [-17.6283521161467, -1.3663519662285937e-10, -1.9245883656767863e-09]], [[16.381646719945643, -7.216893649742623e-12, 4.730447167125844e-10], [14.092821163631836, -1.7466424682197537e-10, 1.29414598663333e-09], [17.62836322321153, -3.99645897266412e-10, 7.89031675617067e-10]], [[-0.6116627399767621, 0.13687557422820099, -2.417506977503511], [-1.2304366783384795, 0.32866992507746134, 0.8754260164531122], [-1.4235965475553658, 0.444356581248344, 4.145095033869324]], [[0.6116372780004864, -2.2465816645595975, -0.9034663156151216], [1.2304733909874472, 0.6527131634384501, 0.6695875191441194], [1.4235909935191533, 3.56350612921459, 2.1634915587056622]], [[0.611637278512352, 2.24658166475206, 0.90346631594177], [1.2304733916072632, -0.6527131630822751, -0.6695875191390491], [1.4235909941799372, -3.5635061289477292, -2.1634915585750654]], [[-0.6116627398130857, -0.13687557410828935, 2.417506978412417], [-1.2304366778568345, -0.3286699243352918, -0.8754260154865112], [-1.4235965472083951, -0.44435658097837666, -4.145095032864721]]]" REF_nacs="_JSON [[[0.33131586111759137, 2.7054196341024835e-09, -1.127492776417216e-09], [0.5151963477165298, 3.3957598178310263e-12, 2.6099833829485854e-12], [0.7137852185940387, -2.2696964934407546e-11, 2.1441890531027367e-10]], [[0.3312648952066194, -2.2268975231817402e-09, 8.851208470546728e-10], [-0.515208844643748, 1.282478029103863e-12, 5.078799322267514e-12], [0.7137157018476377, 5.5977025065354666e-11, -2.2402279138992726e-10]], [[-0.13401704438064288, 0.052706039093190285, 0.21469617473706673], [-0.015342368500927416, 0.0053888920800629165, -0.22106022477119366], [-0.3364665167462547, 0.1373221468067996, 0.13852569898907385]], [[-0.13401888526728814, -0.17195820182103871, -0.13893948005950976], [0.0153486169843511, -0.20243160004575922, -0.08901844382222268], [-0.33647430200542827, -0.06704624334687782, -0.1831675731158664]], [[-0.13401888284931346, 0.17195820163961614, 0.1389394802704529], [0.015348616983325451, 0.20243160005079155, 0.08901844381665953], [-0.3364743019920604, 0.06704624333193425, 0.1831675732010254]], [[-0.13401704403085116, -0.05270603939174339, -0.21469617471313338], [-0.015342368507128779, -0.005388892089773709, 0.2210602247690677], [-0.33646651677141637, -0.13732214682606744, -0.13852569906944295]]]" REF_dip_perm="_JSON [[-4.440576958942843e-10, -1.6103415379075955e-12, -1.6077182892938452e-10], [-3.422298469271998e-10, 8.147268889038879e-12, -1.4590883539481049e-10], [-1.4943772936330788e-05, -7.802707265566124e-13, -1.4722254164502985e-10]]" REF_dip_trans="_JSON [[-0.23604366151335734, 3.1322520544497047e-12, -5.337928370722258e-12], [0.0, 0.0, 0.0], [-0.36586481583081115, 4.854962782470261e-12, -8.273843699480731e-12]]" pbc="F F F"
C        0.00000000       0.00000000       0.00000000
C        1.18433420       0.00000000       0.00000000
H       -0.56503637       0.92382805       0.00000000
H        1.74937057      -0.39255258       0.83627791
H        1.74937057       0.39255258      -0.83627791
H       -0.56503637      -0.92382805      -0.00000000
6
Properties=species:S:1:pos:R:3 REF_energy="_JSON [[-2122.7357068463084, -2116.1314800564023, -2113.18153805206]]" REF_forces="_JSON [[[1.7032642951948838, -1.7847618498661617e-09, -2.557269974214967e-09], [2.4072901584336455, -2.162271906363364e-08, -3.869801404713714e-08], [-4.196665377254454, -2.809118456475777e-09, -1.2811765640845075e-09]], [[-1.7030201158586151, 1.316606215568317e-09, 1.4411229039180017e-09], [-2.407276678327682, -3.8969303408798856e-08, 1.5191148792040618e-08], [4.196756468163267, 2.353084832533015e-09, 8.149512434281926e-10]], [[0.08103019358972087, 0.03436574343182057, 1.393078992472902], [-0.5705837332714218, 0.20267758255107376, -1.2741698200911642], [-0.6135188492821279, 0.1601702715616075, -3.375972505741243]], [[-0.08115228170744182, 0.9608114971059445, -1.0091967800119226], [0.5705769944325255, -0.7056482425756782, 1.0800348056775446], [0.613473305033427, -2.1489215996203677, 2.608635155278493]], [[-0.08115228371453097, -0.960811496882927, 1.009196779905551], [0.5705763507555459, 0.7056482211836921, -1.0800346616192766], [0.613473312585755, 2.148921602674545, -2.6086351650835296]], [[0.08103019249438148, -0.03436574318747555, -1.3930789912506971], [-0.5705830920212552, -0.20267750056666722, 1.2741696995395326], [-0.6135188592464184, -0.16017027415933824, 3.375972516012775]]]" REF_nacs="_JSON [[[0.3428162273171214, -1.3753976721611825e-11, 2.336214162934561e-12], [0.550732916599415, 3.4617360257043963e-12, 4.823831708918219e-12], [0.40900740756626086, 4.871899592964656e-11, -6.65472325934721e-11]], [[0.34273817860622363, 9.288826749209432e-11, -1.2395863762222265e-11], [-0.5507392378559812, -4.595605994028878e-11, 4.0697237595141374e-11], [0.40900073806123577, -4.729482502197597e-11, 3.106719403419478e-10]], [[-0.06393108664162393, 0.01578849875261192, -0.16048263265810256], [-0.022450715331222528, 0.013404186222928475, 0.07597622294879003], [-0.13619976268880998, 0.01763495052895178, -0.10194202587234774]], [[-0.06393252868912196, 0.09609450164286225, -0.12951606081122788], [0.022453875949000487, 0.06095792775007187, -0.04730033273586692], [-0.13625084742597451, 0.0553763124337028, -0.08736878636832789]], [[-0.06393252868741062, -0.09609450172454322, 0.1295160608341718], [0.02245387593938084, -0.060957927714925045, 0.04730033269868108], [-0.1362508473229678, -0.05537631251307394, 0.0873687861049167]], [[-0.06393108663753362, -0.015788498740048357, 0.16048263264818885], [-0.02245071533036875, -0.013404186215580557, -0.07597622295712939], [-0.1361997626450205, -0.01763495044463209, 0.10194202589353195]]]" REF_dip_perm="_JSON [[-2.984673978311435e-11, 3.4920435713042477e-13, 1.7021136005219701e-12], [-7.231422011904951e-11, -4.336271597396105e-12, 4.966892236368296e-12], [-2.741711190037897e-05, -4.433290157237981e-12, 5.480299465059423e-12]]" REF_dip_trans="_JSON [[-0.5452975994305127, -3.3275973772204898e-12, 9.290983312316813e-13], [0.0, 0.0, 0.0], [-0.8582123186140203, -5.237127261293962e-12, 1.462335976741672e-12]]" pbc="F F F"
C        0.00000000       0.00000000       0.00000000
C        1.39848951       0.00000000       0.00000000
H       -0.56503637       0.92382805       0.00000000
H        1.96352588       0.68445596       0.62046620
H        1.96352588      -0.68445596      -0.62046620
H       -0.56503637      -0.92382805      -0.00000000
6
Properties=species:S:1:pos:R:3 REF_energy="_JSON [[-2123.439023486162, -2114.8367854390413, -2111.104285333945]]" REF_forces="_JSON [[[4.414182420680839, -7.784670511584506e-09, 2.0149973500240605e-08], [1.5711404160826334, -5.355639637671325e-09, 1.763386068633739e-08], [-7.501692833722654, -8.207743108558568e-10, 4.745728847111114e-09]], [[-4.414182266861249, -2.1531395013761555e-08, -1.1299790302433002e-08], [-1.5711400556361574, -1.841517464032504e-08, -8.548019208147212e-09], [7.5016928337190025, -1.0503942197363154e-08, 1.7522487791597048e-09]], [[0.24075146342438958, 0.018262136660186345, -0.7135969401987573], [-0.08967897372440162, 0.04783932675761564, 1.23054977476658], [-0.02260239535942693, -0.10045519002510757, 1.8859996632121245]], [[-0.24075179077243652, -0.20205969856273265, -0.684635663612006], [0.08967852826926752, 0.2718022209913465, 1.2011097215264606], [0.022602390782581683, 0.5844497974406887, 1.7959689421276819]], [[-0.24075154927982673, 0.20205971361820116, 0.6846356281970113], [0.08967878426397242, -0.2718022076407447, -1.201109746411995], [0.022602386444931986, -0.5844497873521162, -1.7959689448847325]], [[0.24075172280696125, -0.01826212239995857, 0.7135969667635], [-0.08967869925626408, -0.047839316336390984, -1.2305497589670111], [-0.022602381864432995, 0.10045519126158511, -1.8859996669529462]]]" REF_nacs="_JSON [[[0.46946407484776764, -3.4556202993545567e-12, -2.3986746957818886e-11], [0.48876118105123106, 1.2000515071930093e-11, 9.123828182537719e-11], [0.42061174864966083, 3.022463967797575e-11, 2.8683431823980666e-11]], [[0.4694639450914466, 7.944149399469097e-12, -7.191022354638507e-11], [-0.4887611722573263, 2.090863600908465e-12, 7.364938437678324e-12], [0.42061215305153365, 2.1059696938901198e-10, 3.871006255218053e-11]], [[-0.034138086401842474, 0.010028785738980611, 0.09094519255534882], [-0.014815336362793011, 0.012071525921705089, 0.01790367372427532], [-0.08518556740381954, -0.001355604992459341, 0.056722027069104106]], [[-0.034138094223851854, -0.013815287399146862, -0.09044745006617765], [0.014815332059271196, -0.007034515483631732, 0.020415161694859255], [-0.08518553679118566, -0.01596849405969869, -0.05444477207487091]], [[-0.034138094211758174, 0.013815287397878497, 0.09044745015397433], [0.014815332040681735, 0.00703451547529222, -0.020415161726297495], [-0.08518553675153487, 0.01596849391342079, 0.0544447720332631]], [[-0.03413808629270191, -0.010028785744703325, -0.09094519253722559], [-0.014815336357877493, -0.012071525927457093, -0.01790367379144059], [-0.08518556712250111, 0.0013556048963563154, -0.05672202708863877]]]" REF_dip_perm="_JSON [[7.525600606446948e-11, 8.756861900234183e-12, -1.0652263120835976e-11], [5.17904226314699e-10, 1.8756643976983383e-11, -1.1848339572105453e-11], [-5.037053727069396e-10, 1.76069948622906e-11, -1.024191208768504e-11]]" REF_dip_trans="_JSON [[-0.7551271110082223, -3.5751351466381765e-12, -2.6642893968406032e-12], [0.0, 0.0, 0.0], [-1.210624930629455, -5.7316666959890845e-12, -4.271418206924101e-12]]" pbc="F F F"
C        0.00000000       0.00000000       0.00000000
C        1.45965519       0.00000000       0.00000000
H       -0.56503637       0.92382805       0.00000000
H        2.02469156      -0.89244451       0.23874895
H        2.02469156       0.89244451      -0.23874895
H       -0.56503637      -0.92382805      -0.00000000
6
Properties=species:S:1:pos:R:3 REF_energy="_JSON [[-2119.7025799070034, -2116.7674251140543, -2116.3616652524906]]" REF_forces="_JSON [[[-11.668364369286168, 2.5637738739587517e-10, -2.857207487222881e-10], [-6.721208224436778, -5.706851397432138e-11, -2.598290776917152e-10], [-7.547258968189287, 1.1372180776030405e-10, -2.490350633285306e-10]], [[11.668364409121352, -7.88836413448543e-10, 1.8142070866583684e-10], [6.721208101330345, -8.871927660079084e-10, 1.0530951276616919e-10], [7.547258730455866, -8.248776638128606e-10, 2.1958204309597048e-10]], [[-0.5368104168359803, 0.15354005275040342, 1.4998335687894777], [-1.0310604329903506, 0.291355519881772, -0.2506900179093239], [-1.0685589628718686, 0.3365619626693769, -1.9792007451562148]], [[0.5368103968438159, 1.5070979503350954, -0.04160611860414592], [1.031060494381948, -0.21092849320113238, 0.3213141191429931], [1.0685590815950958, -1.9190967417876061, 0.5895569180567785]], [[0.5368103968652846, -1.5070979499158361, 0.041606118598345614], [1.0310604943899646, 0.2109284937243159, -0.32131411909268537], [1.0685590816855268, 1.9190967422763163, -0.589556918139059]], [[-0.5368104167107469, -0.15354005263761633, -1.4998335686791568], [-1.0310604326735906, -0.29135551946092764, 0.2506900180138464], [-1.068558962676372, -0.33656196244709163, 1.9792007452676619]]]" REF_nacs="_JSON [[[-0.18314552091173883, -1.4220066652934944e-11, 1.1047326802294154e-11], [-0.5681733686675555, -4.7375405716310605e-12, 9.36857149356376e-13], [3.731462151024433, 2.208027469216755e-10, -7.379937825424052e-11]], [[-0.18314551660076633, 1.5733185355987484e-11, 7.325804026107058e-12], [0.5681731110333599, 1.7115777174284283e-11, 1.9910462164975437e-12], [3.7314624595815604, -1.921825786544654e-10, 1.4572638030349583e-10]], [[0.07884888574653783, -0.024800406682222408, 0.23385328637666178], [0.01592670831871166, -0.006233996779601026, -0.89606832419038], [-1.8623484936592891, 0.5811546845355454, -0.062189253494329126]], [[0.07884888549075225, -0.2286861096773808, 0.054818657310783815], [-0.015926579447578193, -0.8893575049518131, 0.10963804194164099], [-1.8623398762014736, -0.013445062707175543, -0.5843148385107595]], [[0.07884888550199667, 0.2286861096708102, -0.05481865731901472], [-0.01592657943835461, 0.8893575049431715, -0.10963804194724648], [-1.8623398762400523, 0.01344506279101413, 0.5843148384884437]], [[0.07884888574593897, 0.024800406686493377, -0.23385328638682285], [0.01592670831189296, 0.0062339967759161355, 0.8960683241930861], [-1.8623484936955303, -0.5811546846478141, 0.06218925344460817]]]" REF_dip_perm="_JSON [[4.739127634507757e-10, -3.612171702267257e-11, -2.926795953341389e-12], [-1.7855370703259178e-09, -3.630076415027775e-11, -5.709937815929786e-12], [2.47272410996128e-09, -3.619874892640968e-11, -4.472847080778659e-12]]" REF_dip_trans="_JSON [[0.14020902096733998, -2.5695620670161717e-13, -2.2773519036225524e-13], [0.0, 0.0, 0.0], [-0.5267253901986292, 9.651674467866204e-13, 8.557446911963516e-13]]" pbc="F F F"
C        0.00000000       0.00000000       0.00000000
C        1.24515901       0.00000000       0.00000000
H       -0.56503637       0.92382805       0.00000000
H        1.81019538       0.11940773       0.91607863
H        1.81019538      -0.11940773      -0.91607863
H       -0.56503637      -0.92382805      -0.00000000
6
Properties=species:S:1:pos:R:3 REF_energy="_JSON [[-2118.712238383706, -2116.1941554976047, -2115.961724817942]]" REF_forces="_JSON [[[-17.758090314860116, 1.015489393584459e-09, -7.498196890851855e-12], [-12.593585102160379, 6.72626517354695e-10, -4.714571095096132e-12], [-12.85593525472908, 9.795548356634242e-10, -6.217363782504715e-11]], [[17.75809035626182, -1.2822909300257424e-09, -7.251620597113786e-12], [12.593585076900625, -1.145327637826462e-09, 9.9976995979871e-12], [12.855935369270652, -1.2614423697014889e-09, 1.5022675844542113e-10]], [[-0.7332442055825172, 0.20525612030060827, -0.7589035384854907], [-1.1802701168156702, 0.3167686036610959, 0.09611774927513896], [-1.2152522094399223, 0.3666306059363434, 0.9486006730694306]], [[0.7332441849773453, -0.7678400984302367, 0.16877860355349172], [1.180270129490567, 0.08088002915535972, 0.32099746647630506], [1.2152521522394082, 0.930008958450469, 0.4115149305806321]], [[0.7332441849826624, 0.7678400987496603, -0.1687786035422339], [1.1802701294972466, -0.08088002887660789, -0.3209974664825163], [1.2152521522743034, -0.930008958150956, -0.4115149306700807]], [[-0.7332442057780137, -0.20525612035356527, 0.7589035384886429], [-1.180270116910837, -0.3167686034675607, -0.09611774927399738], [-1.2152522096155902, -0.36663060595404134, -0.9486006730676617]]]" REF_nacs="_JSON [[[-0.0995622548234976, -6.8833621717476215e-12, 1.1364541563886083e-11], [0.2922122207380543, 6.724650489125421e-13, 2.6716823603171524e-11], [-7.554581994846444, -5.294150367069285e-10, 7.734050712125875e-11]], [[-0.0995621725092682, 7.454974602502021e-12, -5.182235741038928e-12], [-0.292212017060621, 5.740052693614909e-12, -3.3940797055680236e-12], [-7.554581093044514, 8.598108975963028e-10, -7.504105491561526e-11]], [[0.04574336478103187, -0.01657098601631893, -0.25173307382107507], [-0.0072859858802548794, 0.0019137115014660224, -1.2850317988337407], [3.776812950895632, -1.3812477697513912, -0.02975386780974231]], [[0.04574336108669648, 0.2506544383370208, 0.02857421021736723], [0.007285884112839494, -1.2836568729056934, -0.059458318281930454], [3.7768128335298825, -0.03624501258007704, 1.3810920041500738]], [[0.0457433610827634, -0.2506544383417149, -0.028574210217127048], [0.007285884137472812, 1.2836568729046012, 0.05945831826169943], [3.7768128335767663, 0.03624501213752737, -1.381092004162841]], [[0.04574336478320714, 0.016570986019882727, 0.25173307381565907], [-0.0072859858862396425, -0.0019137115067589566, 1.285031798830685], [3.776812950784157, 1.381247769863403, 0.029753867820306444]]]" REF_dip_perm="_JSON [[-8.361917247830669e-10, -4.912761709417894e-11, -2.0188396414821534e-12], [7.710268981081591e-09, -4.922130454467002e-11, -9.785550106626258e-13], [-8.181620954218943e-09, -4.93732864088e-11, -2.0402211996275626e-12]]" REF_dip_trans="_JSON [[0.05072144338246358, 6.296288143198772e-13, -6.897121874857714e-14], [0.0, 0.0, 0.0], [0.42856008705564463, 5.320046202752001e-12, -5.829956229832376e-13]]" pbc="F F F"
C        0.00000000       0.00000000       0.00000000
C        1.19405475       0.00000000       0.00000000
H       -0.56503637       0.92382805       0.00000000
H        1.75909112      -0.04411964       0.92277393
H        1.75909112       0.04411964      -0.92277393
H       -0.56503637      -0.92382805      -0.00000000
6
Properties=species:S:1:pos:R:3 REF_energy="_JSON [[-2123.0504574109723, -2114.9016720774716, -2111.6957022237343]]" REF_forces="_JSON [[[5.504324846501364, 3.84663291911842e-09, -3.563630079723178e-10], [3.6087693114740804, -1.0443331807449909e-09, -1.4348601366148905e-10], [-4.29998683316779, 7.493236700816039e-11, -7.618148931254838e-10]], [[-5.504259681095561, -4.953978610058277e-09, -2.0439771320209938e-09], [-3.6088818620335315, 8.960084339399541e-10, 2.5012650272469237e-09], [4.29995565564383, -5.903031502184421e-10, 2.004174894567853e-09]], [[0.30282498489914444, 0.03961370248142239, 0.7901171610276975], [-0.056665565845339404, 0.08977964813700878, -1.1700304760521678], [-0.004912177550402654, -0.03188585259109415, -2.0029096068799315]], [[-0.30285756077167086, 0.3047549415500843, -0.7300530313757172], [0.05672184323146714, -0.31158829099459345, 1.1313796657855058], [0.00492776833872145, -0.7081382747865204, 1.8738237096148378]], [[-0.3028575008024098, -0.3047549324847688, 0.7300530244414823], [0.05672184004028667, 0.3115882900356418, -1.1313796678020838], [0.004927765095235137, 0.7081382743320367, -1.8738237107915903]], [[0.3028249112713154, -0.03961371043935216, -0.7901171516931731], [-0.056665566867626554, -0.08977964703060541, 1.1700304757108948], [-0.004912178358933547, 0.0318858535616235, 2.00290960681443]]]" REF_nacs="_JSON [[[0.44447666710272304, 4.8401460958747e-11, -6.922549788026154e-11], [0.5100169586123701, -4.223584263008585e-11, 7.032769873553162e-11], [0.44758891082095154, 1.8946338736755262e-10, -6.769348790738329e-11]], [[0.44450484179643507, 1.4803097812199497e-11, 1.2334708472853515e-10], [-0.5100289416743583, 1.2821186693481694e-10, -3.9359454303944274e-11], [0.4476777532110819, -5.0410021211951386e-11, -7.438389473816531e-11]], [[-0.03850724140570988, 0.008156779078951647, -0.09538553149044592], [-0.015447012812352102, 0.012116734763535975, -0.00022566131662240304], [-0.11465714500168778, -0.006784050179234067, -0.05670318110257623]], [[-0.03850953353878456, 0.024626624135069226, -0.0925170801399438], [0.01545300440437507, 0.01133735766226267, 0.004323907013725087], [-0.1146312571217305, 0.02560539088564552, -0.05104160423810266]], [[-0.03850953352666178, -0.02462662414988449, 0.09251708018807171], [0.015452993571449056, -0.011337357999372235, -0.004323905589271662], [-0.11463125716217802, -0.025605390854438775, 0.05104160441156705]], [[-0.03850724137690365, -0.008156779097037744, 0.09538553135160377], [-0.015447001973333877, -0.012116734512402446, 0.00022565986120102506], [-0.11465714503151767, 0.006784050026984294, 0.056703181049437695]]]" REF_dip_perm="_JSON [[-4.4372458495920486e-11, -6.28080668092211e-12, 6.104049690995603e-12], [3.140611534795479e-10, 4.280475515770306e-12, -1.7030921138937663e-11], [5.864001623404009e-06, 4.618999503544747e-13, -5.9056404902889345e-12]]" REF_dip_trans="_JSON [[-0.7353971408870295, -1.7947760755532237e-11, 1.3384633600701277e-11], [0.0, 0.0, 0.0], [-1.237671580036053, -3.020605320504827e-11, 2.2526315384006816e-11]]" pbc="F F F"
C        0.00000000       0.00000000       0.00000000
C        1.50866005       0.00000000       0.00000000
H       -0.56503637       0.92382805       0.00000000
H        2.07369642       0.86925234       0.31282365
H        2.07369642      -0.86925234      -0.31282365
H       -0.56503637      -0.92382805      -0.00000000
6
Properties=species:S:1:pos:R:3 REF_energy="_JSON [[-2122.760204168691, -2115.8127427515724, -2112.9513329916604]]" REF_forces="_JSON [[[3.72075238531565, -2.5714559963043395e-09, 1.2140014504068095e-09], [4.054062507552121, -8.014159863399494e-09, -3.454321049269307e-10], [-2.7119403905032526, -2.9604563880515378e-09, 9.437194611520481e-10]], [[-3.7210668791447343, 5.386330176389578e-10, -1.349549626061098e-09], [-4.054106068948499, -1.9668734017688233e-09, 2.741004056401848e-09], [2.711959148013075, 5.710509408219448e-10, -1.1274451380325957e-09]], [[0.19888122340557932, 0.035756409650262715, -1.2114200078267956], [-0.39467377825919325, 0.1781470522703695, 1.2530379315258513], [-0.39794745732703873, 0.10875710841424756, 2.9923872211751896]], [[-0.198723979883859, -0.7670559238683168, -0.9385498940498769], [0.39469555325080613, 0.6225560462438194, 1.1020378208976918], [0.3979380751223171, 1.7377831710119755, 2.438494420120181]], [[-0.19872397581196302, 0.7670559235664794, 0.9385498951193891], [0.39469555963203684, -0.6225560433595917, -1.1020378226634484], [0.3979380791481415, -1.7377831712535359, -2.4384944191401687]], [[0.19888122612286738, -0.035756407315123404, 1.2114200068925953], [-0.3946737732284598, -0.17814704517356217, -1.2530379321554683], [-0.39794745445339264, -0.10875710578283385, -2.9923872219715837]]]" REF_nacs="_JSON [[[-0.3627191515091136, -2.466830245114013e-09, -5.93019711990492e-10], [-0.5579653886276719, 3.327372181034045e-11, 2.728283408722971e-11], [0.42693038106347414, -1.9091225949450245e-11, 5.170047652195253e-12]], [[-0.36280125307238137, -5.136324626881776e-09, -6.767990073571496e-10], [0.557964727072482, -3.833518456061127e-11, -4.4728392122817974e-11], [0.42683490332722746, -1.9871077850487116e-10, 2.267165393117986e-10]], [[0.05544841528784054, -0.011557574601002627, -0.1431254315217178], [0.021943140900857493, -0.013734939752882378, 0.05941479255464421], [-0.13664734408120374, 0.005232421715757838, 0.08722603643175822]], [[0.05545270485424473, 0.07807677958516543, 0.12049189282872577], [-0.021942810136053557, 0.04710705583153213, 0.03871188809017691], [-0.1366055731795947, -0.049044205380682514, -0.07237864318033413]], [[0.05545277546716296, -0.07807677722220463, -0.12049192679202851], [-0.021942810164549492, -0.04710705581417726, -0.038711888054866056], [-0.13660557321638597, 0.04904420553728619, 0.0723786429460578]], [[0.05544848969967218, 0.011557579835732384, 0.14312546675433505], [0.021943140907827934, 0.013734939740589236, -0.059414792572509305], [-0.13664734403033363, -0.005232421651234745, -0.08722603642905913]]]" REF_dip_perm="_JSON [[-1.4907963510809753e-10, -2.4981238187610842e-11, -1.880015659287813e-11], [6.084271229225264e-11, -2.0612071885375648e-11, -8.315906299922827e-12], [1.527334456772497e-05, -2.0592085229270886e-11, -1.0765729033097398e-11]]" REF_dip_trans="_JSON [[0.6054374463883184, 3.245405467040272e-12, -2.2239367083622895e-12], [0.0, 0.0, 0.0], [-0.99254799642954, -5.320574956620796e-12, 3.6459368137002454e-12]]" pbc="F F F"
C        0.00000000       0.00000000       0.00000000
C        1.45413144       0.00000000       0.00000000
H       -0.56503637       0.92382805       0.00000000
H        2.01916781      -0.73234796       0.56313829
H        2.01916781       0.73234796      -0.56313829
H       -0.56503637      -0.92382805      -0.00000000
6
Properties=species:S:1:pos:R:3 REF_energy="_JSON [[-2119.489792038456, -2114.627403347569, -2111.7899134844274]]" REF_forces="_JSON [[[-22.863147633514558, 4.853417624361904e-10, -6.201845323200295e-10], [-21.116482658399608, -5.650724835529353e-09, 2.6757917094405896e-09], [-25.008523388317922, 1.292122415760327e-09, -3.458986735313487e-10]], [[22.86314718829454, -1.1427644881118922e-10, 6.084565700568944e-10], [21.116497143957083, -4.302783832249913e-10, -6.434868463112528e-09], [25.008506336508248, 5.214008915171062e-10, 1.11746922525177e-09]], [[-0.7097129374305517, 0.13318992095040894, 2.4211689223997457], [-1.3916879618228948, 0.3689942597395473, -1.0650724169690196], [-1.6958475734504512, 0.5546846202940776, -4.580746954308228]], [[0.7097131599834533, 2.1634638950439875, -1.0950248347269578], [1.3916807189947558, -0.7379896454197435, 0.85199652159046], [1.695856099318017, -3.689943308598163, 2.7704256656100084]], [[0.7097131601191408, -2.1634638951392517, 1.0950248345399973], [1.3916807171767593, 0.7379896477053155, -0.8519965183757013], [1.695856100118854, 3.689943308015957, -2.770425666546373]], [[-0.7097129374535375, -0.13318992122590215, -2.4211689222014625], [-1.3916879599075462, -0.36899425594420643, 1.0650724175137491], [-1.6958475741786134, -0.5546846215257596, 4.580746954472907]]]" REF_nacs="_JSON [[[0.3506919379903104, -2.6037973980424666e-11, -5.270750057290325e-12], [0.41941082819824177, 6.7224687218023344e-12, 4.831838079564672e-12], [0.5843404722734957, 3.815289261416913e-12, 7.1478775386257894e-12]], [[0.3506453933239693, 1.8683927057930863e-11, -6.455659022415598e-12], [-0.41940829404138236, 9.180989999511866e-13, 2.205114011411765e-12], [0.5843485791688917, 3.5872424139841835e-12, -2.486803018539476e-11]], [[-0.14595145062395992, 0.06505279377407382, -0.21555294499305325], [-0.011821405494016238, 0.003452049145278446, 0.15044921569110514], [-0.2711459543808845, 0.12846942748272636, -0.15440694059426674]], [[-0.14599528768904155, 0.15415397351519625, -0.16412490336953972], [0.0118201384238887, 0.13202071799214915, -0.07222902827104667], [-0.27114320998099545, 0.06950530666583156, -0.1884556962085161]], [[-0.14599528767785133, -0.15415397350474533, 0.16412490337588562], [0.011820138427602295, -0.13202071799513018, 0.07222902826726685], [-0.2711432099848202, -0.06950530664965343, 0.1884556962299263]], [[-0.14595145061787612, -0.0650527937798133, 0.21555294499108604], [-0.011821405496821575, -0.003452049149939871, -0.15044921569435962], [-0.27114595439240813, -0.1284694275082127, 0.154406940585313]]]" REF_dip_perm="_JSON [[-2.38673984984391e-10, 1.5134895335332592e-11, -3.670674310240577e-12], [-1.4173870287628521e-10, 3.8565918508817676e-11, 8.392938203659939e-12], [6.686993827384555e-06, 3.389611958767332e-11, 5.319781633218038e-12]]" REF_dip_trans="_JSON [[-0.19502080484640683, 2.292142332573002e-12, 1.021681731338146e-12], [0.0, 0.0, 0.0], [-0.2723076714474157, 3.200527450675631e-12, 1.4266817837457636e-12]]" pbc="F F F"
C        0.00000000       0.00000000       0.00000000
C        1.13906005       0.00000000       0.00000000
H       -0.56503637       0.92382805       0.00000000
H        1.70409642       0.46183001       0.80010706
H        1.70409642      -0.46183001      -0.80010706
H       -0.56503637      -0.92382805      -0.00000000
6
Properties=species:S:1:pos:R:3 REF_energy="_JSON [[-2120.7368650975914, -2110.584916030932, -2102.056533222961]]" REF_forces="_JSON [[[-29.730172386163105, 5.1771711920655245e-09, 7.4358980444266664e-09], [-29.006066538968472, 8.34016555884027e-09, 1.0117660455619159e-08], [-42.2425231855698, -4.988195495992549e-09, 1.0182259223056554e-08]], [[29.730212681740014, -4.412516714817893e-10, -4.077804717647786e-09], [29.006029376215903, -2.3307054921958966e-09, -6.7412017014038855e-09], [42.24268273229841, -8.52156879269761e-09, -4.227579708877389e-09]], [[-0.50786102591041, -0.08187207009982277, -0.47936309379822883], [-1.661694754127601, 0.40086165442033284, 2.3376944908138446], [-2.0513400986053405, 0.5976914278908765, 5.461326114803537]], [[0.5078408795717462, -0.010946088828253327, -0.48617141335332803], [1.661713336923109, 0.052065443513344266, 2.3713619436345375], [2.0512603216767356, 0.45464117735822485, 5.4750644329625695]], [[0.5078408781652894, 0.010946087673848592, 0.48617141311860274], [1.6617133351617077, -0.052065444602369546, -2.3713619433923037], [2.0512603259403037, -0.45464116918933634, -5.4750644355082185]], [[-0.507861027404557, 0.08187206651749625, 0.4793630906749579], [-1.6616947552054742, -0.4008616593410997, -2.3376944944325904], [-2.051340095741342, -0.5976914225511372, -5.46132611821205]]]" REF_nacs="_JSON [[[0.37781857429508603, -5.935494342645111e-11, -4.422081233471787e-10], [0.41986373763378726, 1.2003814210240848e-10, 6.813748283629728e-11], [0.27909198928482665, -5.200924086640551e-11, -1.2177928566315097e-10]], [[0.3778398276365669, -1.474874042217429e-10, 4.916254299935335e-10], [-0.4198753611408322, -6.90773359810638e-11, -1.0487496877298585e-10], [0.2790427105288911, 1.0580636424537636e-10, 4.366619293020613e-10]], [[-0.09845507761524759, 0.06328979248127203, 0.23834345180329317], [-0.02442416319677042, 0.016595238217704204, -0.01622406377829755], [-0.06009699222224204, 0.059731145562207266, 0.20930236946480502]], [[-0.0984645635127477, 0.01668469439434131, -0.2460293965521654], [0.024429974922258225, -0.01939070946954182, -0.012760093620878918], [-0.060106506981043986, 0.01873388354118248, -0.21686844531477206]], [[-0.09846456508063192, -0.016684695177360365, 0.2460293968955702], [0.02442997464755668, 0.019390709250621207, 0.012760093421466194], [-0.060106507263706574, -0.018733883461749375, 0.2168684454074631]], [[-0.0984550767806733, -0.0632897916034691, -0.23834345211543817], [-0.02442416293446623, -0.016595238049743867, 0.016224064014447342], [-0.06009699242169243, -0.05973114579384215, -0.2093023698015145]]]" REF_dip_perm="_JSON [[2.4290032997321086e-10, -5.3191570502147637e-11, 8.997118162160203e-11], [-4.38915295833996e-10, 2.8832833374466424e-10, 6.056789577081213e-11], [-4.802002323503993e-06, 1.3184947199111548e-10, 8.596760457061647e-11]]" REF_dip_trans="_JSON [[-0.29465729789463163, 6.774279047621471e-11, -3.105161478042858e-11], [0.0, 0.0, 0.0], [-0.3355472109585038, 7.71436003380841e-11, -3.536086646968776e-11]]" pbc="F F F"
C        0.00000000       0.00000000       0.00000000
C        1.09766037       0.00000000       0.00000000
H       -0.56503637       0.92382805       0.00000000
H        1.66269674      -0.90687938       0.17614782
H        1.66269674       0.90687938      -0.17614782
H       -0.56503637      -0.92382805      -0.00000000
6
Properties=species:S:1:pos:R:3 REF_energy="_JSON [[-2120.726560962046, -2117.1563375901887, -2116.6316721351145]]" REF_forces="_JSON [[[-3.770891465970411, -5.438009734043285e-10, 1.7855869775657914e-10], [1.1141845688556415, -4.671652024759138e-10, 2.1810779422142414e-11], [-0.16675114055211668, -4.591360455687674e-10, 2.0563619147287753e-10]], [[3.770891459755416, 1.1959013746107597e-10, 1.831017242075923e-10], [-1.114184573645031, -5.597998426809298e-11, -3.985236592431319e-10], [0.16675114680250852, 2.3250738723285047e-11, -2.632410577196523e-10]], [[-0.2164882012484486, 0.09324565208630795, 1.487899480798053], [-0.7574733397537741, 0.2559011785442666, -0.35333767210226197], [-0.7846035489888387, 0.28338610478415555, -2.1183902861539274]], [[0.21648820441049071, 1.4765615510210666, -0.20568322194142424], [0.7574733423848459, -0.2951349975195293, 0.32129154019508593], [0.7846035460110484, -2.019166864209958, 0.7006070536115834]], [[0.2164882045793171, -1.476561551006437, 0.2056832217930587], [0.7574733421659061, 0.2951349976314824, -0.321291539773876], [0.7846035459907676, 2.019166864279542, -0.7006070534567567]], [[-0.2164882015255863, -0.09324565167610487, -1.487899481011321], [-0.7574733400076089, -0.2559011781327389, 0.3533376720577803], [-0.7846035492613243, -0.2833861044179805, 2.1183902860567754]]]" REF_nacs="_JSON [[[-0.1790723675180147, 1.396484323036619e-11, 2.653652890812931e-12], [0.616277800809954, -1.1516463025860154e-11, -1.3464377406632969e-11], [-2.3675308792179064, -1.3858825424090624e-10, 1.5730841278668284e-10]], [[-0.17907257814878405, -3.8928707110439984e-11, 7.872176941672455e-12], [-0.6162776312679212, 2.189295011877468e-11, -8.423934230662673e-13], [-2.3675309389571004, 1.0437523140220371e-10, -3.94884497800419e-11]], [[0.06531848189235011, -0.014340657852453864, 0.20734548403834338], [-0.018805563823793676, 0.009925189638916667, 0.6180777313553362], [1.1762490458002064, -0.22392870002382526, 0.06424147018882978]], [[0.06531802168896184, -0.20030845857492588, 0.055447363090092246], [0.018805479121069873, 0.6076162720371875, -0.11367078444133079], [1.1762456418462037, -0.018243828147864682, 0.23224421184495483]], [[0.06531802168402133, 0.2003084586095721, -0.05544736309411207], [0.01880547911426765, -0.6076162720405475, 0.11367078444583306], [1.1762456418089176, 0.018243828121412786, -0.23224421184651575]], [[0.0653184818994037, 0.014340657848841747, -0.2073454840486594], [-0.01880556383619113, -0.009925189645922204, -0.6180777313455191], [1.1762490458110741, 0.22392870008635632, -0.0642414703062651]]]" REF_dip_perm="_JSON [[-4.733298193143867e-10, -6.42487716034395e-12, 1.0419501854949244e-11], [1.2589095013988271e-09, -8.263233133313396e-12, 1.0721383639864954e-11], [-1.980635981115235e-09, -9.701231401184286e-12, 9.93815655375951e-12]]" REF_dip_trans="_JSON [[0.22492702894275338, 3.0230055519129586e-13, 1.529069170655763e-12], [0.0, 0.0, 0.0], [0.7245542839672601, 9.740240793807153e-13, 4.925433973072561e-12]]" pbc="F F F"
C        0.00000000       0.00000000       0.00000000
C        1.34669993       0.00000000       0.00000000
H       -0.56503637       0.92382805       0.00000000
H        1.91173630       0.18443764       0.90522982
H        1.91173630      -0.18443764      -0.90522982
H       -0.56503637      -0.92382805      -0.00000000
6
Properties=species:S:1:pos:R:3 REF_energy="_JSON [[-2121.788631698904, -2115.7514023009685, -2114.088269598545]]" REF_forces="_JSON [[[5.0119860437564645, 1.1092322444668634e-08, -1.2100796663905913e-08], [7.006638787777137, 1.0998885861472483e-08, -1.0257612125642457e-08], [2.6907737617722822, 1.5672941624079397e-10, -1.0412292802054242e-08]], [[-5.011985429872845, -1.3267545631045227e-08, 1.497519573027476e-08], [-7.006638800091128, -5.658875027831229e-10, -6.479017114852844e-11], [-2.6907736281660126, -4.25859976876399e-09, 6.891790554321748e-09]], [[0.3020232414339169, 0.07140787799419895, -1.2411579064969014], [-0.2335946861153677, 0.20865941463041268, 0.889729485990423], [-0.2352064209508076, 0.16836936969561644, 2.501781224668302]], [[-0.30202353030919765, -0.9940885396190415, -0.7465652952638395], [0.23359471475936577, 0.5448972652270883, 0.73365136277189], [0.23520637173877973, 1.8021904670060727, 1.7433780862543862]], [[-0.3020235296687965, 0.9940885495929067, 0.7465652794707908], [0.23359470807574098, -0.5448972649089348, -0.7336513665427422], [0.23520636913093326, -1.8021904624095058, -1.7433780961960357]], [[0.3020232046621921, -0.07140788579261921, 1.2411579194153795], [-0.23359472440820914, -0.20865942538127513, -0.889729471896956], [-0.23520645352555225, -0.16836937019092874, -2.501781211206267]]]" REF_nacs="_JSON [[[-0.30628481858257844, -2.5079380934563894e-11, -5.526485270497401e-10], [0.6059827800253453, 1.8517258416965498e-09, -2.3776207512828824e-09], [-0.683052956985904, 1.3992059909375047e-09, 1.418059469149969e-10]], [[-0.3062845674701886, 5.823187243726799e-11, 4.3007576215550665e-10], [-0.6059827702196471, 2.81628145647509e-09, -3.6626211548785395e-11], [-0.6830534043486404, -8.336857332600353e-10, 1.9356469739231828e-09]], [[0.054611368881023734, -0.004998698635406423, -0.13692358186646728], [-0.019900462520613088, 0.013161571158000464, -0.1349745542866364], [0.2929046056660723, 0.018596698341662058, -0.06744772958553165]], [[0.05461185117495006, 0.10135606801963765, 0.09219555224313696], [0.019900477074145904, -0.11158895883486432, -0.07706662028572464], [0.292904480607756, 0.06351993555506055, 0.029330023857142347]], [[0.05461185100318812, -0.1013560677137575, -0.09219555212738328], [0.01990045715373155, 0.11158895654096622, 0.07706662145587594], [0.29290448072223935, -0.06351993503784441, -0.02933002556768861]], [[0.054611368962094876, 0.004998698298996282, 0.13692358189001308], [-0.019900482472017055, -0.013161573532111356, 0.1349745555307276], [0.29290460752891895, -0.018596699423102794, 0.06744772922687524]]]" REF_dip_perm="_JSON [[3.4137625015605885e-10, 8.712724701336164e-11, 9.467220969291007e-11], [-4.7031100146522955e-09, 8.390648065981268e-11, 8.491830512511635e-11], [5.113669242137657e-09, 8.351299336775013e-11, 8.227215513457937e-11]]" REF_dip_trans="_JSON [[0.5493636489468663, 2.2670448650873396e-11, -1.886917559771147e-11], [0.0, 0.0, 0.0], [1.113264631967914, 4.5940783700363386e-11, -3.823762740645703e-11]]" pbc="F F F"
C        0.00000000       0.00000000       0.00000000
C        1.54994442       0.00000000       0.00000000
H       -0.56503637       0.92382805       0.00000000
H        2.11498079      -0.59628573       0.70562142
H        2.11498079       0.59628573      -0.70562142
H       -0.56503637      -0.92382805      -0.00000000
6
Properties=species:S:1:pos:R:3 REF_energy="_JSON [[-2123.295424920404, -2115.218697514007, -2110.4663530287717]]" REF_forces="_JSON [[[-3.2219848969505867, -1.1911228207671387e-09, -2.310465264703317e-09], [-4.063703557320272, -6.248525341020055e-09, -2.3506644073950807e-09], [-13.946043038999376, -1.404658098126767e-09, -2.5737690766968746e-09]], [[3.221985045368824, 1.5163115924300647e-09, 4.2440426766688523e-10], [4.063705341398049, -1.8987933967329617e-09, -1.4947764860677248e-09], [13.946044796470337, 1.930403293250012e-09, 5.254285464768029e-10]], [[-0.032212595194008084, -0.01454175315374654, 1.079537037066104], [-0.7899402942182798, 0.19605763947244528, -1.7716582652087325], [-0.8319333652208127, 0.11432935862178238, -3.8104976369200734]], [[0.03221252001847021, 0.4834661200003052, -0.9653352667753621], [0.7899394013169759, -0.640520299187883, 1.6634136529959715], [0.8319324855164733, -1.6505710388106039, 3.4363613025665187]], [[0.03221252573394051, -0.4834661187277587, 0.9653352690442785], [0.7899394046369542, 0.6405203042067282, -1.6634136489444524], [0.8319324911032187, 1.650571039614588, -3.4363613002917557]], [[-0.03221259897725714, 0.014541751555730011, -1.0795370374489925], [-0.7899402958123124, -0.19605763634425788, 1.7716582650025403], [-0.8319333688711933, -0.1143293599510423, 3.8104976366938574]]]" REF_nacs="_JSON [[[-0.3990299848294024, 3.2899521985299966e-11, -3.545460677223483e-11], [0.4942169309897306, 5.89631262897245e-12, -4.924931827192578e-11], [-0.33574167717002407, 5.1568423039665866e-11, 6.6366460928086e-11]], [[-0.3990299144715218, -1.0807363664352465e-10, 3.662199658982765e-11], [-0.49421692878553886, -4.342071900257611e-12, 7.506366695739583e-11], [-0.3357416740401444, -5.366430916588557e-11, -1.096079453729975e-10]], [[0.06359266374684228, -0.0246672849936464, 0.16921522724579954], [-0.025045645987175704, 0.015202571986360665, 0.01722821409069645], [0.06824769208494814, -0.023969364834786414, 0.12401749905740031]], [[0.06359269447676331, -0.055901485118732046, 0.16160845239352487], [0.025045644896210542, 0.021421831684328752, -0.008308708553545811], [0.06824766890710061, -0.03573900890941482, 0.12115111520928522]], [[0.06359269450016418, 0.0559014851763823, -0.1616084524319702], [0.025045644894152255, -0.021421831685121684, 0.008308708517258082], [0.06824766901317397, 0.03573900887635727, -0.12115111516996567]], [[0.06359266371307079, 0.024667284985823122, -0.16921522719201304], [-0.02504564599253818, -0.015202571987122207, -0.017228214080221908], [0.06824769212293731, 0.023969364851359504, -0.12401749904138111]]]" REF_dip_perm="_JSON [[-9.650640177919103e-10, 3.5719901957233045e-11, -4.452652230339471e-11], [-1.0500489451040426e-09, 6.778391140196965e-11, -2.4067265059486738e-11], [-1.1723422971450676e-09, 5.415551027053365e-11, -2.955734965826412e-11]]" REF_dip_trans="_JSON [[0.5602910525095675, 1.7741761380978643e-11, -5.979703855232153e-12], [0.0, 0.0, 0.0], [0.7644412067173054, 2.4206222729624973e-11, -8.158494497805562e-12]]" pbc="F F F"
C        0.00000000       0.00000000       0.00000000
C        1.30160158       0.00000000       0.00000000
H       -0.56503637       0.92382805       0.00000000
H        1.86663795       0.82037631       0.42478346
H        1.86663795      -0.82037631      -0.42478346
H       -0.56503637      -0.92382805      -0.00000000
6
Properties=species:S:1:pos:R:3 REF_energy="_JSON [[-2122.0137199302753, -2116.5505324079254, -2114.071637999407]]" REF_forces="_JSON [[[-3.3506629273178308, -2.816481791602675e-10, -1.5045424504555033e-10], [-1.5851845126795188, 2.4490256700168812e-09, 7.258121113380224e-10], [-6.652512990977929, -8.708558675016674e-10, -7.308001201534434e-11]], [[3.350663011635731, 7.052336993231915e-10, 8.763885692466159e-10], [1.58518434552143, 1.9331724110091132e-09, -2.090182951568762e-09], [6.652512869322369, 1.0285657452346772e-09, 9.000387301643791e-10]], [[-0.1760160110938082, 0.06352228465698094, -1.8564817351500016], [-0.8425764471111435, 0.2538215355885419, 1.0792022639107492], [-0.9552398370208787, 0.2801021216930661, 3.767357898582409]], [[0.17601596888537177, -1.5549290043753474, -1.0162456853520592], [0.8425765318611225, 0.7366115135823417, 0.8285562137158154], [0.955239897738153, 2.9200784736639034, 2.3967862500521586]], [[0.176015967228073, 1.5549290040089394, 1.0162456851176003], [0.8425765289182068, -0.7366115154787207, -0.8285562118357425], [0.9552398961067056, -2.9200784740559036, -2.396786250337129]], [[-0.17601600933894224, -0.06352228471416228, 1.85648173465835], [-0.8425764465110687, -0.2538215380742846, -1.0792022644266566], [-0.9552398351674836, -0.28010212145817526, -3.767357899124557]]]" REF_nacs="_JSON [[[-0.3054209054983398, 2.5858063277579093e-11, 3.573595451320059e-11], [0.552880251027852, 5.397731740864987e-13, -1.0762989118921417e-11], [-0.4883762266603401, 2.322963837103694e-11, 1.2133734055847495e-11]], [[-0.3054209161751923, -1.746086110388735e-11, -5.67091537934554e-11], [-0.5528802369919112, -4.600410788934956e-12, 6.240934562749129e-12], [-0.4883761259640536, 8.72130634413704e-12, -7.944175391953363e-11]], [[0.08613887629576576, -0.025228704476846834, -0.18744377122418043], [-0.02075761284524064, 0.011121184506596361, -0.14215692802151889], [0.2019052290798455, -0.052011960141314886, -0.11902578978776931]], [[0.08613883110250814, 0.1387901638029727, 0.12848711058904744], [0.020757605811899588, -0.1226662885442404, -0.07269975847325394], [0.20190510692879535, 0.06742182478526844, 0.11102568355250815]], [[0.08613883108516424, -0.13879016380610854, -0.12848711056710715], [0.02075760580731511, 0.12266628854416199, 0.0726997584759659], [0.20190510690232408, -0.06742182478789327, -0.1110256834895128]], [[0.08613887628048374, 0.025228704466816926, 0.18744377121249362], [-0.02075761284104753, -0.011121184502452851, 0.14215692802332638], [0.20190522905782832, 0.052011960108929896, 0.11902578978527753]]]" REF_dip_perm="_JSON [[3.4835076035928383e-11, 3.332566711134985e-11, 7.113792212955037e-11], [-1.0825897195746115e-10, 2.8185348994405834e-11, 5.549003595419551e-11], [1.9549864391141207e-10, 2.8843243091187653e-11, 5.840892052282875e-11]]" REF_dip_trans="_JSON [[0.40744652226205347, -1.0075706018811246e-14, -5.455319190993504e-12], [0.0, 0.0, 0.0], [0.6414970261699234, -1.580387707598279e-14, -8.589069377876948e-12]]" pbc="F F F"
C        0.00000000       0.00000000       0.00000000
C        1.31307071       0.00000000       0.00000000
H       -0.56503637       0.92382805       0.00000000
H        1.87810708      -0.53156052       0.75558036
H        1.87810708       0.53156052      -0.75558036
H       -0.56503637      -0.92382805      -0.00000000
6
Properties=species:S:1:pos:R:3 REF_energy="_JSON [[-2122.5575422011107, -2115.3017831274105, -2112.683240430043]]" REF_forces="_JSON [[[5.4912384036640685, 9.938289759708712e-08, 3.889421696596662e-08], [5.41117462277478, -8.454207579947394e-09, -3.107321641263082e-09], [-1.1042307270603486, -8.615977832505489e-09, -1.1444684134182685e-09]], [[-5.491197812178774, 1.211599352554493e-07, 2.7214272556035048e-08], [-5.411202117757281, 3.547718452336382e-09, -1.96783741984702e-09], [1.1044663194754671, 3.910598944376481e-09, -1.2250564055654943e-09]], [[0.3190121762819833, 0.052367117021239855, 1.0235155597960288], [-0.17013270927942853, 0.15730640930655368, -1.1513903640813004], [-0.14534903384151354, 0.07312992651269189, -2.4669642742473914]], [[-0.31903246003020436, 0.5940261008973606, -0.8351705832764569], [0.17014646957103105, -0.4858726389554652, 1.055765693208472], [0.1452312503991812, -1.2638912343345636, 2.119723678628549]], [[-0.3190307986028326, -0.5940261019158878, 0.8351701511750735], [0.1701464627119572, 0.4858726352470153, -1.0557656898155001], [0.14523124390931988, 1.2638912308855108, -2.1197236766353935]], [[0.3190104908647919, -0.052367336546077295, -1.0235151938032099], [-0.17013272802217755, -0.15730640069133603, 1.1513903657638047], [-0.14534905288183844, -0.07312991835818974, 2.466964274623878]]]" REF_nacs="_JSON [[[-0.38568690793568916, 2.0589036702038347e-10, -2.3073291478332428e-11], [0.5554901007125057, 1.2368601094373233e-09, 2.281468723139313e-09], [-0.4828634963345619, 8.948715584329918e-10, -4.5861777530629757e-10]], [[-0.38572216597771086, 2.187346961220068e-10, -2.5674256609399898e-11], [-0.5554849825309819, 2.1085399011865767e-09, -1.5683117641927632e-09], [-0.48267107700237355, 6.419275163450706e-10, 2.5368859017374715e-11]], [[0.048089076686758485, -0.007310075923154228, 0.11920794134600592], [-0.019280124528464428, 0.01311955817100979, 0.044128661795218176], [0.158928467085115, 0.009394641228866234, 0.06781926623930877]], [[0.04807995097930549, -0.05788022262284377, 0.10445758496786532], [0.01927756539996595, 0.034771968064689206, -0.030152017770768234], [0.1588636852758803, -0.04439824836957631, 0.05220657405553535]], [[0.04807994616058513, 0.05788022249019974, -0.10445758396398651], [0.019277699065583985, -0.03477196151448158, 0.030151989532044978], [0.15886369938921463, 0.04439824965618236, -0.05220657583618082]], [[0.04808908122367382, 0.007310075686301945, -0.11920794229103829], [-0.019280258279136393, -0.013119568066617565, -0.04412863426965375], [0.15892845215299672, -0.009394644020853134, -0.06781926401965858]]]" REF_dip_perm="_JSON [[2.031518676448613e-10, 3.4152198619015615e-12, -7.803748237238247e-11], [-3.2830164595419237e-10, -2.0469042377625932e-11, 1.544760322563838e-11], [-1.3971713588902209e-05, -1.4575893547402474e-11, -6.8978946881567e-12]]" REF_dip_trans="_JSON [[0.6621558398817304, -3.520207404156959e-11, -6.553844671282672e-12], [0.0, 0.0, 0.0], [1.162100142435934, -6.178049316447597e-11, -1.150216378067669e-11]]" pbc="F F F"
C        0.00000000       0.00000000       0.00000000
C        1.52814019       0.00000000       0.00000000
H       -0.56503637       0.92382805       0.00000000
H        2.09317656       0.77917781       0.49632671
H        2.09317656      -0.77917781      -0.49632671
H       -0.56503637      -0.92382805      -0.00000000
6
Properties=species:S:1:pos:R:3 REF_energy="_JSON [[-2123.931729984693, -2114.1620524554087, -2109.0109147676594]]" REF_forces="_JSON [[[-0.9136758763549669, 4.897859428602673e-10, 3.6215753581290916e-10], [-6.30006156893474, 3.3782687917884516e-10, 1.2667628989525157e-09], [-18.503317130847186, 5.637533601457862e-10, 5.103866521294365e-10]], [[0.9135945283252206, 1.4449187184968144e-09, -1.505835931970874e-09], [6.299936315792578, 1.4790581302036775e-09, -2.396282815763423e-09], [18.503449195918193, 1.5093802987604648e-09, -1.547087012426228e-09]], [[0.04622573597739128, -0.02862532785948452, -0.5131092892189851], [-0.17583793745547513, -0.07869805028283103, 1.2511221424042105], [-0.0778945588936057, -0.301365483969889, 1.2569257611684972]], [[-0.04618506108146058, -0.01860092220792877, -0.5135124184718606], [0.1759005646300525, 0.1929274195543308, 1.2385675840664814], [0.0778285270306751, 0.4154286090665334, 1.2237726805426077]], [[-0.0461850622462785, 0.018600920934114692, 0.5135124196938854], [0.17590056364820778, -0.19292742095947477, -1.2385675828307114], [0.07782852609701439, -0.4154286104434292, -1.2237726794114816]], [[0.04622573538139488, 0.028625327198770967, 0.5131092891407217], [-0.17583793768236214, 0.07869804987176046, -1.2511221425104588], [-0.07789455930371725, 0.3013654832745788, -1.256925761262939]]]" REF_nacs="_JSON [[[-0.5280703841461998, 5.520369794734846e-12, 3.151412108081911e-12], [-0.4318858357088583, 3.975068212238435e-12, -2.1634063608109324e-11], [0.41887303926059694, -1.2221835975808984e-11, -1.7709602507301057e-11]], [[-0.528082272201933, -1.509841002770827e-11, -4.702595181939153e-12], [0.431867252279295, -1.876751089288852e-12, 2.2574327250443315e-11], [0.41892307397922884, 4.497588748290435e-12, 3.732803695246138e-11]], [[0.022182619208806494, -0.013112838591043277, -0.06993091565686393], [0.01150774903167205, -0.01103342850950618, -0.05596655385139593], [-0.04385358446549323, 0.005982810489485413, 0.04786630225533845]], [[0.02217243642734873, -0.006635532781883754, 0.07088197621815975], [-0.011498457339814042, 0.005847659987456978, -0.056743027127947265], [-0.043819057384440106, 0.0015372549294598143, -0.04822993068294056]], [[0.02217243642620771, 0.006635532787158509, -0.07088197620923703], [-0.011498457336893244, -0.005847659987292459, 0.05674302711729696], [-0.0438190573706007, -0.0015372549223530967, 0.04822993066400286]], [[0.02218261920791454, 0.013112838591094885, 0.06993091564734047], [0.011507749030985212, 0.011033428507243688, 0.05596655386110364], [-0.04385358446544522, -0.005982810485958504, -0.04786630225454269]]]" REF_dip_perm="_JSON [[-6.023270289238848e-10, 1.1200646997710441e-11, 2.0729701684325562e-11], [-5.775102642604695e-10, 9.213223881292964e-12, 1.301131312420141e-11], [1.2095049858398633e-05, 7.956146490037074e-12, 1.4513643441409511e-11]]" REF_dip_trans="_JSON [[0.7877962682770611, 3.775784534301201e-12, 2.597140819983308e-12], [0.0, 0.0, 0.0], [-1.150496900198761, -5.514150414460218e-12, -3.792888266719403e-12]]" pbc="F F F"
C        0.00000000       0.00000000       0.00000000
C        1.33518033       0.00000000       0.00000000
H       -0.56503637       0.92382805       0.00000000
H        1.90021670      -0.91993640       0.08470710
H        1.90021670       0.91993640      -0.08470710
H       -0.56503637      -0.92382805      -0.00000000
6
Properties=species:S:1:pos:R:3 REF_energy="_JSON [[-2117.9144846286545, -2114.472851926822, -2112.9809460546153]]" REF_forces="_JSON [[[-27.244397263643314, -6.587811175326464e-10, 4.2253012040395934e-10], [-24.546820853858424, 8.865564736841071e-10, -3.73569875992208e-10], [-26.820326897532972, 6.155887456451407e-09, -2.232419921980729e-09]], [[27.24439680326628, 1.4146809619212757e-09, -6.250874046344976e-10], [24.546820803060875, 1.4803364095510297e-09, 1.4253924200531776e-09], [26.820326828674045, 1.5405401922300394e-09, 7.323979856974115e-09]], [[-0.9191671329732687, 0.2211584965067393, 2.7045906068829635], [-1.4335222018551066, 0.372158439245251, -0.6325702156734581], [-1.6145916319366351, 0.5105055797388707, -4.004758868696451]], [[0.9191673632432803, 2.6471242630198644, -0.5970386620297501], [1.433522227318841, -0.49247853097190414, 0.5441616691299239], [1.6145916664066515, -3.6692894394347486, 1.6837531631107172]], [[0.9191673631567782, -2.6471242633936822, 0.5970386622229634], [1.4335222277786674, 0.4924785301831606, -0.544161670170218], [1.6145916694362237, 3.6692894373101326, -1.683753168136854]], [[-0.9191671330483964, -0.22115849688921915, -2.7045906068733885], [-1.4335222024449588, -0.37215844082292066, 0.6325702156618109], [-1.6145916350453662, -0.5105055853110106, 4.004758868631082]]]" REF_nacs="_JSON [[[-0.3848884085085204, 3.487698073881399e-11, 4.2986240494820986e-11], [0.5267623336168951, -4.227700326823803e-12, 2.056901149216185e-11], [-1.2105574924915774, 3.150307329344658e-11, 2.325741393701651e-12]], [[-0.3848884294464364, -5.813925157105027e-11, -2.8989216980951215e-11], [-0.5267623008820859, 1.1251267371994899e-11, -4.360960524726984e-12], [-1.2105564173583656, -8.134662946529467e-11, 3.6769003180325405e-11]], [[0.1774564929563318, -0.07837562860012319, 0.23121223303245056], [-0.010514665534374409, -0.0002509667508358696, 0.37310604577463086], [0.5964294470538566, -0.2728197036793195, 0.1365287724276075]], [[0.1774564855474368, -0.1972328967626062, 0.14387848197193526], [0.010514649136708624, 0.35598757877381104, -0.11171851637329111], [0.5964298323281236, -0.04877725795753047, 0.30115042811294535]], [[0.17745648554947752, 0.19723289677546202, -0.1438784819802321], [0.01051464915216477, -0.35598757877860715, 0.11171851636058402], [0.5964298323591719, 0.04877725800246646, -0.30115042814320175]], [[0.177456492967334, 0.07837562861093961, -0.23121223303495067], [-0.010514665538394611, 0.0002509667485941385, -0.3731060457781325], [0.5964294470802957, 0.27281970368447656, -0.13652877243456923]]]" REF_dip_perm="_JSON [[5.127410068209683e-10, 5.389943123919137e-11, 1.5946853239588635e-11], [2.1491901142654119e-10, 7.272436295786603e-11, 2.9245058156627185e-11], [9.919627257995718e-10, 6.774019059174048e-11, 2.3205340514968785e-11]]" REF_dip_trans="_JSON [[0.13657547698119277, -1.3756569983646034e-12, 5.071707962843211e-13], [0.0, 0.0, 0.0], [0.23132473379252128, -2.3299702955897813e-12, 8.589612789954476e-13]]" pbc="F F F"
C        0.00000000       0.00000000       0.00000000
C        1.11951507       0.00000000       0.00000000
H       -0.56503637       0.92382805       0.00000000
H        1.68455144       0.27602724       0.88162760
H        1.68455144      -0.27602724      -0.88162760
H       -0.56503637      -0.92382805      -0.00000000
6
Properties=species:S:1:pos:R:3 REF_energy="_JSON [[-2120.7545263755765, -2114.03651517501, -2109.3613745620887]]" REF_forces="_JSON [[[-21.260882557031863, -1.223790356448878e-10, -8.755333132640068e-11], [-20.503705017734077, -2.10169003906218e-12, -9.394935787376295e-11], [-26.62569172028503, -1.295395916254407e-10, -9.1661127420514e-11]], [[21.26089419588309, 1.5205535929426847e-10, -5.541904576482423e-11], [20.503768362366763, 2.8257253681430333e-10, -1.4949464692403235e-10], [26.625786549416855, 1.6202050151414207e-10, -7.188434374829756e-11]], [[-0.5381415929941286, 0.04449083254267624, -1.8109784259070367], [-1.4086196676244942, 0.3833543119552247, 1.6000995211390325], [-1.8361958259243065, 0.6072226881173758, 5.011057405731257]], [[0.5381357735883584, -1.27621515032625, -1.2857210518552322], [1.4085879954010878, 0.8205157924016333, 1.426203489737141], [1.8361484113838726, 3.000709566018917, 4.058977395224208]], [[0.5381357735589656, 1.2762151502455483, 1.2857210519354096], [1.408587995301941, -0.8205157925927024, -1.4262034895535076], [1.836148411339125, -3.000709566113893, -4.058977395124958]], [[-0.5381415930069069, -0.044490832491797645, 1.810978425970003], [-1.4086196677118756, -0.3833543120450616, -1.600099521078524], [-1.836195825930868, -0.6072226880548312, -5.0110574056666355]]]" REF_nacs="_JSON [[[0.34162794700431093, -7.648855174947842e-10, -1.9675630889598344e-10], [0.3568896096921633, -4.914511019631451e-12, 1.464018255471403e-10], [0.37075057740307554, -6.699231712770997e-10, 9.880987486250632e-10]], [[0.34157096925520514, 1.4917543574841736e-10, -2.2951474704029892e-10], [-0.356888908991824, -3.835474236931409e-11, 8.487386357814886e-11], [0.3707273337602344, -3.315390600810863e-11, 3.2061817649537345e-10]], [[-0.12034751507270469, 0.05866078585125754, 0.2078649313121557], [-0.013973577868145931, 0.00716371576465801, -0.06233830722488351], [-0.1452059390605395, 0.07988924710041359, 0.165416123130878]], [[-0.12034790555750727, -0.10015427422279542, -0.1913604339791714], [0.013973227599668245, -0.04802284976253142, -0.040393345199728786], [-0.1452312752002877, -0.055558701558912404, -0.1751105446674795]], [[-0.12034791086944806, 0.10015426934477187, 0.19136043525001412], [0.013973231056777157, 0.04802285187146124, 0.040393343599578996], [-0.14523127233299962, 0.05555870190716493, 0.17511054098471546]], [[-0.1203475082063081, -0.05866078035586215, -0.2078649321573017], [-0.013973581488391118, -0.007163717830317203, 0.06233830859375746], [-0.14520594271070236, -0.0798892467442569, -0.1654161207572824]]]" REF_dip_perm="_JSON [[-1.3145806664239721e-11, -3.1451918101528214e-12, 5.268774021284004e-13], [1.0914587982211006e-11, -6.504407396094157e-12, 1.4509063166052168e-12], [1.9772632328975557e-05, -5.217974603684395e-12, 1.0032884975922715e-12]]" REF_dip_trans="_JSON [[-0.247128472012404, -1.2666601828028895e-12, 3.9323159892859784e-13], [0.0, 0.0, 0.0], [-0.3105320072452864, -1.5917852956961103e-12, 4.942530360511079e-13]]" pbc="F F F"
C        0.00000000       0.00000000       0.00000000
C        1.14439198       0.00000000       0.00000000
H       -0.56503637       0.92382805       0.00000000
H        1.70942835      -0.67139955       0.63457144
H        1.70942835       0.67139955      -0.63457144
H       -0.56503637      -0.92382805      -0.00000000
6
Properties=species:S:1:pos:R:3 REF_energy="_JSON [[-2121.497200475721, -2116.81049856122, -2115.645938043698]]" REF_forces="_JSON [[[1.0740049996158385, 9.487518447881598e-11, 1.3749214510595e-10], [4.552347019065658, 2.8722129354096e-10, 8.751338996408145e-11], [1.5964272192810294, 8.952783415210068e-11, 1.6035268443854923e-10]], [[-1.0740155996690937, 3.346414943287837e-10, 5.411494863002511e-10], [-4.552317838877735, 3.940675956103054e-10, 7.765099640785868e-10], [-1.596500537639197, 3.2786698761818824e-10, 4.780953898557199e-10]], [[0.02084512251739518, 0.06935849964400675, 1.6192928229289612], [-0.5557759445192335, 0.23472639592288413, -0.6697699254942803], [-0.5852737240310135, 0.23624960949396084, -2.729388674936983]], [[-0.020839822417920543, 1.5052049180464224, -0.6009249255605015], [0.5557613544947637, -0.5145412223118301, 0.4887532541350012], [0.5853103832942135, -2.3922624850360164, 1.3351430365123813]], [[-0.020839822520728166, -1.5052049184128922, 0.600924924936073], [0.555761354472097, 0.5145412218584314, -0.4887532549386906], [0.5853103831564435, 2.3922624846776404, -1.3351430370922628]], [[0.020845122472305536, -0.06935849970682859, -1.6192928229833503], [-0.5557759446367586, -0.2347263961511986, 0.669769925433957], [-0.5852737240602366, -0.23624960955292346, 2.7293886748785208]]]" REF_nacs="_JSON [[[0.2430909849686824, 5.633515764693442e-12, 4.011922240056055e-11], [0.6520764748898266, 2.395324354806262e-13, 1.7623208474715964e-12], [0.936684209681199, 4.278694273750123e-12, -5.555665144380854e-12]], [[0.24300014783890736, 8.635611165663402e-12, -2.5067490839269924e-11], [-0.6520728614365204, -6.004914570520473e-13, -6.841361444870895e-13], [0.9366833479370897, -2.0110458990377714e-11, -2.135907713253784e-11]], [[-0.06699203135046772, 0.01108201809822024, -0.17687928524917954], [-0.021339260085288723, 0.01269740867757672, 0.28973005041704325], [-0.44348435481012355, 0.03909830799147183, -0.08057850956870671]], [[-0.06701253844310996, 0.1567635264249263, -0.08267870677515769], [0.021337453337593213, 0.26944337756117415, -0.10727210968882063], [-0.44348772299070927, 0.05743221414769668, -0.06865856261213305]], [[-0.06701253842672907, -0.15676352643997174, 0.08267870675714671], [0.02133745333633995, -0.2694433775599647, 0.10727210968820912], [-0.44348772298809574, -0.05743221412714023, 0.06865856263055391]], [[-0.0669920313547897, -0.011082018096708193, 0.17687928525155813], [-0.02133926008643295, -0.012697408678424565, -0.2897300504175081], [-0.44348435481196413, -0.03909830799588037, 0.08057850957695972]]]" REF_dip_perm="_JSON [[-3.339020735502148e-10, -9.353130474026312e-14, -2.48396660402021e-12], [-6.765274897128214e-10, -1.0229628621953988e-12, -1.406082076403595e-12], [5.689326576821749e-06, -1.1297665557552317e-12, -1.4560070777986203e-12]]" REF_dip_trans="_JSON [[-0.3910734401646162, -2.9673945622763214e-13, -7.545800528997135e-13], [0.0, 0.0, 0.0], [-0.8578068471599699, -6.509699226681246e-13, -1.6552137779302303e-12]]" pbc="F F F"
C        0.00000000       0.00000000       0.00000000
C        1.42606081       0.00000000       0.00000000
H       -0.56503637       0.92382805       0.00000000
H        1.99109718       0.37894391       0.84253177
H        1.99109718      -0.37894391      -0.84253177
H       -0.56503637      -0.92382805      -0.00000000
6
Properties=species:S:1:pos:R:3 REF_energy="_JSON [[-2120.7292633247916, -2116.6515127730063, -2116.414647997991]]" REF_forces="_JSON [[[1.4931738658974056, -3.4580623055059824e-09, 6.408999524335241e-11], [7.089126180271708, -4.33092798055442e-09, -1.6684398895190897e-10], [6.552407109391964, -3.364467626599195e-09, -2.498634471864121e-10]], [[-1.4930710179782367, 5.359994907255702e-10, -3.282765699518057e-09], [-7.089168952059795, 4.310880549716702e-10, -4.555506784692179e-09], [-6.55246340067079, 2.1031678684884033e-10, -3.448786296647638e-09]], [[0.1446681940091439, 0.06466221051494994, -0.688311410939897], [-0.3931802282394676, 0.24082070313726878, 0.2028713922969004], [-0.4017774427291389, 0.25803222997812436, 1.0127242512975851]], [[-0.14471961802651503, -0.6905941479800924, -0.030805612552684495], [0.3932016141576056, 0.16778837068947, 0.2665164870435383], [0.40180558835559077, 0.9675911369054135, 0.39495911624035274]], [[-0.14471962056607043, 0.690594147354178, 0.03080561591722438], [0.39320161105373874, -0.16778837109758896, -0.2665164825599665], [0.4018055857441699, -0.9675911372442849, -0.39495911271244416]], [[0.14466819666323374, -0.06466220696648896, 0.6883114107938892], [-0.39318022518244833, -0.2408206988289629, -0.20287139205849225], [-0.40177744009128613, -0.2580322264852923, -1.0127242511264836]]]" REF_nacs="_JSON [[[-0.0948162796781025, 4.793899402876481e-12, 1.5483484333783978e-11], [-0.36710950195379455, -9.071109310263598e-13, 2.4002404084724578e-11], [4.954951816958982, -5.121844866364848e-10, -1.897457338577573e-10]], [[-0.09486305737718789, -1.3703643918427424e-11, -7.620333745078766e-12], [0.3670989790016609, 2.4671496596557502e-11, 2.8940780368903447e-12], [4.955175410679531, 6.375537298077651e-11, 6.133664457499705e-10]], [[0.027669779242071556, -0.002181068714740651, -0.17560413710537737], [0.010696978025268082, -0.007000707877406347, 0.5701274532228489], [-2.474478971379714, 0.008626760836107713, 0.02771916769973256]], [[0.027636841177942094, 0.17363902203358675, 0.026284613192140403], [-0.010691716545083942, 0.5656729447164066, 0.07149077482599592], [-2.4743360437279365, -0.02622185585612396, -0.0122078353806214]], [[0.0276368411539233, -0.17363902202183645, -0.02628461318168852], [-0.010691716551428887, -0.5656729447340605, -0.07149077483403954], [-2.4743360432079027, 0.026221855927781052, 0.012207834956683547]], [[0.02766977921841086, 0.002181068706806806, 0.17560413709019376], [0.010696978030927888, 0.0070007078713048366, -0.5701274532416951], [-2.4744789708721147, -0.008626760458618064, -0.027719167699961404]]]" REF_dip_perm="_JSON [[-4.036055367155795e-10, 1.4686444738981952e-11, 2.3919447082045254e-11], [-5.917299373016713e-10, 1.3805158121362511e-11, 2.313039055457592e-11], [8.701898595946083e-06, 1.4098920327235657e-11, 2.329902796545987e-11]]" REF_dip_trans="_JSON [[0.1635548240426196, 4.3689421536380084e-13, -5.845580186974273e-13], [0.0, 0.0, 0.0], [-1.034763230113029, -2.764106908712309e-12, 3.6984597315151445e-12]]" pbc="F F F"
C        0.00000000       0.00000000       0.00000000
C        1.50340685       0.00000000       0.00000000
H       -0.56503637       0.92382805       0.00000000
H        2.06844322      -0.12704357       0.91505093
H        2.06844322       0.12704357      -0.91505093
H       -0.56503637      -0.92382805      -0.00000000
6
Properties=species:S:1:pos:R:3 REF_energy="_JSON [[-2123.1198633163935, -2113.6431813928743, -2107.1887015813995]]" REF_forces="_JSON [[[-10.507077750622715, -1.037275451343447e-11, -2.2293629298066743e-10], [-11.993523420548723, -2.4043873725404344e-10, 2.6997330230345576e-10], [-25.86894949835141, -1.6418047370502532e-10, -2.411349154348464e-10]], [[10.50701821076827, 5.060018171486922e-11, 9.248998756627356e-10], [11.993484653422517, -2.9031529678478984e-10, 5.692922127235183e-10], [25.86900202760261, -6.11126185386728e-11, 8.258892417572924e-10]], [[-0.14646277640415103, -0.06443830517192638, 0.680710176416101], [-1.0127361323899589, 0.19777341305703167, -2.222134172406278], [-0.94614075339664, 0.012657639063382697, -3.914448321435223]], [[0.14649254608438436, 0.11132653968534631, -0.6746042003989077], [1.0127555157451205, -0.3750649136420481, 2.1991620189968555], [0.9461144884933208, -0.9854117961094393, 3.788381324622658]], [[0.14649254655107202, -0.11132654006469771, 0.6746041997186092], [1.0127555160368173, 0.3750649136219981, -2.199162019845474], [0.9461144889187665, 0.9854117958411859, -3.7883813251983796]], [[-0.14646277637884883, 0.0644383055103782, -0.6807101764378423], [-1.0127361322645816, -0.19777341250611363, 2.2221341724154677], [-0.9461407532663056, -0.012657638568915094, 3.914448321426065]]]" REF_nacs="_JSON [[[-0.4474129135381608, 1.2751991298042714e-12, -8.140735033631415e-12], [0.5206730582744921, 2.0677743547683465e-13, 1.8992832339816675e-12], [-0.32819026844316823, 1.6828269137462135e-11, -1.4935727439762311e-12]], [[-0.4474424863383185, 1.8071292684776338e-12, 4.1955471957087266e-12], [-0.5206785766579838, -1.3251128672301946e-11, 1.6566786096319463e-11], [-0.32820735224327063, -2.1384889625284918e-11, -1.8999955978402853e-11]], [[0.06116135924705206, -0.030939675716834706, 0.18304222506300916], [-0.031589701673982194, 0.01979534346966524, -0.016653395897120494], [0.03591707916802535, -0.024706508395506966, 0.14433831412889347]], [[0.06115629293265023, -0.016729750785809707, 0.18488227070096852], [0.031592460836746675, 0.014896461949026267, 0.021148295504443436], [0.03591399468392831, -0.01289126495030093, 0.14587256370981178]], [[0.061156292936672324, 0.016729750794597667, -0.1848822707012382], [0.031592460830865095, -0.014896461937765634, -0.02114829552253794], [0.035913994683529384, 0.01289126497150997, -0.14587256369358242]], [[0.061161359249914615, 0.0309396757102543, -0.18304222505614057], [-0.03158970167295966, -0.019795343467881338, 0.01665339589675077], [0.03591707916956604, 0.024706508383025703, -0.14433831412254491]]]" REF_dip_perm="_JSON [[2.1485655312621377e-10, 2.3946512345520454e-12, -2.7304686959789666e-12], [3.56053950732995e-10, -8.75353079088339e-12, -4.67313003049515e-12], [-9.530512046956094e-06, -2.7652371498278794e-12, -2.6188765327273673e-12]]" REF_dip_trans="_JSON [[0.5668167071170777, -2.042184778649254e-12, -1.2393412135119632e-13], [0.0, 0.0, 0.0], [0.7188026462820974, -2.589779568101457e-12, -1.5720157642866557e-13]]" pbc="F F F"
C        0.00000000       0.00000000       0.00000000
C        1.22204665       0.00000000       0.00000000
H       -0.56503637       0.92382805       0.00000000
H        1.78708302       0.89332879       0.23541864
H        1.78708302      -0.89332879      -0.23541864
H       -0.56503637      -0.92382805      -0.00000000
6
Properties=species:S:1:pos:R:3 REF_energy="_JSON [[-2123.0852871687416, -2114.213337754649, -2108.279284680647]]" REF_forces="_JSON [[[-9.126230192346538, -1.3094315104369613e-09, -4.811790420549778e-10], [-10.254088022716145, -4.05334353067864e-10, 5.135538782258376e-10], [-22.094439621572384, -1.2193063457934399e-09, -3.302094947543195e-10]], [[9.126105864485185, 4.699294777055799e-10, -4.411230461321996e-11], [10.254090366741552, 7.070836030495374e-10, -1.538190087080634e-09], [22.09445912632321, 5.606655384028283e-10, -1.1739195534161553e-10]], [[-0.15111887838939406, -0.0430577161129637, -0.8793952523251697], [-1.0109446002941866, 0.22628855127283706, 2.0716374169334912], [-1.0645863095591768, 0.13174866560687895, 4.170750161692651]], [[0.15118104174751815, -0.2721142098511788, -0.8373779686374437], [1.010943428063535, 0.5241386365941532, 2.016974784374244], [1.064576556770043, 1.3577547841749742, 3.945719521242204]], [[0.15118104252613412, 0.27211420992697133, 0.8373779686780465], [1.0109434285185122, -0.5241386370947162, -2.0169747840530206], [1.064576557424034, -1.3577547842239588, -3.945719521154993]], [[-0.1511188780215751, 0.04305771687746683, 0.8793952528098431], [-1.0109446003135985, -0.22628855107361617, -2.071637416230032], [-1.06458630938464, -0.13174866489973963, -4.170750161332142]]]" REF_nacs="_JSON [[[0.41685325282379976, -3.7299479735711064e-11, -6.4373248680834e-11], [0.4812577506684312, 1.825128459180964e-11, -1.267068869990687e-11], [0.32185085805776337, 2.8147493427791205e-11, 4.1206708364124685e-11]], [[0.41668390600492505, 3.162002399401767e-11, 3.3030996008093136e-11], [-0.4812625172631932, -2.1461815989656932e-12, -1.7373742911805195e-11], [0.322145245525935, 4.661179981726415e-12, 5.371357268256786e-12]], [[-0.0683861385607084, 0.03245685843699181, 0.18417508015937764], [-0.027324456674927756, 0.017042664764129363, -0.002382654185408252], [-0.05144276528321382, 0.029909997837918065, 0.14408765982725796]], [[-0.06836334010029388, -0.03508045432082062, -0.1836636062662279], [0.02732683996649384, -0.016777651842408085, 0.003825314612657847], [-0.05146340288444568, -0.02319133703573453, -0.14531045420647648]], [[-0.06836334006037038, 0.03508045435958683, 0.183663606260503], [0.027326839964333504, 0.016777651839075966, -0.0038253146059065357], [-0.05146340288478848, 0.023191337054565463, 0.1453104541993783]], [[-0.06838613856749401, -0.0324568584736508, -0.1841750801114175], [-0.027324456684403788, -0.01704266477690257, 0.00238265420870147], [-0.051442765280106925, -0.029909997892353705, -0.14408765985822472]]]" REF_dip_perm="_JSON [[5.192366700550166e-10, 8.191822476605749e-12, 2.9136797102726373e-12], [6.153599942588663e-10, 3.6173765606278726e-11, -1.1693651181627954e-12], [-8.545336456458763e-06, 2.276605046933283e-11, 6.865624566320883e-13]]" REF_dip_trans="_JSON [[-0.5245539512033713, -5.029040430814308e-14, -6.353797481993496e-12], [0.0, 0.0, 0.0], [-0.6704270543113228, -6.434645493729766e-14, -8.120761993065797e-12]]" pbc="F F F"
C        0.00000000       0.00000000       0.00000000
C        1.23363386       0.00000000       0.00000000
H       -0.56503637       0.92382805       0.00000000
H        1.79867023      -0.86362727       0.32803384
H        1.79867023       0.86362727      -0.32803384
H       -0.56503637      -0.92382805      -0.00000000
6
Properties=species:S:1:pos:R:3 REF_energy="_JSON [[-2120.668106006816, -2116.808321650338, -2116.668526420004]]" REF_forces="_JSON [[[0.650496709825402, -1.7615251767586281e-10, 1.585416714715364e-11], [6.5985313700609876, -1.9156368660204938e-11, 3.1043760026673824e-11], [6.406963691052436, -1.3172456221123835e-10, -1.5637861575666903e-11]], [[-0.6504421896378326, 1.0163865108680537e-10, -2.895396387067829e-10], [-6.598553386533735, 1.0782572981617412e-10, -3.3632425765460003e-10], [-6.406995458592366, 1.2953964647968805e-10, -6.009027217745853e-11]], [[0.09746435947546514, 0.06262713561058643, 0.16565944551614145], [-0.4414656619216899, 0.2417781957803831, -0.04351790234913836], [-0.4515613563303438, 0.2645434730299846, -0.23644802608154059]], [[-0.09749161938029323, 0.16727420363789516, 0.05773721496922839], [0.4414766703945305, -0.03649535224303746, 0.2429731316073571], [0.45157724025304874, -0.22872634163500621, 0.2712842069744082]], [[-0.09749161978581485, -0.1672742036189636, -0.05773721469432858], [0.44147666996552243, 0.036495352237865784, -0.24297313129206063], [0.45157723994204546, 0.22872634162556357, -0.2712842068873573]], [[0.09746435950390771, -0.06262713555493542, -0.16565944551723366], [-0.44146566196672277, -0.2417781958635974, 0.043517902338960544], [-0.45156135632619915, -0.2645434730184748, 0.23644802606983795]]]" REF_nacs="_JSON [[[-0.021529863463011334, -3.733368979874517e-12, 6.798435674731084e-13], [-0.08939111727789016, -1.6892974075740027e-14, -1.8801009735282056e-12], [8.536090825508415, 3.5330458519037386e-11, 6.666920741556965e-11]], [[-0.02136001705269742, -7.834210982356515e-14, -2.4689549397673072e-12], [0.08937731522319846, 1.1405769837855578e-12, 6.943626757970847e-13], [8.536233345226357, 2.192692620649649e-11, -4.953501873350899e-11]], [[0.006578565506972048, -0.0005778493567957108, 0.18348050280925465], [0.002593339026354137, -0.0016750141940601996, -0.6690684419297076], [-4.2679940420113125, 0.12128782915244732, -0.006656235713353548]], [[0.006664577608763247, -0.18338771084347674, 0.0058999878313525525], [-0.002586437913241634, -0.6688425027071632, 0.017545802615678847], [-4.26787587128022, 0.002879355723167917, -0.12130861314053003]], [[0.006664577606370571, 0.1833877108454594, -0.00589998783001285], [-0.0025864379151761276, 0.6688425027070725, -0.017545802615265622], [-4.267875870998197, -0.0028793557581124115, 0.12130861314967534]], [[0.00657856550646118, 0.0005778493577742204, -0.18348050280864447], [0.0025933390254627153, 0.0016750141930303292, 0.6690684419304899], [-4.267994042027697, -0.12128782917449737, 0.006656235686963901]]]" REF_dip_perm="_JSON [[2.6736316426810437e-10, 1.6755688228828306e-13, -3.66359570287014e-12], [-2.0379310619488914e-08, 1.736673860036458e-13, -3.687121662660122e-12], [5.268774021284004e-06, 2.3640466673916256e-13, -3.837646166449127e-12]]" REF_dip_trans="_JSON [[0.035758569813957905, -3.256290827473594e-14, 3.1470516699165305e-14], [0.0, 0.0, 0.0], [-1.0038070935595949, 9.135698429503415e-13, -8.833427273810407e-13]]" pbc="F F F"
C        0.00000000       0.00000000       0.00000000
C        1.48151645       0.00000000       0.00000000
H       -0.56503637       0.92382805       0.00000000
H        2.04655282       0.02650606       0.92344772
H        2.04655282      -0.02650606      -0.92344772
H       -0.56503637      -0.92382805      -0.00000000
6
Properties=species:S:1:pos:R:3 REF_energy="_JSON [[-2121.839875636837, -2116.710380252848, -2115.066893082679]]" REF_forces="_JSON [[[1.0817782005236012, 1.2861901794278464e-08, 1.446788903522958e-08], [3.744072289917232, 3.505831440014461e-08, 3.644194035625641e-08], [-0.2017077173016506, -1.7781553557715857e-08, -1.1369918682555713e-07]], [[-1.0817796219635618, -1.3326411505629697e-08, -1.84529464896396e-08], [-3.7440729340498984, -1.8694416519560023e-08, -5.0922799898044584e-08], [0.20170663093955635, -1.9540573451344072e-08, -2.0532580691990704e-08]], [[0.01391765416817335, 0.06426330483920382, -1.669605706822289], [-0.5876418271230512, 0.23092642791967521, 0.8437929930249823], [-0.6306177774137455, 0.22659632046875733, 3.06644779764757]], [[-0.013916245396393996, -1.4738627885467754, -0.787045993484802], [0.5876420847468051, 0.6119467542773159, 0.6251674779183484], [0.6306191666240619, 2.533034130061798, 1.7430395637219296]], [[-0.013917026828528299, 1.4738628545816004, 0.787046207460194], [0.5876420595380366, -0.6119468109866719, -0.6251674506228364], [0.6306176132305723, -2.5330343800693527, -1.7430391106635346]], [[0.013917039497361988, -0.06426337040997195, 1.6696054968315928], [-0.5876416730281728, -0.23092638757456363, -0.8437930058394078], [-0.630617916080024, -0.2265960331390162, -3.0664481164739765]]]" REF_nacs="_JSON [[[-0.27417657970096626, 3.9360064277951e-12, 1.4214453685478946e-12], [0.6272161358619331, 1.1570664149904384e-11, 2.5352870327087232e-11], [-0.6642704788131333, -1.1773107756850845e-10, -9.92374045740945e-11]], [[-0.27417656830209103, 1.679679349345919e-11, -6.987967187010995e-11], [-0.6272161358585316, 4.069558900241821e-12, 2.5010020933262453e-11], [-0.6642706089617274, 5.24478771409614e-11, -6.528518035984038e-11]], [[0.07045723250725558, -0.013538026628244541, -0.17398771038203698], [-0.021727958589947746, 0.012726649343498922, -0.2057156637205012], [0.29697095646275573, -0.03246083441167628, -0.09173838681195894]], [[0.07045721608327392, 0.14337853286014166, 0.09948666974034223], [0.02172795842726368, -0.1840243200439887, -0.09282215896529641], [0.2969725185661523, 0.06282096581149697, 0.07431873600680731]], [[0.07045721606858206, -0.14337853291923378, -0.09948666971498342], [0.02172795843074229, 0.1840243200439099, 0.09282215894406819], [0.2969725185910173, -0.06282096585988889, -0.07431873591171687]], [[0.0704572325789773, 0.013538026681399872, 0.1739877104068442], [-0.02172795858454124, -0.012726649359061025, 0.2057156636913673], [0.29697095657262823, 0.032460834533159594, 0.09173838687176347]]]" REF_dip_perm="_JSON [[-4.022522735418194e-11, -2.979260925616395e-11, -3.1884962317131436e-11], [-1.7965089117500957e-09, -2.708816485198806e-11, -4.1742964052137467e-11], [1.8271342983439584e-09, -2.7852238059326436e-11, -4.2230138794691086e-11]]" REF_dip_trans="_JSON [[0.43659984201922236, -3.963674051806152e-12, -3.0694771748636682e-12], [0.0, 0.0, 0.0], [0.8273090839063262, -7.510807257170132e-12, -5.816311448375708e-12]]" pbc="F F F"
C        0.00000000       0.00000000       0.00000000
C        1.40996822       0.00000000       0.00000000
H       -0.56503637       0.92382805       0.00000000
H        1.97500459      -0.46618797       0.79757573
H        1.97500459       0.46618797      -0.79757573
H       -0.56503637      -0.92382805      -0.00000000
6
Properties=species:S:1:pos:R:3 REF_energy="_JSON [[-2121.46587472813, -2114.0950253693536, -2108.890567242803]]" REF_forces="_JSON [[[-18.210620557427514, 3.0420052866821774e-10, -3.295635165789409e-10], [-17.857958675821198, 3.3836831391936533e-10, -4.481957377583075e-10], [-25.261798564955566, 3.926229572935502e-10, -4.17114079915836e-10]], [[18.210620577766125, -1.7119891407408997e-10, 2.5406371621721855e-11], [17.857958572393425, -3.132446513671621e-10, 7.946948316205831e-11], [25.26179857647488, -1.7093159199556656e-10, 1.4059852131025144e-11]], [[-0.43845750648194165, 0.014825272492178328, 1.5399618138305866], [-1.3464341135428024, 0.36331193081125324, -1.7699948438902104], [-1.738914374518445, 0.5411806356935801, -4.98821750796166]], [[0.438457495896686, 0.941965613439312, -1.2183609204257586], [1.346434164791217, -0.7795400506285104, 1.6300903900559385], [1.7389143684121158, -2.581616093573346, 4.302377118470752]], [[0.43845749638675785, -0.9419656136810522, 1.2183609204613939], [1.3464341653003213, 0.7795400504270078, -1.630090389963939], [1.7389143688608302, 2.581616093346333, -4.30237711838549]], [[-0.43845750614032686, -0.014825272383707438, -1.5399618135618598], [-1.346434113119424, -0.3633119306351877, 1.7699948441672315], [-1.7389143742740465, -0.5411806356888544, 4.988217508279432]]]" REF_nacs="_JSON [[[-0.3481380184077097, 1.730348424318718e-11, -2.4783391356912563e-11], [0.37231001714499057, 5.349190573543778e-12, 1.2840464854881953e-12], [-0.3374080057278251, 1.5245019078486395e-11, -2.6263816909129704e-11]], [[-0.34813797567015686, -7.742300964882959e-13, 3.098012986281028e-11], [-0.37230996145774176, -2.892764553580511e-12, 9.88143651385478e-13], [-0.337407533833059, 8.204028421244126e-12, 3.971603135620479e-11]], [[0.10733132207692161, -0.05260343417192346, 0.20454572997148857], [-0.016689481280337818, 0.009581403132064155, 0.046428587602143245], [0.11506380176271573, -0.0657094067139793, 0.16437431246027412]], [[0.10733136928157688, -0.08162354190661969, 0.19479136756577747], [0.016689453421371566, 0.0356794041498325, -0.03121531883289573], [0.11506389048672457, -0.04691445525912293, 0.17069179997676986]], [[0.10733136927749602, 0.08162354189932385, -0.19479136757306237], [0.01668945342280842, -0.03567940415069534, 0.031215318832224125], [0.11506389048703543, 0.0469144552436833, -0.17069179999206568]], [[0.10733132207341599, 0.05260343416768084, -0.2045457299681173], [-0.016689481280242762, -0.009581403133657155, -0.046428587603743465], [0.11506380176145681, 0.06570940670998102, -0.1643743124565886]]]" REF_dip_perm="_JSON [[5.163635882399569e-10, 9.921292812671116e-12, -4.3350224313895576e-11], [5.095348140708291e-10, 1.4866741032593674e-11, -3.041511031609358e-11], [7.240166173950786e-10, 1.3332973370887459e-11, -3.304668670322085e-11]]" REF_dip_trans="_JSON [[0.3003275512998728, 8.970462739669414e-13, 1.278410277007766e-13], [0.0, 0.0, 0.0], [0.373660353924182, 1.1160900678482774e-12, 1.5900815355818906e-13]]" pbc="F F F"
C        0.00000000       0.00000000       0.00000000
C        1.16251937       0.00000000       0.00000000
H       -0.56503637       0.92382805       0.00000000
H        1.72755574       0.73627060       0.55799988
H        1.72755574      -0.73627060      -0.55799988
H       -0.56503637      -0.92382805      -0.00000000
6
Properties=species:S:1:pos:R:3 REF_energy="_JSON [[-2115.837443887236, -2113.001538270989, -2111.9285944085036]]" REF_forces="_JSON [[[-37.7067994355096, -1.8408899259643245e-10, 4.371290786073751e-10], [-34.88748955135487, -3.545183847841381e-10, 4.4291091837406327e-10], [-36.353850236437246, -2.4140800384170706e-10, 5.666275522162111e-10]], [[37.706785559806576, 2.762337259261831e-10, 9.928023706120067e-11], [34.88749536138499, 3.0331118031124593e-10, 2.4769334594083974e-10], [36.35386108876693, 2.5803707800454065e-10, -2.335987628355152e-11]], [[-1.1755782676533033, 0.3040110452377148, -2.788924118730802], [-1.5944455794258883, 0.40746686529024845, 0.46585205776371746], [-1.7557956725633423, 0.5508933083534532, 3.770144258272387]], [[1.1755852056597484, -2.7884225125742503, -0.3083886361042125], [1.5944426745033915, 0.36635118775972003, 0.49884369765118386], [1.7557902465475697, 3.5607633875312494, 1.3558446917101399]], [[1.175585205349144, 2.7884225124735713, 0.30838863585596277], [1.5944426742708968, -0.3663511877972679, -0.49884369803606154], [1.7557902462230035, -3.560763387578429, -1.3558446919282467]], [[-1.1755782676511126, -0.30401104522947087, 2.7889241184424525], [-1.594445579378719, -0.40746686520171294, -0.46585205806958824], [-1.7557956725399504, -0.5508933083227131, -3.770144258597822]]]" REF_nacs="_JSON [[[-0.44542004486583964, -1.0059633739038355e-11, 1.1533291655424286e-10], [-0.5197354837688527, 4.9754011612534754e-12, 2.911442289461179e-13], [1.9643243588495678, 7.602849824017933e-11, -3.0612418896735855e-10]], [[-0.4453669299419164, -5.8212920944547404e-12, -1.1625338385021769e-10], [0.5197379650210264, 2.32500301639834e-12, 4.641866223867322e-13], [1.9643378234731905, -1.1140716030103575e-10, 3.828478848082188e-10]], [[0.2160693905252367, -0.1036446861727565, -0.24456385513878395], [0.004432200701058882, 0.006852358998203112, 0.5756922759416794], [-0.9786872765008264, 0.4817074565036191, 0.1290285593326757]], [[0.2161153731651298, 0.21624516043117784, 0.15427467321306826], [-0.004433441276865142, 0.5604857861237695, 0.13161160387204798], [-0.9786776484926955, -0.021432307112372588, -0.4982294952228171]], [[0.21611537318942223, -0.21624516041316305, -0.15427467319458843], [-0.0044334412816675215, -0.560485786118397, -0.1316116038702443], [-0.9786776484935552, 0.02143230715045832, 0.49822949505486397]], [[0.21606939052198637, 0.10364468616899745, 0.24456385511892667], [0.0044322006937302025, -0.0068523590108895815, -0.5756922759442702], [-0.9786872764677411, -0.4817074565054256, -0.12902855924029777]]]" REF_dip_perm="_JSON [[1.1056784712623025e-09, -1.036703688267424e-12, 1.0386190761441305e-10], [4.067284517319489e-10, -1.7647592757503404e-11, 1.0012690125483527e-10], [2.8464329402534835e-06, -1.0913963399207732e-11, 9.94086308010703e-11]]" REF_dip_trans="_JSON [[0.06888213229435594, 1.5184059588154357e-13, -3.5853944480972246e-12], [0.0, 0.0, 0.0], [-0.13060915157252723, -2.8808294099172455e-13, 6.798310889791134e-12]]" pbc="F F F"
C        0.00000000       0.00000000       0.00000000
C        1.07164090       0.00000000       0.00000000
H       -0.56503637       0.92382805       0.00000000
H        1.63667727      -0.20045973       0.90181714
H        1.63667727       0.20045973      -0.90181714
H       -0.56503637      -0.92382805      -0.00000000
6
Properties=species:S:1:pos:R:3 REF_energy="_JSON [[-2123.8141278165726, -2114.586692392938, -2110.0344277868626]]" REF_forces="_JSON [[[1.690581514910316, 1.9705950997649112e-11, -3.933925622911281e-10], [-2.301773684435605, -8.700702449405205e-10, 6.654981975506734e-11], [-13.225150883294909, -6.567056074728036e-10, -2.484613769625428e-10]], [[-1.6905245094834458, 1.8892518034393355e-09, 1.3848205256340138e-09], [2.3013967701419746, 2.3712565539814135e-09, 1.60885914645175e-09], [13.225234926454048, 2.0010759660560966e-09, 1.3951690195082755e-09]], [[0.13947754537456092, -0.014192258295576033, 0.6293464642996813], [-0.17714347869223213, -0.00747366944354427, -1.3511293783198424], [-0.08069388358158364, -0.2004861406099377, -1.7425616119528535]], [[-0.13950604859029717, 0.09399510655140636, -0.6225295952986547], [0.17733193560752297, -0.23895131975782907, 1.3295372798460885], [0.08065186136101117, -0.49682448841065946, 1.6821806305840552]], [[-0.13950604709810283, -0.09399510826291788, 0.6225295942871159], [0.1773319366729244, 0.23895131817908571, -1.3295372812915833], [0.08065186272815578, 0.4968244865572451, -1.682180631661183]], [[0.1394775448878459, 0.014192258098707009, -0.6293464642795495], [-0.17714347929462262, 0.007473669520935406, 1.3511293780899805], [-0.0806938836669674, 0.20048614111950006, 1.7425616118831353]]]" REF_nacs="_JSON [[[-0.49966444835125196, -1.1809977201916743e-11, 5.555417567917176e-11], [0.4684247051619945, -5.209307422402579e-11, 7.284178980460743e-12], [-0.405539723431748, 2.042415101884041e-12, 5.590279822063445e-11]], [[-0.49963978503731776, -2.8191797104074842e-11, -4.010504789209955e-11], [-0.4684139660395332, 4.074926763964171e-11, 3.6512186865153786e-11], [-0.40542979343715124, -4.0639961195728024e-11, -1.1722557674449773e-10]], [[0.02896484786173903, -0.012523661169774063, 0.08819296594126394], [-0.0151523605000747, 0.012461373092119265, -0.03994080907101995], [0.056011159561537814, -0.004033772465470732, 0.058595458077954965]], [[0.028972393022155984, -0.002798509925360722, 0.08903038464283827], [0.015146990955386614, 0.0054086568228635295, 0.04148330432843056], [0.05600674844731747, -0.006086930185435382, 0.058403782413126305]], [[0.02897239303335129, 0.0027985099653829856, -0.08903038471634579], [0.015146990949166278, -0.0054086568350449876, -0.041483304362584524], [0.05600674848365558, 0.006086930225448877, -0.05840378240806222]], [[0.02896484785475026, 0.012523661170922108, -0.08819296588129688], [-0.015152360503779435, -0.01246137306859342, 0.03994080906137686], [0.05601115956927435, 0.004033772464828848, -0.0585954580204266]]]" REF_dip_perm="_JSON [[4.569449251951686e-10, 2.0273131508932358e-11, 1.2242867835840118e-11], [5.213186133992629e-10, 2.170634130711148e-11, -2.154603166960452e-13], [-3.7587405137021937e-06, 2.1119233284034038e-11, 6.5150253071498145e-12]]" REF_dip_trans="_JSON [[0.7690467735669172, 2.4867780604550537e-12, 1.0370376337640323e-12], [0.0, 0.0, 0.0], [1.1575392540182101, 3.7430173787047384e-12, 1.5609155949482497e-12]]" pbc="F F F"
C        0.00000000       0.00000000       0.00000000
C        1.38508929       0.00000000       0.00000000
H       -0.56503637       0.92382805       0.00000000
H        1.95012566       0.91010424       0.15864593
H        1.95012566      -0.91010424      -0.15864593
H       -0.56503637      -0.92382805      -0.00000000
6
Properties=species:S:1:pos:R:3 REF_energy="_JSON [[-2122.413201036628, -2114.8901227489014, -2112.373978129827]]" REF_forces="_JSON [[[6.272659042228324, -5.3280167204697234e-09, -7.959738178910492e-10], [5.701359774266059, 7.65954822629256e-09, 1.943084672258805e-09], [-0.6761877831329896, 1.064351148466243e-09, 1.0275520776304936e-09]], [[-6.272659003652261, 1.3664533869904496e-08, -8.465020556908587e-09], [-5.701359665779999, 1.013268732562253e-08, -1.5380221727717009e-09], [0.6761879473582258, 6.741981944392499e-09, -2.022254821465417e-09]], [[0.37426758401683835, 0.06825386428117122, -0.8882130034906282], [-0.021046136327666904, 0.14281572235823078, 1.0617088887204018], [0.012235956600822896, 0.05320360197910137, 2.0889084490551233]], [[-0.37426760016488286, -0.47300828774721226, -0.7548801705805605], [0.021046087404914208, 0.3666762385003286, 1.0065637737348903], [-0.01223603641663293, 0.9231566271448302, 1.874606882004723]], [[-0.37426761401430225, 0.4730082732483717, 0.7548801791466951], [0.021046077885368403, -0.3666762470564011, -1.0065637715066384], [-0.01223604273225578, -0.9231566313910691, -1.8746068803962976]], [[0.37426759158538037, -0.06825385811849256, 0.8882130041852632], [-0.02104613745108321, -0.14281573159440483, -1.0617088913536334], [0.012235958322713283, -0.05320360553879757, -2.088908449668568]]]" REF_nacs="_JSON [[[0.4063112848993043, -1.1720088529272193e-10, -8.865619469444761e-11], [0.5400992696083506, 1.0636502712307701e-10, 1.2835177280693058e-10], [0.525763486078361, -4.4326866981252063e-10, -4.5675805932055165e-10]], [[0.4063114239818829, 5.091492080860072e-11, 1.847366013616433e-10], [-0.5400992585527385, -7.183813337775469e-11, 1.0361858276805964e-10], [0.525762673881236, -2.357125232632308e-08, 1.12720106479491e-08]], [[-0.04408737922629174, 0.005323018499063127, 0.10080253234711484], [-0.01613089394108535, 0.012140540221899076, -0.030116325620561355], [-0.17580161961355747, -0.018414428682491667, 0.0551807604268508]], [[-0.044087571976208904, -0.04210749752234012, -0.09174119114085949], [0.016130888317455377, -0.024740072258911394, -0.02103127214559354], [-0.17580134877094986, -0.04193827972930726, -0.04031367485289926]], [[-0.04408757199339653, 0.04210749755240529, 0.09174119125916087], [0.016130888324538337, 0.024740072302684067, 0.021031272033867638], [-0.1758011833211484, 0.041938307646014, 0.04031368731056895]], [[-0.04408737928034225, -0.005323018485315521, -0.10080253250028016], [-0.01613089395431961, -0.012140540300198158, 0.03011632550031562], [-0.17580146658340673, 0.0184144247679994, -0.055180783666249726]]]" REF_dip_perm="_JSON [[-1.6559569165800308e-10, -3.428336104970313e-11, 8.585726157337142e-11], [-8.613207809481192e-10, -4.1193331009256454e-11, 5.623120778474717e-12], [5.662261313346547e-10, -3.645899184444047e-11, 2.580776969527661e-11]]" REF_dip_trans="_JSON [[-0.6969658682242589, 2.2299832353398108e-11, -1.927938795039124e-11], [0.0, 0.0, 0.0], [-1.2731388993918227, 4.0734786881304243e-11, -3.521738499039144e-11]]" pbc="F F F"
C        0.00000000       0.00000000       0.00000000
C        1.57254253       0.00000000       0.00000000
H       -0.56503637       0.92382805       0.00000000
H        2.13757890      -0.81812319       0.42910688
H        2.13757890       0.81812319      -0.42910688
H       -0.56503637      -0.92382805      -0.00000000
6
Properties=species:S:1:pos:R:3 REF_energy="_JSON [[-2121.985032326559, -2116.066895192243, -2112.849208932025]]" REF_forces="_JSON [[[-7.298878391646416, 7.933378749076433e-10, -8.729987049577718e-10], [-6.117849590065576, 1.162707436910904e-09, -1.1223346287946642e-09], [-11.951521369398424, 6.47406329363354e-10, -9.540778955579349e-10]], [[7.298752811953918, -7.331496675569155e-10, 4.496892731738077e-10], [6.117829814730549, -7.334049179516402e-10, 9.838056981255132e-10], [11.951474303029917, -8.012280962807038e-10, 4.6087808267112496e-10]], [[-0.2777351979586331, 0.056783112673137105, 1.855646887676226], [-1.0055996386688373, 0.27836533183532514, -1.2769525146199343], [-1.1895649633825058, 0.33975604122794023, -4.197987258383156]], [[0.2777979876218404, 1.4618862174652962, -1.144245058508669], [1.0056095261031521, -0.8026652636849401, 1.0314550962323406], [1.1895884963793573, -3.0070745694391166, 2.9489182714374267]], [[0.2777979878640959, -1.4618862171026936, 1.144245058231648], [1.0056095265386713, 0.8026652639071656, -1.03145509680998], [1.189588496573455, 3.007074569884622, -2.9489182716620537]], [[-0.2777351978346334, -0.05678311309683643, -1.8556468869757186], [-1.0055996386391772, -0.27836533248674394, 1.2769525153356678], [-1.1895649632016183, -0.3397560415192823, 4.197987259101121]]]" REF_nacs="_JSON [[[-0.3236524004489809, 2.1661794038602853e-11, -1.1115300672243361e-11], [-0.4867740789056614, -8.341631831762738e-12, 1.4638971643629144e-12], [0.41876172503931886, 1.2874746212499738e-11, 1.571754044459247e-11]], [[-0.32372105644766663, -6.123252807092955e-12, 2.0729289145814638e-11], [0.4867706676273316, 3.9202847001345774e-12, -8.611320711388464e-12], [0.4188345398841474, -1.7535592569703922e-11, -3.3478550334680914e-11]], [[0.09469062423149993, -0.03373496172145177, 0.19363389116786087], [0.019289659564586118, -0.010056659808250646, -0.1018046971550731], [-0.16243742550005355, 0.057688004807968825, -0.13543098180979948]], [[0.09469227417418127, -0.12714116036259815, 0.14988318996708527], [-0.019287953943375714, -0.0846454655089865, 0.05744438108794933], [-0.1624200658270559, 0.06710431901107103, -0.13101839669906182]], [[0.09469227418643407, 0.12714116034449324, -0.14988318997365813], [-0.019287953948059208, 0.0846454655086643, -0.05744438108192319], [-0.16242006583072782, -0.06710431898585564, 0.1310183967186658]], [[0.09469062422349146, 0.033734961721326666, -0.19363389116070825], [0.019289659566985314, 0.010056659812996258, 0.10180469715619579], [-0.16243742550016693, -0.05768800482665595, 0.1354309818008335]]]" REF_dip_perm="_JSON [[7.54954295490578e-11, -1.3864909895342377e-11, -2.0039121077039078e-11], [2.427129550722287e-10, -4.725803197104579e-13, -1.022608931826877e-11], [4.2038600007020434e-05, -1.38109875627264e-12, -1.20998383280904e-11]]" REF_dip_trans="_JSON [[0.3782817945025792, 4.697100261588893e-13, -1.3223299269852157e-12], [0.0, 0.0, 0.0], [-0.5408169819038592, -6.714921927842899e-13, 1.8904139500203286e-12]]" pbc="F F F"
C        0.00000000       0.00000000       0.00000000
C        1.25836518       0.00000000       0.00000000
H       -0.56503637       0.92382805       0.00000000
H        1.82340155       0.59146418       0.70966780
H        1.82340155      -0.59146418      -0.70966780
H       -0.56503637      -0.92382805      -0.00000000
6
Properties=species:S:1:pos:R:3 REF_energy="_JSON [[-2120.78761596521, -2116.730549876397, -2115.331783952616]]" REF_forces="_JSON [[[-8.024191553792127, 3.352626143647161e-10, 6.067254722494476e-10], [-4.852496689576176, -1.4680640350261338e-10, 1.0158144269305455e-09], [-7.819491613723495, -1.0161851919904896e-09, 8.257978636934169e-10]], [[8.024191914253567, 4.780376234629156e-10, 9.623879169331695e-11], [4.852496811935545, 1.2079316487149556e-09, -1.0313511471337835e-09], [7.819491677108237, 1.2834174137040585e-09, -4.2133411628291625e-10]], [[-0.3974376823288949, 0.11391012045067114, -2.1685184960344115], [-0.976088677047501, 0.2811780486815382, 0.6835514843897001], [-1.0662040663994687, 0.3324469618593074, 3.448869493631232]], [[0.39743750224881497, -2.0674583353207887, -0.6641264578445627], [0.976088616166756, 0.5390171587883851, 0.5057313360386544], [1.0662040347516804, 3.1056242121163553, 1.5363332463917156]], [[0.39743750212714474, 2.0674583351057008, 0.664126457342853], [0.9760886156936988, -0.5390171593896788, -0.5057313358115045], [1.0662040345215666, -3.105624212535831, -1.5363332465688802]], [[-0.3974376825088197, -0.1139101210496359, 2.1685184958330734], [-0.9760886771734439, -0.2811780491420942, -0.6835514846017697], [-1.0662040662588448, -0.33244696170767657, -3.4488694938588162]]]" REF_nacs="_JSON [[[-0.28106017142964584, 2.5758532287928232e-11, 1.1529613392453653e-11], [0.6308799508546691, 6.660634920252669e-13, -8.627214996245418e-12], [-0.9343896384667145, -1.121367650646351e-10, -1.2758778949009834e-10]], [[-0.2810601743274483, -1.0616398724740032e-11, -2.2040923427207346e-11], [-0.6308799000845916, 4.8766480942525e-12, 6.694120748019532e-12], [-0.9343903849316494, 3.2782686367995844e-10, 5.311550013879754e-12]], [[0.10513120856403887, -0.032389570536172044, -0.20847487064175776], [-0.01998027932889324, 0.009117526428417436, -0.32881913263531176], [0.4482934360755799, -0.13411540299644276, -0.11128454541775447]], [[0.105131425701593, 0.183357733170665, 0.10435887785494517], [0.01998025400334835, -0.3105971161443868, -0.10832626687581556], [0.4482932264176415, 0.05636205185537687, 0.16490751485161248]], [[0.1051314257042269, -0.18335773317122703, -0.10435887784347718], [0.019980253998360793, 0.31059711613613816, 0.10832626687637663], [0.4482932263837682, -0.0563620518942835, -0.16490751472490447]], [[0.10513120856046011, 0.03238957052365904, 0.20847487063829578], [-0.019980279326260095, -0.009117526425713918, 0.32881913263669693], [0.4482934360033035, 0.1341154028207776, 0.11128454541199931]]]" REF_dip_perm="_JSON [[-6.172962015690154e-10, 1.7481661872966975e-11, 3.729593306882746e-11], [1.466749905454931e-10, 1.2988828136083551e-11, 3.2526200867159286e-11], [-1.5784045270068579e-09, 1.4452642501423094e-11, 3.389611958767332e-11]]" REF_dip_trans="_JSON [[0.28769362055531783, -8.335810774179525e-13, 2.1663135117989393e-12], [0.0, 0.0, 0.0], [0.538788243481088, -1.5611175501388893e-12, 4.056940429187659e-12]]" pbc="F F F"
C        0.00000000       0.00000000       0.00000000
C        1.26653691       0.00000000       0.00000000
H       -0.56503637       0.92382805       0.00000000
H        1.83157328      -0.32829017       0.86352987
H        1.83157328       0.32829017      -0.86352987
H       -0.56503637      -0.92382805      -0.00000000
6
Properties=species:S:1:pos:R:3 REF_energy="_JSON [[-2122.821018078975, -2114.2146724731333, -2111.319913799079]]" REF_forces="_JSON [[[7.259919916427003, -2.2796280846752927e-09, 8.681517801921415e-11], [3.361454820302393, -1.9890140037799763e-09, 2.7427591040054695e-10], [-3.6730266852621654, -2.1597379807335453e-09, 2.0849980644872176e-11]], [[-7.259571799900546, 1.2735348897912902e-09, -1.572737405823788e-10], [-3.3614574192290703, 1.914281034548675e-09, 5.092504896555646e-10], [3.672978973444828, 1.6592222438282233e-09, 1.9416820257391512e-10]], [[0.29757114183970534, 0.09717932798849631, 0.08204014711843091], [0.32075429551904233, 0.026137774970504134, -0.11949874388639886], [0.32505417187017294, -0.07876082386123887, -0.1685797639711958]], [[-0.29774519940880856, 0.09924718119064885, -0.07918346547334386], [-0.32075299537992835, 0.022686846136076615, 0.12018704918900516], [-0.32503031524367926, -0.08366133364326636, 0.16624133000839345]], [[-0.29774519867826243, -0.09924717994421496, 0.07918346548335418], [-0.3207529943930139, -0.022686845396419034, -0.12018704959325564], [-0.3250303144529719, 0.08366133467115955, -0.16624133014458528]], [[0.297571139718505, -0.0971793282290508, -0.08204014705800175], [0.3207542931803065, -0.02613777563576206, 0.11949874350711844], [0.3250541696431737, 0.07876082333338467, 0.16857976389237092]]]" REF_nacs="_JSON [[[0.4866061542785723, 3.613607731590839e-12, -5.856057213568842e-11], [0.42267634630968837, -8.818768808422448e-13, 2.3239296214646182e-11], [0.5304299198008863, -9.160533036806941e-11, -1.174511363598529e-11]], [[0.486610537664069, -1.8097777161497182e-11, 6.136146211718373e-11], [-0.42267506116288794, -3.2305312690265963e-12, 2.054887315101174e-11], [0.5304658645719239, 2.1207762698189688e-10, 2.883999146461849e-11]], [[-0.029117636443038768, 0.004770283646269078, -0.00806647523453816], [0.000923258549104911, 0.006626757028943105, -0.002188012452631281], [-0.14838551656590301, -0.019094765073581658, -0.0044046542973821086]], [[-0.029121669680252867, -0.004535654546252042, -0.00819943808238193], [-0.0009239011256893801, 0.0065842417918070655, 0.0023805416141379795], [-0.14841465487927571, 0.019175625003996097, -0.0038476082206622807]], [[-0.029121669701722988, 0.004535654556983683, 0.008199438096003927], [-0.0009239011211043584, -0.006584241797405927, -0.0023805416340850027], [-0.14841465490246794, -0.019175625105258585, 0.0038476082246845255]], [[-0.02911763646598779, -0.004770283646066122, 0.008066475225255637], [0.0009232585520702637, -0.006626757019231387, 0.0021880124287900807], [-0.14838551668200117, 0.019094765052431087, 0.004404654280159656]]]" REF_dip_perm="_JSON [[-1.2943649965513407e-10, 1.0061407599738889e-10, 5.716808228965799e-12], [-1.3025470338942288e-10, 1.0789463187221804e-10, 6.19752894715226e-13], [-8.546585622465312e-06, 1.0787797632546409e-10, 3.150188474179012e-12]]" REF_dip_trans="_JSON [[-0.7943043700764968, 1.61174855359058e-11, -1.5310749480793679e-12], [0.0, 0.0, 0.0], [-1.4562752783984516, 2.9549749795235e-11, -2.80707553728225e-12]]" pbc="F F F"
C        0.00000000       0.00000000       0.00000000
C        1.58090707       0.00000000       0.00000000
H       -0.56503637       0.92382805       0.00000000
H        2.14594344       0.92344557       0.02658095
H        2.14594344      -0.92344557      -0.02658095
H       -0.56503637      -0.92382805      -0.00000000
6
Properties=species:S:1:pos:R:3 REF_energy="_JSON [[-2123.253365097368, -2115.598733908134, -2111.7328555617564]]" REF_forces="_JSON [[[1.129346335018135, 6.805394227010895e-09, 3.9505975753815044e-09], [0.5343652754404378, -6.012961711935293e-09, 2.9911174989208204e-10], [-8.106465413565752, 7.560442007663924e-09, 4.618373746978073e-09]], [[-1.129188446201153, -7.595239819787237e-09, 3.481919317405759e-09], [-0.5344957990039448, -1.852453085502845e-08, 1.2778416031514902e-08], [8.106522221229453, -8.28660710662242e-09, 2.7128688916805065e-09]], [[0.10060235083831659, 0.005684141626620895, -1.1181595110849494], [-0.5580105486841934, 0.16825564095774623, 1.5333915899330997], [-0.5613225731230586, 0.07740510643920182, 3.3248197113576503]], [[-0.10068129056471067, -0.5687274701674305, -0.9627040582150397], [0.5580758088977668, 0.6279388654939304, 1.409085700323244], [0.561294173992019, 1.6102641505745108, 2.9097501133901704]], [[-0.10068129858387508, 0.5687274756470482, 0.9627040539764986], [0.5580758063028035, -0.6279388494337441, -1.409085710959482], [0.5612941663650156, -1.6102641445573886, -2.9097501177734335]], [[0.10060234949103941, -0.00568414631656132, 1.1181595078907958], [-0.5580105429532297, -0.16825563248064052, -1.5333915923745267], [-0.5613225748995417, -0.07740511173000288, -3.3248197143055847]]]" REF_nacs="_JSON [[[-0.39282357528936085, 1.1771322003990257e-10, 7.79195352143424e-12], [0.5231250389850397, 1.2311921105997088e-10, -2.8528493107918917e-11], [-0.36296875830898556, -1.8353689789419626e-10, -1.8206693286245882e-11]], [[-0.3928401636834163, -1.5057478301714664e-11, -1.7378767764402223e-11], [-0.523122278197372, -5.114188393732735e-11, 2.7042861435040487e-11], [-0.36298910610538726, 2.2850193847323321e-10, -2.193481749646087e-10]], [[0.05641167113806484, -0.017265623910212177, -0.15208467565233413], [-0.023724871214339412, 0.01456984548473369, -0.02690229107689309], [0.08667121467252303, -0.014472271314550466, -0.10303665794034421]], [[0.05641255353654361, 0.061792659677777986, 0.14003233326024775], [0.02372349082033563, -0.026147660191480418, -0.01587049506938965], [0.08657400181624586, 0.039520139886374206, 0.09620738824054029]], [[0.056412553609369684, -0.061792659759673046, -0.1400323334423773], [0.02372349081183564, 0.026147660208045, 0.01587049501483528], [0.08657400169129151, -0.039520140066639904, -0.09620738816381022]], [[0.05641167108612005, 0.017265623895443817, 0.15208467573325637], [-0.023724871266099953, -0.014569845573274596, 0.026902291132933673], [0.08667121476550851, 0.01447227145390573, 0.10303665802610017]]]" REF_dip_perm="_JSON [[2.9245058156627177e-10, -4.8996454663491425e-11, 2.834982251860129e-11], [2.3621729183818036e-10, 2.9422023340888115e-11, -5.185288093179729e-12], [-1.2201228968955193e-05, 1.03201931574287e-11, 1.1414046190495682e-11]]" REF_dip_trans="_JSON [[0.6084750558712575, -1.9931266644958384e-11, 4.452969652559142e-11], [0.0, 0.0, 0.0], [0.8979830869663468, -2.941443743620903e-11, 6.57165820496872e-11]]" pbc="F F F"
C        0.00000000       0.00000000       0.00000000
C        1.37750093       0.00000000       0.00000000
H       -0.56503637       0.92382805       0.00000000
H        1.94253730      -0.79770287       0.46597038
H        1.94253730       0.79770287      -0.46597038
H       -0.56503637      -0.92382805      -0.00000000
6
Properties=species:S:1:pos:R:3 REF_energy="_JSON [[-2117.6156891880723, -2111.9292951016937, -2107.885565041058]]" REF_forces="_JSON [[[-38.4992804966872, 8.362367504246985e-10, -1.3708388495795686e-10], [-37.091313968039486, 9.097148888879127e-10, -2.1565511382081065e-10], [-40.68675420491425, 8.087069375304697e-10, -1.043666147064966e-10]], [[38.49925331170556, -2.650449641697022e-10, 8.498154942182832e-11], [37.09112173357764, -2.41690012308606e-10, 1.3534819421314085e-10], [40.68682616036726, -2.9987078650787235e-10, 1.6689070860976352e-11]], [[-0.8965581660409412, 0.11717622528144203, 2.3189555891028157], [-1.6999440534380101, 0.4720192030371429, -1.3340460031659565], [-2.2549746721414814, 0.8456037928579081, -5.155118161886363]], [[0.8965717588890664, 1.9190509741386967, -1.3072081581172865], [1.7000401710859807, -0.7781018924346378, 1.1819069843495726], [2.2549386947944945, -3.598138494171764, 3.7873306843630385]], [[0.8965717586527358, -1.9190509739094055, 1.307208158215523], [1.7000401708198973, 0.7781018926912905, -1.1819069842155512], [2.2549386945429117, 3.598138494455938, -3.7873306842308274]], [[-0.8965581665211977, -0.11717622608191186, -2.318955589148905], [-1.6999440540053856, -0.4720192039620916, 1.3340460031122563], [-2.2549746726522004, -0.8456037936512993, 5.155118161842449]]]" REF_nacs="_JSON [[[0.36700823923266207, 1.560870349205462e-11, -8.292058900940418e-12], [0.2824596823667833, 2.0792643099501114e-12, 7.996992838371811e-14], [0.4888911470554166, 1.5860767264877576e-11, -1.307668383080229e-11]], [[0.3669891165795905, -1.1412840001192911e-11, 7.705275536947516e-12], [-0.2824588406131929, -5.277213812300647e-13, 1.4589632079783453e-12], [0.4888767580318891, -1.1951687649477209e-11, 1.9204234482611717e-11]], [[-0.16751599553519755, 0.09025518288142342, -0.2175182440896411], [-0.00531110850295189, 8.491124514837108e-07, 0.08965573434161121], [-0.2316778971462234, 0.13441185831125013, -0.17368237198964054]], [[-0.16752869431749928, 0.1188629318309955, -0.20330795569276994], [0.005310687612661146, 0.07147013566291828, -0.05414253774446902], [-0.23169379110973715, 0.057248726015740006, -0.2120342191836122]], [[-0.16752869430887307, -0.11886293182036939, 0.20330795568487653], [0.005310687612728496, -0.07147013566328658, 0.05414253774447356], [-0.23169379110408497, -0.0572487260050279, 0.21203421917359097]], [[-0.1675159955349685, -0.09025518289668864, 0.21751824409642712], [-0.00531110850272605, -8.491136355590915e-07, -0.08965573434314698], [-0.23167789714677897, -0.13441185832621752, 0.1736823719921862]]]" REF_dip_perm="_JSON [[8.018396596030037e-10, -2.847057523256757e-11, 2.63698943982231e-11], [9.492620678090813e-10, -1.4179907923326836e-11, 2.5720328074818265e-11], [1.5401384083396114e-05, -1.5532754708418053e-11, 2.6805020557170566e-11]]" REF_dip_trans="_JSON [[-0.0865593398765951, 2.58747361490516e-12, 4.2975970533313225e-13], [0.0, 0.0, 0.0], [-0.10841515614293806, 3.24077886539654e-12, 5.381616712049198e-13]]" pbc="F F F"
C        0.00000000       0.00000000       0.00000000
C        1.06269300       0.00000000       0.00000000
H       -0.56503637       0.92382805       0.00000000
H        1.62772937       0.55792256       0.73632919
H        1.62772937      -0.55792256      -0.73632919
H       -0.56503637      -0.92382805      -0.00000000
6
Properties=species:S:1:pos:R:3 REF_energy="_JSON [[-2122.433473519216, -2112.5905143667987, -2105.258599875488]]" REF_forces="_JSON [[[-17.07518685753499, 7.517465156454013e-10, 6.825722716257915e-10], [-17.88874119160171, 1.8399443802096035e-09, 7.398368141629827e-10], [-32.767111873507645, 7.545777986901105e-10, 7.525832491228657e-10]], [[17.075186723154115, -4.5863716174626497e-10, -6.619999838390773e-11], [17.888741213161644, -8.355159633684606e-10, -8.599636660503664e-11], [32.767111829268366, 6.186617048403875e-10, -4.626314138661643e-11]], [[-0.28040159816908844, -0.0732343051112511, -0.5659450504454115], [-1.2717799957463438, 0.2652378327742927, 2.373441385253299], [-1.26948042016465, 0.12203816326352991, 4.450586846936504]], [[0.28040166540216793, -0.0515647108117869, -0.5683292271218967], [1.2717799852100857, 0.2571356258588606, 2.3743328475418037], [1.2694804426357487, 0.8485183484396314, 4.370655944130924]], [[0.280401665237966, 0.05156471106866892, 0.5683292268459043], [1.2717799843696278, -0.2571356259807365, -2.3743328476706727], [1.2694804424094919, -0.8485183486850072, -4.370655944409719]], [[-0.2804015980908637, 0.07323430456204594, 0.5659450501050901], [-1.2717799953924107, -0.2652378336571088, -2.3734413857782055], [-1.2694804206422068, -0.12203816439082862, -4.450586847364532]]]" REF_nacs="_JSON [[[0.43407078114128916, -2.3168446143791747e-11, -1.1576840539373817e-10], [0.5125456192208309, 5.982487595485428e-11, 1.3762770984925491e-11], [0.31216552509874196, -3.2678233124971815e-11, -6.418264612473312e-11]], [[0.43407078045110264, -9.648825480172729e-12, 1.2470308872201767e-10], [-0.5125456081269915, -5.129587254988131e-11, -1.262662962477516e-11], [0.3121655814181061, -2.956725109861547e-11, 8.837349690549823e-11]], [[-0.07168871687471792, 0.03969082899659261, 0.20698068824865826], [-0.0323093748231271, 0.020491958727980538, 0.00863762912870216], [-0.03603868712925658, 0.03314550623102136, 0.17093567060356915]], [[-0.07168871710443436, -0.006259936040323865, -0.21065891996523212], [0.03230936925182596, -0.018123784530711583, 0.01288632492337068], [-0.03603865295179667, -0.004811878973109848, -0.1740530565750897]], [[-0.07168871712369501, 0.006259936069733408, 0.21065892000822528], [0.032309369241404304, 0.018123784543488494, -0.012886324920810365], [-0.036038652947217864, 0.004811879039196046, 0.17405305660478543]], [[-0.07168871684583951, -0.03969082897675578, -0.2069806883000248], [-0.032309374814916816, -0.02049195874928607, -0.00863762913239852], [-0.036038687132338536, -0.03314550622129381, -0.17093567065699758]]]" REF_dip_perm="_JSON [[3.980259285529995e-10, -8.868245869151358e-12, 1.0322899683776219e-11], [3.680459443958534e-10, 9.453688337553405e-12, -1.8439772199989102e-11], [4.5267694133946375e-10, 1.2484997846775956e-12, -4.577568830994247e-12]]" REF_dip_trans="_JSON [[-0.4890534968873848, -4.473466590962238e-12, -9.390234890328906e-13], [0.0, 0.0, 0.0], [-0.5921348467913178, -5.416367620713763e-12, -1.1369611715816465e-12]]" pbc="F F F"
C        0.00000000       0.00000000       0.00000000
C        1.17011026       0.00000000       0.00000000
H       -0.56503637       0.92382805       0.00000000
H        1.73514663      -0.90172880       0.20085675
H        1.73514663       0.90172880      -0.20085675
H       -0.56503637      -0.92382805      -0.00000000
6
Properties=species:S:1:pos:R:3 REF_energy="_JSON [[-2120.834900646477, -2117.0554540976423, -2116.6896160605147]]" REF_forces="_JSON [[[-0.7571068056322033, 5.230200953614079e-10, -1.523041483190503e-10], [4.5620942201383965, 4.691946514819703e-11, -8.421520393848045e-11], [3.6703052288750095, 4.218293292872069e-10, -5.0581735972905746e-11]], [[0.7570787494269485, -9.233237306135631e-10, 7.032442406225452e-11], [-4.562206479958987, -8.724391540209579e-10, -1.0188471314753905e-10], [-3.670410897792936, -9.138503649018704e-10, -1.7887867677543162e-10]], [[-0.03638613847565503, 0.07239427811819771, 1.0880144286316644], [-0.5809416630900889, 0.2435715488068207, -0.28198366838236005], [-0.596519803105507, 0.26427785263599834, -1.5665542535464254]], [[0.03640016662002677, 1.0841637247518074, -0.11622460321960068], [0.5809977929489699, -0.23563715381085082, 0.28878786830650277], [0.596572637612406, -1.4974693407925177, 0.5306731816117414]], [[0.03640016662498216, -1.0841637244858884, 0.11622460321386918], [0.5809977929276297, 0.23563715408364075, -0.28878786821703145], [0.5965726375694377, 1.4974693410776272, -0.5306731814698165]], [[-0.036386138564669705, -0.07239427798339683, -1.0880144285435063], [-0.5809416629662492, -0.24357154825480634, 0.2819836684787929], [-0.5965198031583279, -0.2642778524288075, 1.566554253633339]]]" REF_nacs="_JSON [[[0.1356937688044978, -5.367182751359307e-12, 5.478645903495889e-12], [0.5151448205741724, 2.481432035559423e-12, -1.3360038419292662e-11], [3.2246430322792126, 1.7935795996450547e-10, -3.2561168279123307e-12]], [[0.1356984845539261, -5.539686146307901e-12, 1.4986459845347718e-13], [-0.515136926790624, -1.4330116036826209e-12, 2.903373170806182e-12], [3.2247587309936083, -2.8110972936612815e-10, 5.572998889305954e-11]], [[-0.04472475456710172, 0.006790953275111074, -0.193666438896176], [-0.015551173544212945, 0.009201727913921438, 0.614067693134826], [-1.606984264436033, 0.16086476757912935, -0.045456157293553984]], [[-0.04469409921459264, 0.18959959402870913, -0.04006289781876205], [0.015547226672556334, 0.6064639970723014, -0.09683052483671427], [-1.6068463016889503, 0.0169565188496555, -0.1661250271907639]], [[-0.044694099215644274, -0.18959959401894488, 0.040062897818407925], [0.015547226663293839, -0.6064639970711033, 0.0968305248435836], [-1.6068463016714398, -0.016956518710149093, 0.1661250271533479]], [[-0.04472475456815297, -0.006790953272675709, 0.19366643889284818], [-0.015551173545959224, -0.009201727916171234, -0.6140676931312222], [-1.6069842644206014, -0.16086476761652968, 0.04545615727893657]]]" REF_dip_perm="_JSON [[-5.29917039411e-10, -2.997165638376913e-11, 7.591806404793978e-13], [1.56041653651257e-11, -3.075238513786147e-11, -8.044629082167538e-13], [2.192910924494583e-05, -2.997373832711337e-11, 4.614835616856254e-13]]" REF_dip_trans="_JSON [[-0.20487376488407033, 6.843879238994045e-14, 2.6176640161595917e-13], [0.0, 0.0, 0.0], [-0.8721917146962436, 2.912921853986695e-13, 1.1143642727950099e-12]]" pbc="F F F"
C        0.00000000       0.00000000       0.00000000
C        1.41891461       0.00000000       0.00000000
H       -0.56503637       0.92382805       0.00000000
H        1.98395098       0.15928652       0.90999235
H        1.98395098      -0.15928652      -0.90999235
H       -0.56503637      -0.92382805      -0.00000000
6
Properties=species:S:1:pos:R:3 REF_energy="_JSON [[-2121.5705528484577, -2116.5310270143095, -2115.2950855889685]]" REF_forces="_JSON [[[2.713990927090523, -3.370326361383248e-09, 9.43991078554112e-10], [5.935374255271314, -1.777761872680413e-08, -3.0814146856574234e-09], [2.73394944451802, -3.5642961892718225e-09, -1.657728929270451e-08]], [[-2.713996402562965, 5.641496823964323e-09, -8.11149953118897e-09], [-5.935344760891887, -1.0995374405065922e-09, 1.1000697427536321e-08], [-2.734028458374512, 1.8569633203119694e-08, 3.434473003440199e-09]], [[0.12981569458946982, 0.066774334558665, -1.488295435384442], [-0.4401359363582843, 0.22738740281175562, 0.7151912406640397], [-0.46023562820203856, 0.2170047393026607, 2.6217143822787787]], [[-0.12981295358918785, -1.3493066084119674, -0.6314355507743395], [0.44012118453160953, 0.5280158310144288, 0.5332444150388057], [0.46027559133324203, 2.221608227817263, 1.408898663185648]], [[-0.12981296160878578, 1.3493066045173678, 0.6314355576373755], [0.4401211856532904, -0.5280158267687195, -0.5332444232004905], [0.4602751312910749, -2.2216081416973954, -1.4088984964109619]], [[0.12981569608261237, -0.06677433293520914, 1.4882954356890303], [-0.44013592820740166, -0.22738738818014637, -0.7151912404219292], [-0.46023608056744436, -0.2170048404273906, -2.6217145359110487]]]" REF_nacs="_JSON [[[0.2525028318826571, 3.4301532903931334e-11, 2.2155333154091827e-11], [0.6410393739561793, -2.6967663385752425e-11, -3.7006637749159555e-11], [0.8731866216158278, 6.456672264627255e-11, 2.8487316706178595e-11]], [[0.2524339900106778, 1.4901339198619555e-10, -8.611518560384719e-12], [-0.6410370812741254, -4.692968701649191e-11, -3.1708887619261654e-11], [0.8732501985376101, -4.5662372642058935e-11, -5.903720061008844e-10]], [[-0.061419503185018605, 0.008021743828391704, 0.16430659043155996], [-0.02094782834375058, 0.013058155344600413, -0.24458115914921597], [-0.40699710925764787, 0.01137819312471349, 0.07497792651462287]], [[-0.06142534898154185, -0.14182373824963804, -0.0833581601338541], [0.020946681925240504, -0.22271396150492898, -0.10193423725209856], [-0.40698844582601956, -0.06113209678257329, -0.04481391975106083]], [[-0.06142534893326635, 0.14182373804658696, 0.08335816011130665], [0.020946681901843806, 0.22271396152157555, 0.10193423731328147], [-0.40698844553204244, 0.06113209680064077, 0.044813920305671835]], [[-0.0614195031677499, -0.008021743815216666, -0.16430659042337592], [-0.020947828317379263, -0.013058155287360835, 0.24458115915674275], [-0.4069971091986903, -0.011378193164662622, -0.07497792650772897]]]" REF_dip_perm="_JSON [[-8.123118346245624e-11, -1.0543377483931897e-11, 2.8158283730930633e-11], [-1.1447565478338049e-09, -6.58185568850012e-12, 3.4439506800521595e-11], [4.1430672550500525e-06, -7.773976447415525e-12, 3.547006875592349e-11]]" REF_dip_trans="_JSON [[-0.43360051850746756, -2.1432025438111003e-12, 2.03489971770218e-12], [0.0, 0.0, 0.0], [-0.9488795045397681, -4.6901089574949465e-12, 4.453116896117981e-12]]" pbc="F F F"
C        0.00000000       0.00000000       0.00000000
C        1.47334623       0.00000000       0.00000000
H       -0.56503637       0.92382805       0.00000000
H        2.03838260      -0.42868784       0.81834284
H        2.03838260       0.42868784      -0.81834284
H       -0.56503637      -0.92382805      -0.00000000
6
Properties=species:S:1:pos:R:3 REF_energy="_JSON [[-2122.256366852707, -2115.2479922037455, -2110.8117183075096]]" REF_forces="_JSON [[[-10.175193354319713, -1.5151997718892548e-10, -1.9243181050768104e-11], [-9.841521517078343, -3.24201872259313e-10, 1.074026478261345e-10], [-17.320641217763498, 6.266760773942574e-10, 6.71402828091056e-11]], [[10.175192924377033, -6.058529657796896e-11, -1.1477749460560875e-10], [9.841523092801351, -1.5939296647945117e-10, -3.85940241797329e-10], [17.32064116772659, 5.945429564833919e-10, 2.9512379537269673e-10]], [[-0.2870866905014205, 0.022699143203481473, 1.564000239923775], [-1.1111080146914292, 0.2943114341363246, -1.6177146420561332], [-1.3563888841266798, 0.3706254192700995, -4.539620919767593]], [[0.2870869054315435, 1.018009737980942, -1.187547126589516], [1.1111072268090427, -0.808723814748618, 1.4316373287334991], [1.3563889091122765, -2.619348109736333, 3.7261960364330897]], [[0.28708690541487303, -1.0180097379993716, 1.1875471266869708], [1.1111072266952509, 0.8087238148789421, -1.4316373285028712], [1.356388909650393, 2.6193481091059034, -3.726196036816097]], [[-0.2870866904026094, -0.022699142972997896, -1.5640002398865918], [-1.111108014536145, -0.29431143378307456, 1.6177146421038067], [-1.3563888845986005, -0.3706254198608208, 4.539620919788455]]]" REF_nacs="_JSON [[[-0.3472181970200778, 2.1405456638644778e-12, -1.209301135811522e-12], [0.4326131683839671, -2.3556955983507526e-13, 2.018171120518176e-13], [-0.3481248129074453, 4.552968801159726e-12, 4.68734645393567e-12]], [[-0.3472181253612644, -1.872435508487408e-12, 1.420671760211166e-12], [-0.4326131014392096, -2.571861859371624e-13, -1.0737865419231507e-12], [-0.3481243890597068, -5.173366032939161e-12, -3.5929701252763052e-12]], [[0.0924535605740122, -0.038712680301998446, 0.19452880931914407], [-0.019547875818720545, 0.010948822184388597, 0.055099643555068356], [0.11239740414768433, -0.05130652414228963, 0.14778435649450475]], [[0.09245360649276932, -0.09469502780962194, 0.17427846780044312], [0.01954784233954713, 0.043664884438504525, -0.035344373040164155], [0.1123974665283945, -0.05511100674507836, 0.14640818675434158]], [[0.09245360649650058, 0.09469502780980901, -0.17427846780121128], [0.019547842339528044, -0.043664884438449916, 0.035344373040728815], [0.11239746652937053, 0.055111006747870804, -0.14640818675208223]], [[0.09245356057673568, 0.038712680301416794, -0.19452880931957114], [-0.01954787581838115, -0.01094882218395143, -0.05509964355476071], [0.11239740414902395, 0.05130652414001062, -0.14778435649860033]]]" REF_dip_perm="_JSON [[4.247997199600064e-10, 3.1335329274250427e-12, 3.422506663606423e-12], [3.834106862763908e-10, 6.721137698230193e-14, 2.4541948141974885e-12], [5.10742341210492e-10, 4.5096974779718183e-13, 2.6538531809107046e-12]]" REF_dip_trans="_JSON [[0.38627856281381123, 2.2502899662863415e-13, 5.505653627661079e-14], [0.0, 0.0, 0.0], [0.508370993481677, 2.9621253754540295e-13, 7.24687075696479e-14]]" pbc="F F F"
C        0.00000000       0.00000000       0.00000000
C        1.22526680       0.00000000       0.00000000
H       -0.56503637       0.92382805       0.00000000
H        1.79030317       0.71004144       0.59101558
H        1.79030317      -0.71004144      -0.59101558
H       -0.56503637      -0.92382805      -0.00000000
6
Properties=species:S:1:pos:R:3 REF_energy="_JSON [[-2122.3500730700757, -2114.8504548066967, -2109.8865194817854]]" REF_forces="_JSON [[[-11.334671126454742, -9.865827918306592e-10, -8.668105448692785e-11], [-11.309078822760126, -1.239004072262417e-09, -5.639554869513646e-10], [-19.607449981730213, -1.1789788824862625e-09, -7.09290780296857e-11]], [[11.3346711451426, 3.493154450885233e-10, 3.7499186900068555e-10], [11.30907881057397, 6.91567765351257e-10, 9.197675531122775e-10], [19.607449960474952, 4.181875776138054e-10, 3.9440527110363953e-10]], [[-0.2853036703161786, 0.005895248631539484, -1.407695783911295], [-1.1472732040798443, 0.2992996042172405, 1.7613287770678772], [-1.4036474360268438, 0.37196370583510074, 4.633204447719624]], [[0.2853036609963789, -0.8151419097525195, -1.1476871671626996], [1.1472732102899537, 0.7691464804220149, 1.6125362143940356], [1.403647446676904, 2.3628856173023447, 4.00271309238965]], [[0.285303660783525, 0.8151419100632631, 1.1476871670848827], [1.1472732099299323, -0.769146480244398, -1.6125362143610382], [1.4036474465161843, -2.362885616974514, -4.002713092485861]], [[-0.2853036701518167, -0.005895248305190416, 1.4076957837009116], [-1.1472732039527032, -0.29929960384757187, -1.7613287774566024], [-1.403647435910229, -0.3719637054018334, -4.633204447947095]]]" REF_nacs="_JSON [[[-0.35788767804708216, -2.3282460296697757e-11, 5.152770478277638e-12], [0.4224343406287983, -7.078729151601751e-12, 1.0949681127305009e-11], [-0.3316436184046223, 2.5810066862878738e-11, -1.9591155192200174e-12]], [[-0.3578876174248098, 2.214866959076614e-11, -1.7432808809343463e-12], [-0.42243431752406563, 1.6905773277481904e-12, 4.145206442252005e-12], [-0.33164343336366614, -1.0373112053167147e-11, -2.077358802931535e-12]], [[0.09046579389307556, -0.04024846037054687, -0.1951971755991661], [-0.020263917264054077, 0.011814590262465815, -0.04152350457750597], [0.09696500808713632, -0.049055361186947505, -0.15188129651200336]], [[0.09046579458769013, 0.0794512623222461, 0.18278232587053153], [0.02026390571232778, -0.0335632977706858, -0.027153097181852496], [0.09696506291696218, 0.04731558191699021, 0.1524322769875362]], [[0.09046579457769971, -0.07945126232266522, -0.1827823258747084], [0.020263905710145712, 0.033563297771027845, 0.02715309718034355], [0.0969650629203992, -0.04731558189553161, -0.1524322769935495]], [[0.09046579391084371, 0.040248460368632395, 0.19519717560798547], [-0.02026391725825999, -0.011814590257419018, 0.04152350456392206], [0.09696500807143099, 0.04905536114735774, 0.1518812965283187]]]" REF_dip_perm="_JSON [[7.22330243286239e-11, -6.101134970313659e-12, -2.968851208895163e-12], [3.274480491830514e-11, -3.347140314544709e-11, 1.2161880239748938e-12], [2.43941301645334e-11, -2.3736236067751584e-11, -2.5145711711806298e-14]]" REF_dip_trans="_JSON [[0.3936387478744056, 2.1511485418023962e-13, -4.258469235289831e-12], [0.0, 0.0, 0.0], [0.5058094117086273, 2.7642097225525494e-13, -5.471813380058173e-12]]" pbc="F F F"
C        0.00000000       0.00000000       0.00000000
C        1.21393798       0.00000000       0.00000000
H       -0.56503637       0.92382805       0.00000000
H        1.77897435      -0.75541935       0.53178931
H        1.77897435       0.75541935      -0.53178931
H       -0.56503637      -0.92382805      -0.00000000
6
Properties=species:S:1:pos:R:3 REF_energy="_JSON [[-2121.723518933855, -2116.2970678710935, -2114.84214200038]]" REF_forces="_JSON [[[3.5882742813325983, -3.175022540654552e-09, -1.4279388951428554e-09], [6.2990609103138295, -9.615213685729417e-10, -1.6579842416367884e-10], [2.5587755132291576, -8.679098637376505e-10, 1.4848987159360367e-08]], [[-3.5882677045629396, 2.873564305000835e-09, 2.514198214225352e-09], [-6.299027932729819, -8.266274064261589e-10, -2.9297386655623223e-09], [-2.558902667041056, 1.242327153475634e-08, -1.0274928309338356e-08]], [[0.18736871397518293, 0.06576739474536994, 1.4236697834762566], [-0.3807354435676478, 0.2204737720814748, -0.8054442610807087], [-0.39706460423915685, 0.19896429500057708, -2.6595973222064297]], [[-0.18737200384964933, 1.2359759140063278, -0.709465551571891], [0.3807189548235546, -0.560822471235483, 0.6186719662194398], [0.3971281810483589, -2.1360501709526574, 1.5970542930577398]], [[-0.1873720028125984, -1.2359759150707852, 0.7094655497693984], [0.38071895333357497, 0.5608224727290575, -0.6186719638269252], [0.3971286459320406, 2.13605024862499, -1.5970544460830598]], [[0.1873687159162873, -0.06576739337920749, -1.4236697827599627], [-0.38073544217282584, -0.2204737717875756, 0.8054442617840905], [-0.39706506892939497, -0.19896438422819263, 2.6595974706574173]]]" REF_nacs="_JSON [[[0.27383554920276565, -1.1776224487263595e-11, 2.5294878801532112e-11], [0.628156413514814, -1.299456347711159e-09, 3.957156662838357e-09], [0.7457224403628909, 2.3950847135321316e-11, 4.4670316581828304e-11]], [[0.2737494253831846, 1.5751438163238834e-11, -1.9871660458077437e-11], [-0.6281547544088653, 2.6297517190760688e-09, -3.2261570992103e-09], [0.7458041771646873, 4.2649546500531705e-11, -5.968392978347205e-11]], [[-0.05967103770942954, 0.007263165892862824, -0.15544264698715773], [-0.020881934865519258, 0.013232354890931138, 0.19278255116474927], [-0.3355879949633728, -2.7313886479050577e-05, -0.0749890400967927]], [[-0.059672460953658246, 0.12719683335054544, -0.08965829586643813], [0.020881105317331172, 0.1696995119359349, -0.09243423510030728], [-0.3355971547852628, 0.0632455743490001, -0.04020480182947898]], [[-0.059672460939857584, -0.12719683334574688, 0.08965829586003782], [0.020881105853170195, -0.1696995074250122, 0.09243422530289556], [-0.3355971547754646, -0.06324557436518806, 0.040204801852627356]], [[-0.05967103770244926, -0.007263165898375552, 0.1554426469846344], [-0.02088193539980776, -0.013232360732146498, -0.1927825420983422], [-0.3355879949388819, 2.731383763600956e-05, 0.0749890400869701]]]" REF_dip_perm="_JSON [[6.448611314468358e-10, 2.2135221636026212e-11, -1.7210801043880537e-11], [7.279931291825889e-10, 2.0657458250280218e-11, -1.327717728926166e-11], [1.3496197729076365e-05, 2.0692851287132404e-11, -1.3465384967581522e-11]]" REF_dip_trans="_JSON [[-0.47992683045451134, 1.043986714808347e-12, 2.720969377360301e-12], [0.0, 0.0, 0.0], [-0.9939131572138084, 2.162015545078284e-12, 5.635036873549006e-12]]" pbc="F F F"
C        0.00000000       0.00000000       0.00000000
C        1.49497825       0.00000000       0.00000000
H       -0.56503637       0.92382805       0.00000000
H        2.06001462       0.49639458       0.77913457
H        2.06001462      -0.49639458      -0.77913457
H       -0.56503637      -0.92382805      -0.00000000
6
Properties=species:S:1:pos:R:3 REF_energy="_JSON [[-2120.7170737123083, -2117.0325712267927, -2116.8277557501224]]" REF_forces="_JSON [[[-0.6507656776189775, -1.0028487982608033e-09, 8.612549038429268e-10], [5.142142436649757, -1.4423323946132051e-09, 7.202258211207711e-10], [4.757588749623659, -1.610459285599197e-09, 9.023908429010893e-10]], [[0.6506504381848028, -7.831073818080307e-11, -1.5534622973977963e-09], [-5.142093049081134, -1.5619249301874339e-10, 3.6132771239232495e-10], [-4.757523247924787, 9.69992503310718e-11, -7.623013347536842e-10]], [[-0.006554430501764404, 0.06797299632038926, -0.6047194798315368], [-0.5476671642614935, 0.2435051168348338, 0.14675990204685363], [-0.5607628146477434, 0.26761180516643335, 0.8519035570844562]], [[0.006612050045915242, -0.6085141806454927, 0.012656561345188225], [0.5476424697757877, 0.12395136421204984, 0.2557954900987412], [0.5607300633417825, 0.8239069211128119, 0.3442213320794374]], [[0.0066120500806259586, 0.60851418095836, -0.012656560987531039], [0.5476424706470009, -0.123951363802398, -0.2557954914048684], [0.5607300637656958, -0.823906920755876, -0.3442213324869912]], [[-0.006554430191012317, -0.06797299555214101, 0.6047194801661865], [-0.5476671637316664, -0.24350511564574118, -0.14675990182205176], [-0.5607628141599535, -0.2676118040095171, -0.8519035568167891]]]" REF_nacs="_JSON [[[-0.07438482520696682, -9.75068739931085e-12, -1.364738579653185e-13], [-0.30655753345460635, -5.694232246433359e-12, -2.591130275964141e-11], [5.858163743506767, 1.4112041023829333e-10, 7.208851633789734e-10]], [[-0.07436596335834685, 1.671970623368342e-11, -9.454635695686965e-12], [0.3065770201515165, -1.169403863583683e-11, 1.0991866819601459e-11], [5.858006189007318, -1.3362967775282819e-10, -1.1554306814543518e-09]], [[0.024600404551827316, -0.003317751777117754, -0.19402611445589485], [0.009092212295251976, -0.005472766240226879, 0.7043105853760553], [-2.927389715647065, 0.24301478433655008, 0.02419209693545892]], [[0.02462730075766115, 0.19290810178896492, 0.021058971770658616], [-0.009101955802731118, 0.7018609577486168, 0.05889116156254243], [-2.9275432082274118, -0.0020094025055696673, -0.24436652693782882]], [[0.024627300754228462, -0.19290810179257054, -0.021058971768902868], [-0.009101955811493059, -0.7018609577447484, -0.05889116155480532], [-2.9275432080552575, 0.002009402644541412, 0.24436652756198265]], [[0.024600404551047426, 0.0033177517841659035, 0.19402611445971207], [0.00909221230422704, 0.005472766253740669, -0.7043105853688988], [-2.927389715636369, -0.24301478448417924, -0.02419209712455134]]]" REF_dip_perm="_JSON [[-5.089935088013251e-10, -4.15014586242049e-11, -8.310285052893362e-11], [1.100931640437421e-08, -3.872622814632464e-11, -8.132070702625882e-11], [-1.195264493365219e-05, -3.9427843053335625e-11, -8.18953233892708e-11]]" REF_dip_trans="_JSON [[0.11427326692875216, -2.219225655327524e-13, 1.7392379694937977e-12], [0.0, 0.0, 0.0], [-0.9116972911812682, 1.7704895456838895e-12, -1.387603904157633e-11]]" pbc="F F F"
C        0.00000000       0.00000000       0.00000000
C        1.43371526       0.00000000       0.00000000
H       -0.56503637       0.92382805       0.00000000
H        1.99875163      -0.08445061       0.91995998
H        1.99875163       0.08445061      -0.91995998
H       -0.56503637      -0.92382805      -0.00000000
6
Properties=species:S:1:pos:R:3 REF_energy="_JSON [[-2122.0139471453485, -2112.591012335163, -2105.3948206181535]]" REF_forces="_JSON [[[-19.50348201482262, 1.7127662351666295e-09, 5.87638280813348e-10], [-19.959462202325515, -8.720182392161372e-10, -2.4839625818961403e-12], [-32.35159753664033, 1.9058401409017575e-09, 8.612404015128994e-10]], [[19.503481809244857, -8.431328386784851e-10, 1.780303276882061e-09], [19.95946205995576, 1.6359666880993687e-09, 2.67803835728367e-09], [32.35159687132517, -1.8044902168965412e-09, 2.076666365858183e-09]], [[-0.3535894441210133, -0.05995523931772203, 0.7443717668635077], [-1.3720678287331007, 0.33437010435714354, -2.2963126902143247], [-1.6011925798569215, 0.35610283827653744, -4.922041923483996]], [[0.3535895416851219, 0.16511148859249344, -0.7283008984301786], [1.3720678948835947, -0.3667563514351758, 2.29136318120705], [1.6011929070090285, -1.130269416073902, 4.8037274746650445]], [[0.35358955293788485, -0.16511148895542574, 0.7283008970469405], [1.3720679059181171, 0.3667563504051131, -2.2913631828884795], [1.6011929182600895, 1.1302694158840463, -4.803727476369809]], [[-0.3535894449261754, 0.05995523881053437, -0.7443717678481426], [-1.3720678296988125, -0.33437010409140094, 2.2963126892203154], [-1.6011925800976028, -0.3561028381878652, 4.922041922250792]]]" REF_nacs="_JSON [[[0.3984584285078277, 1.2265079758916777e-10, -2.3246387491675294e-10], [0.43778086749457545, -9.369135576288926e-11, -3.2681751487775114e-11], [0.3026283739509845, 8.316834454540978e-11, -1.1778083820141934e-10]], [[0.3984584145855388, 8.029981056489029e-11, 2.8337389853086667e-10], [-0.4377808698537209, 1.0648239030385105e-10, 1.9876031019738694e-11], [0.3026279938365768, 7.324435970132238e-11, 1.5947114814953066e-10]], [[-0.08635225925492415, 0.04866048267804885, -0.2107131265873492], [-0.025750737181132903, 0.01704659996106277, 0.008382113147189651], [-0.056768435830802544, 0.04656347841428129, -0.1764743415351759]], [[-0.0863522805002597, 0.016496596446800516, -0.21562868174456656], [0.02575073835207751, 0.01877205005047881, -0.0029080083393683664], [-0.05676855219351558, 0.008271445288888497, -0.18232646359913615]], [[-0.08635228055338992, -0.016496596527680814, 0.2156286818305756], [0.025750738351134537, -0.018772050089543135, 0.0029080083402194803], [-0.05676855228305307, -0.008271445328423438, 0.18232646367818434]], [[-0.08635225918768864, -0.04866048270988922, 0.21071312648020174], [-0.025750737191350088, -0.017046599934790116, -0.008382113135234999], [-0.056768435795612436, -0.04656347845558239, 0.1764743414393789]]]" REF_dip_perm="_JSON [[1.0576272188770988e-09, -1.2934905803467574e-11, 6.355756641314976e-11], [7.21559924248868e-10, 8.308827692552389e-12, 6.043048751009187e-11], [9.540505375008474e-10, -3.1208330730251403e-13, 6.550001955333151e-11]]" REF_dip_trans="_JSON [[-0.3986404435544153, -5.717459346239867e-11, -1.4373288345140801e-11], [0.0, 0.0, 0.0], [-0.4759324045444303, -6.826015433472993e-11, -1.7160366709561155e-11]]" pbc="F F F"
C        0.00000000       0.00000000       0.00000000
C        1.15327481       0.00000000       0.00000000
H       -0.56503637       0.92382805       0.00000000
H        1.71831118       0.88165824       0.27592935
H        1.71831118      -0.88165824      -0.27592935
H       -0.56503637      -0.92382805      -0.00000000
6
Properties=species:S:1:pos:R:3 REF_energy="_JSON [[-2119.7323758304724, -2113.3446836448556, -2108.8181245467013]]" REF_forces="_JSON [[[-27.27326185480993, 7.110572269110807e-11, 1.2060222189129973e-09], [-26.25080877953776, -8.124073084829669e-10, 1.3066793206700905e-09], [-31.41855055340702, -1.1435931753726457e-10, 1.3230565013878452e-09]], [[27.27328062405077, 6.601051619738692e-10, 1.7086638947391337e-11], [26.25115041998354, 1.0018392210430519e-10, 2.820603284126973e-10], [31.418421578354614, 9.358004452710533e-10, 1.9687900336913255e-10]], [[-0.6662825051648985, 0.0657116793689474, -1.987338237437479], [-1.5271698760466685, 0.4215876169702995, 1.5211496981499086], [-2.0207976514375576, 0.7117885459038648, 5.116294379457779]], [[0.6662731206245368, -1.488921759878468, -1.3178190875575375], [1.5269990554884871, 0.8155642877294145, 1.3515998929636202], [2.0208621390016477, 3.2276205557074014, 4.033037368177433]], [[0.6662731205261252, 1.4889217595743065, 1.317819087280398], [1.5269990556151243, -0.8155642877316052, -1.3515998935824332], [2.020862139077438, -3.227620555943043, -4.03303736870614]], [[-0.6662825052248207, -0.06571167979646017, 1.9873382364910765], [-1.527169875503847, -0.421587616256698, -1.5211496991198628], [-2.0207976515883423, -0.7117885464906574, -5.116294380448965]]]" REF_nacs="_JSON [[[-0.344695262543528, -1.9139555609166787e-10, 2.488996327363458e-10], [-0.325821263136556, -4.3717006950956283e-11, -2.0053486538274992e-11], [0.4010124153036215, -8.620489661538945e-11, -4.904191648603036e-11]], [[-0.3447515592649708, 1.6849092669096858e-10, -3.102042957381291e-10], [0.3258230920446395, -7.916488744962068e-11, -7.477682931322052e-11], [0.40098024551121697, 6.046582272313595e-11, 7.167599877240787e-11]], [[0.13637476446002483, -0.06952423607610667, -0.2119964962197156], [0.010813452140623065, -0.004732476466696412, 0.07022238766603163], [-0.17167281868865308, 0.09732637083066217, 0.1699114681396151]], [[0.13637045290346997, 0.10622487525264182, 0.19619467179602912], [-0.01081436652871796, 0.054251524182804774, 0.04482456344168519], [-0.17163436439363608, -0.05656401100331812, -0.18743842764899513]], [[0.13637044922929564, -0.10622487791529428, -0.19619466996464827], [-0.010814367890658452, -0.05425152507441951, -0.04482456327044709], [-0.17163436436174145, 0.05656401101102121, 0.1874384275924481]], [[0.13637476754932285, 0.06952423876137179, 0.2119964944522113], [0.010813453373286994, 0.004732477481191895, -0.0702223877424395], [-0.17167281869714948, -0.09732637081237491, -0.1699114681077706]]]" REF_dip_perm="_JSON [[-1.9822598969237468e-10, 1.1116744680937317e-10, 9.806161345734298e-11], [7.518105610407661e-11, 1.2380276096560372e-10, 6.962018543159486e-11], [-2.4181771943420282e-05, 1.1290586950181879e-10, 8.02131131671198e-11]]" REF_dip_trans="_JSON [[0.18282882809115283, 8.144783622115295e-12, 2.1434522307861326e-12], [0.0, 0.0, 0.0], [-0.22811376903046474, -1.0162098590606642e-11, -2.674424315196308e-12]]" pbc="F F F"
C        0.00000000       0.00000000       0.00000000
C        1.11185911       0.00000000       0.00000000
H       -0.56503637       0.92382805       0.00000000
H        1.67689548      -0.63487098       0.67111631
H        1.67689548       0.63487098      -0.67111631
H       -0.56503637      -0.92382805      -0.00000000
6
Properties=species:S:1:pos:R:3 REF_energy="_JSON [[-2123.457638251114, -2115.1615231266037, -2110.469761526985]]" REF_forces="_JSON [[[-1.5791455977854407, -4.929716274481536e-10, -5.047815674087069e-10], [-2.803917002627486, -3.869512789928564e-09, -6.926355768716758e-11], [-13.079877623502794, -3.4587000527448266e-10, -1.633099447014432e-09]], [[1.57914575309768, 3.39581947891033e-09, 1.0500373831254698e-09], [2.8039171271738104, 5.112773123893655e-10, -4.740508122529881e-10], [13.07987779518971, 3.2438109953360113e-09, 2.1852001406573134e-09]], [[0.03386850455462556, -0.019270083747662523, 0.981181547732383], [-0.6722376690730167, 0.16237020188103102, -1.7557835967954762], [-0.6578297813290113, 0.04238057901206526, -3.480022287329537]], [[-0.03386858363140603, 0.38553596187959616, -0.9024691527752643], [0.6722376053280061, -0.5733049396940636, 1.6674716132359475], [0.657829693982259, -1.3910801383771172, 3.1901798111922925]], [[-0.033868581179517694, -0.385535964586734, 0.9024691519665701], [0.672237606288524, 0.5733049399188809, -1.6674716128344649], [0.6578296966047074, 1.3910801354958102, -3.1901798120710545]], [[0.03386850494203803, 0.01927008355170691, -0.9811815474688756], [-0.6722376670892459, -0.16237019874743144, 1.7557835969372981], [-0.6578297809465184, -0.042380579028393005, 3.480022287656186]]]" REF_nacs="_JSON [[[-0.41758117151353424, -5.3051105519876614e-12, -3.5019111412526787e-12], [0.5087635580511757, 7.23640949567453e-12, -1.2237471262519243e-11], [-0.34415244987673166, -1.4628019074913072e-11, 2.0627037974199093e-11]], [[-0.41758122805787784, -1.3770789186084283e-12, 7.036209051200025e-12], [-0.5087635757813572, 1.916547619634794e-12, 4.3490696977187766e-11], [-0.34415231670109486, -1.1184867674560289e-11, -2.1564475055877523e-11]], [[0.056108324019396486, -0.021209026839474773, 0.1578026981115291], [-0.02557055419149564, 0.01579404379842446, 0.006105948031243306], [0.06249073100882322, -0.017909265821437207, 0.11325693607612122]], [[0.05610831448221821, -0.04549459337028493, 0.1525835973047233], [0.02557056308815768, 0.016908122849335037, 0.00092191636158665], [0.06249088340868586, -0.030201951612489692, 0.11061518279319815]], [[0.05610831449433796, 0.04549459336612432, -0.15258359731266996], [0.025570563104162336, -0.01690812285819963, -0.0009219163862910925], [0.06249088342769271, 0.030201951602678426, -0.11061518278472254]], [[0.05610832400533786, 0.021209026841859605, -0.15780269809527236], [-0.025570554190212896, -0.01579404379871378, -0.006105948037792265], [0.062490731001310994, 0.01790926585098413, -0.11325693607516144]]]" REF_dip_perm="_JSON [[-6.078441787861374e-10, -1.1733624493837483e-11, -1.2330517650632886e-11], [-5.16280310506187e-10, -9.690405295794205e-13, -8.642979599303914e-12], [-9.836765912894718e-10, -4.71997375574069e-12, -9.265897047902395e-12]]" REF_dip_trans="_JSON [[0.6101039744525872, 3.0866580189849936e-12, -5.373465054626789e-12], [0.0, 0.0, 0.0], [0.8500409705076055, 4.3006263706073724e-12, -7.486602056546289e-12]]" pbc="F F F"
C        0.00000000       0.00000000       0.00000000
C        1.32630002       0.00000000       0.00000000
H       -0.56503637       0.92382805       0.00000000
H        1.89133639       0.84226255       0.37954192
H        1.89133639      -0.84226255      -0.37954192
H       -0.56503637      -0.92382805      -0.00000000
6
Properties=species:S:1:pos:R:3 REF_energy="_JSON [[-2123.106269868505, -2114.4469943072518, -2111.2531250847655]]" REF_forces="_JSON [[[6.485474691509881, -2.552186261637426e-10, -6.878013392078967e-11], [2.7025812932586466, -3.866967548730423e-10, -1.6288480753771744e-10], [-5.053762597346842, -4.279173583130198e-10, -1.18510651104833e-10]], [[-6.485720757185501, -2.0881271657577475e-09, 7.178557939438619e-11], [-2.7026556711827507, -2.0882949674415296e-09, 2.3954253654771247e-10], [5.05370180181633, -2.0684745269963936e-09, 1.4019748742482163e-10]], [[0.27694243164470334, 0.06874312496743204, -0.40243517564835135], [0.2055271031985133, 0.018013236159046833, 0.6262397795831671], [0.22800392738093478, -0.10248146537603858, 0.883972638819686]], [[-0.276819398820009, -0.12339721521813123, -0.38942216795593965], [-0.20548991426998445, 0.0678713761641002, 0.6228931188495491], [-0.22797352964263645, 0.22244060176003908, 0.8616207104306582]], [[-0.2768193988187533, 0.12339721703614964, 0.3894221679111526], [-0.20548991428849328, -0.06787137432356559, -0.6228931189759035], [-0.22797352969109455, -0.22244059993391394, -0.8616207104939537]], [[0.27694243167062216, -0.06874312444286679, 0.40243517569011794], [0.20552710328402307, -0.018013235524457643, -0.6262397795334317], [0.22800392748361695, 0.10248146604634323, -0.8839726387781165]]]" REF_nacs="_JSON [[[-0.48554411547364684, -4.169915793001157e-12, 2.541706622792545e-13], [-0.438055842589304, 7.270134605534654e-13, 3.462756573878522e-12], [0.48561918568139, 6.626586137791059e-12, -2.233717558215665e-12]], [[-0.4855690620968866, 7.253649525907255e-12, 7.724111936282834e-12], [0.4380643081137287, -1.6142133224232768e-12, -1.0402339512808636e-11], [0.48564944154828754, -3.009629676584933e-11, 1.9557413007947048e-11]], [[0.028904165915945895, -0.0063635339693888324, -0.042633731741487595], [0.0033511893414156133, -0.00799516535918141, -0.012452819653408937], [-0.12041779055717233, -0.011637893013276435, 0.024427609527378567]], [[0.02890052767715071, -0.00045703415548322904, 0.04311723972806052], [-0.003355422157769143, 0.006219892928744963, -0.013443506200576567], [-0.12039514738426295, -0.014907039066317136, -0.022600709075856252]], [[0.028900527678311756, 0.0004570341505389175, -0.04311723973435104], [-0.003355422158112279, -0.006219892927756579, 0.01344350620796052], [-0.12039514738311985, 0.014907039087981582, 0.022600709058130053]], [[0.028904165916646227, 0.006363533970383433, 0.04263373174200557], [0.00335118934104483, 0.007995165359079612, 0.01245281965296538], [-0.12041779055637618, 0.0116378930155775, -0.024427609528243115]]]" REF_dip_perm="_JSON [[3.061914076382971e-10, -4.566534531269742e-12, -2.7313014733166656e-13], [6.386153014140971e-10, -4.521148166365174e-12, -7.949067882666635e-13], [4.871955619870667e-06, -4.450986675664074e-12, -7.355089446553179e-13]]" REF_dip_trans="_JSON [[0.7904699731758396, -2.5441846118683993e-13, -8.312034630438007e-13], [0.0, 0.0, 0.0], [-1.3811090952897265, 4.4452259695989884e-13, 1.452297448014871e-12]]" pbc="F F F"
C        0.00000000       0.00000000       0.00000000
C        1.53624634       0.00000000       0.00000000
H       -0.56503637       0.92382805       0.00000000
H        2.10128271      -0.91511662       0.12656947
H        2.10128271       0.91511662      -0.12656947
H       -0.56503637      -0.92382805      -0.00000000
6
Properties=species:S:1:pos:R:3 REF_energy="_JSON [[-2120.7771646160663, -2117.0826298367506, -2116.3124714203805]]" REF_forces="_JSON [[[-4.799286390018457, -3.015591511360157e-10, 2.0028839934389956e-10], [-0.49454973642027816, 2.7969078735334035e-10, 1.8258042563707317e-10], [-2.355909257973969, 1.5522898720329034e-10, 8.739674673903555e-11]], [[4.7991693170998895, 1.5029737218554282e-09, 2.315650230922836e-10], [0.49462932212927274, 1.6550296670365618e-09, 7.956920296889735e-10], [2.3559363200348016, 1.3929510576868634e-09, 5.817854860666995e-10]], [[-0.2749165002838972, 0.10120207778229201, 1.7928633156844096], [-0.823004536588055, 0.26201409543625404, -0.46225698275309374], [-0.8632978399376908, 0.29261790438597, -2.6304955558027343]], [[0.2749750366163166, 1.7598260636380583, -0.357604248742414], [0.8229647435079845, -0.38057276099144144, 0.37073104780820304], [0.8632843087524145, -2.4696862367689905, 0.9516625518810405]], [[0.2749750362092081, -1.7598260644174573, 0.35760424848767886], [0.822964743474087, 0.3805727598803684, -0.37073104864895584], [0.8632843084336593, 2.4696862358187928, -0.9516625523590909]], [[-0.27491649962251014, -0.10120207820420954, -1.7928633158616925], [-0.8230045361006253, -0.2620140962598113, 0.46225698261548986], [-0.8632978393073591, -0.2926179049841362, 2.6304955556116343]]]" REF_nacs="_JSON [[[-0.22033733766678412, 1.0975182371222583e-10, 6.973431083689474e-11], [-0.6653359437763773, 4.03928562851056e-11, 1.6571782795518454e-11], [1.6230072100709925, 7.572649758796903e-11, -5.090078142581867e-10]], [[-0.22037351333293123, -3.8113294966303926e-11, -7.083636682192179e-11], [0.6653227357819107, -8.170900529165041e-11, -6.2370810474204034e-12], [1.623034767944714, 1.4603811137856864e-12, 4.6420625652104216e-10]], [[0.08103277120065676, -0.020060313726323872, 0.2076886256338696], [0.020568173733217683, -0.010415653406172398, -0.511580765599631], [-0.8000401129347171, 0.1786951433178693, -0.0816613102851128]], [[0.08103863630317637, -0.1957631479234691, 0.07220116803799338], [-0.020561569647856038, -0.49740236985128683, 0.12001501212763736], [-0.8000527918768673, 0.03356476394883144, -0.19362033549270552]], [[0.08103863629614204, 0.19576314790299204, -0.07220116800775794], [-0.02056156966183075, 0.49740236986972486, -0.12001501213055224], [-0.8000527919176136, -0.03356476398416611, 0.19362033533263817]], [[0.0810327712009334, 0.02006031368921872, -0.20768862566480256], [0.020568173754303247, 0.01041565342904617, 0.5115807655922403], [-0.8000401129458437, -0.17869514336528633, 0.08166131049067853]]]" REF_dip_perm="_JSON [[6.909969959553329e-10, 2.514362976846205e-11, 1.4168249040599058e-10], [-1.3536171041285894e-09, 3.611130730595134e-11, 1.4031465362882078e-10], [-8.779971471355318e-07, 2.9902952253408997e-11, 1.4040834107931184e-10]]" REF_dip_trans="_JSON [[0.26109063173452496, -7.241105847515186e-13, -2.8072517903357722e-12], [0.0, 0.0, 0.0], [-0.6637018152270764, 1.8406816746841987e-12, 7.1361261378696205e-12]]" pbc="F F F"
C        0.00000000       0.00000000       0.00000000
C        1.32150083       0.00000000       0.00000000
H       -0.56503637       0.92382805       0.00000000
H        1.88653720       0.23484870       0.89347879
H        1.88653720      -0.23484870      -0.89347879
H       -0.56503637      -0.92382805      -0.00000000
6
Properties=species:S:1:pos:R:3 REF_energy="_JSON [[-2123.876063652303, -2113.7093983959676, -2108.0490646539847]]" REF_forces="_JSON [[[-3.764147075949894, 9.062843173385692e-10, -1.048992534115684e-10], [-10.192481751618807, -2.2333953616094455e-09, -9.841901778972588e-10], [-23.422621703615526, 3.432480283178991e-10, -1.8468308424461375e-10]], [[3.7640430593762155, 7.112674981372283e-10, 8.728668687766032e-11], [10.192465189103217, -7.575641432770994e-10, 6.018517088904275e-10], [23.422855199366108, 2.4390389019387564e-10, 1.8554876417064364e-10]], [[-0.03629289242676058, -0.03918982556679338, -0.43967249586144896], [-0.19716658817450508, -0.13310496115814285, 1.14513206437193], [-0.10675951829709782, -0.3750870960029501, 0.8598501036842984]], [[0.03634490115933679, 0.017917252235419907, -0.4408984323837851], [0.19717486857511912, 0.18795280720076307, 1.137366240974825], [0.1066427705887838, 0.4161735285402392, 0.8407087439834555]], [[0.036344900735169786, -0.0179172529737073, 0.4408984323759478], [0.1971748692183747, -0.18795280622790436, -1.1373662408133187], [0.10664277038192414, -0.4161735288622036, -0.8407087440179701]], [[-0.036292892893105666, 0.03918982468747094, 0.43967249588680263], [-0.19716658710385135, 0.13310496317631912, -1.145132064151139], [-0.10675951842417973, 0.3750870957379845, -0.859850103650658]]]" REF_nacs="_JSON [[[-0.5466667934386058, -2.4684699949509826e-13, -8.974887869308408e-12], [0.4023819429971285, -1.4416890309843622e-11, -9.960770097700406e-12], [-0.43325330291083575, -4.063339991020214e-12, -3.3101636219849176e-11]], [[-0.5465681895420956, 2.540071088602934e-12, 9.744771434624192e-12], [-0.40236317552092066, 1.553436835866519e-11, 6.543257713689885e-12], [-0.4331554023030492, -3.990537023628665e-12, 4.4855805219551405e-11]], [[0.017860029250737538, -0.013535463723205651, -0.05502399457176965], [-0.008779786365140811, 0.009791329204176661, 0.06659178479595297], [0.03734473398239845, -0.007532145541227195, -0.03859035852346375]], [[0.01784308920784945, -0.010875318704674354, 0.05568524660743339], [0.008770402623480755, -0.006562517377595707, 0.06699301664408956], [0.03728856889775614, -0.0056177273179211255, 0.0389580961459618]], [[0.01784308920630634, 0.010875318705700625, -0.05568524658241984], [0.00877040262680327, 0.006562517371942308, -0.0669930166429803], [0.03728856890033694, 0.005617727325438815, -0.038958096140514105]], [[0.017860029251479746, 0.013535463723491492, 0.05502399455681152], [-0.008779786367805305, -0.009791329199640922, -0.06659178479364448], [0.03734473398290546, 0.007532145544294881, 0.03859035851385279]]]" REF_dip_perm="_JSON [[3.6350730790539656e-11, 4.2371710942099837e-13, 3.0211079868357444e-12], [3.2326334306111643e-11, -1.1820025142623703e-12, 7.745453823599351e-12], [6.261860996489469e-06, -1.6538333343688995e-13, 3.3758711326953066e-12]]" REF_dip_trans="_JSON [[0.7947983199601534, -1.097542358992066e-12, -3.666016622875342e-12], [0.0, 0.0, 0.0], [1.1324781674657733, -1.5638439399207515e-12, -5.223587114047139e-12]]" pbc="F F F"
C        0.00000000       0.00000000       0.00000000
C        1.29368720       0.00000000       0.00000000
H       -0.56503637       0.92382805       0.00000000
H        1.85872357      -0.92276159       0.04437695
H        1.85872357       0.92276159      -0.04437695
H       -0.56503637      -0.92382805      -0.00000000
6
Properties=species:S:1:pos:R:3 REF_energy="_JSON [[-2120.9995181031422, -2116.2660999532286, -2115.62369110294]]" REF_forces="_JSON [[[3.268823347990214, 3.270641155233609e-11, -5.076312241883881e-11], [7.634244036438085, 2.651173254909826e-10, -9.606159973581889e-11], [5.855118262033202, 4.500276999870071e-11, -5.5448499616758414e-11]], [[-3.268822256423111, -9.81907098114881e-13, -7.579788170881986e-12], [-7.6342443052667885, 2.8212892278513426e-11, 1.113827748256481e-10], [-5.855118247670145, 2.0575721590556277e-12, -4.7570973750501057e-11]], [[0.2323231126122297, 0.07273108665130536, 1.1642117198214212], [-0.30422715384684895, 0.23599514123294776, -0.47594725819637956], [-0.3107554612421104, 0.2345887067584519, -1.8932945651572053]], [[-0.23232365842712208, 1.1200265997753251, -0.3259125297562801], [0.304227288246601, -0.3678759251069492, 0.38325812270829995], [0.31075545403719745, -1.7019156643096107, 0.8620204224258953]], [[-0.2323236584133178, -1.1200265997829975, 0.3259125297814682], [0.3042272883243918, 0.3678759250340168, -0.3832581227782237], [0.3107554540387957, 1.7019156642955877, -0.8620204223687911]], [[0.23232311266138408, -0.07273108667512304, -1.1642117197887836], [-0.3042271538960835, -0.2359951414534975, 0.4759472582511631], [-0.31075546119464575, -0.23458870679181504, 1.8932945652028679]]]" REF_nacs="_JSON [[[-0.19405477463983176, 6.449139370162709e-12, 2.8501531250803043e-13], [0.5896535432457098, 1.3168943626025386e-12, -2.155032305894247e-12], [-1.762766340141855, 1.1207288886977254e-11, -5.9657123056834705e-12]], [[-0.19405494262472836, 2.182868934987636e-12, 6.006801560810505e-12], [-0.5896535135944443, 1.3075237976321717e-12, -1.5544143977682037e-12], [-1.7627653476994642, -5.576397065654619e-12, 7.161891889425681e-12]], [[0.04798311543822597, -0.002991252628245874, 0.15782403638557888], [-0.017573539373744056, 0.011754587292768013, 0.3493277935904432], [0.8654833168123641, 0.0352592245801294, 0.050908726955235024]], [[0.047982725170895524, -0.1474813549020685, 0.05627269777325565], [0.017573524547975818, 0.33265940396748556, -0.10726502314591509], [0.8654831451386332, -0.05984242802944873, -0.015931135187522174]], [[0.047982725170251886, 0.1474813548976594, -0.05627269777511174], [0.017573524547461396, -0.33265940396863264, 0.1072650231480327], [0.8654831451340071, 0.05984242802771339, 0.015931135186367438]], [[0.04798311543870312, 0.002991252625427385, -0.15782403638940273], [-0.017573539374081577, -0.011754587294241338, -0.34932779358885013], [0.8654833168125813, -0.035259224583563606, -0.05090872695508668]]]" REF_dip_perm="_JSON [[-2.76482076115903e-10, 1.0317694825415604e-12, -1.201031476428781e-12], [-2.8222823974602265e-10, 5.849219825659861e-13, -4.619624086548021e-13], [-2.60638487266189e-10, 4.553210093866565e-13, -3.4322917973243803e-13]]" REF_dip_trans="_JSON [[0.3506615535129575, -3.2370959454724066e-13, -2.166680702573577e-13], [0.0, 0.0, 0.0], [1.081657734448017, -9.985670908604659e-13, -6.682866224547178e-13]]" pbc="F F F"
C        0.00000000       0.00000000       0.00000000
C        1.54132253       0.00000000       0.00000000
H       -0.56503637       0.92382805       0.00000000
H        2.10635890       0.31292020       0.86921759
H        2.10635890      -0.31292020      -0.86921759
H       -0.56503637      -0.92382805      -0.00000000
6
Properties=species:S:1:pos:R:3 REF_energy="_JSON [[-2122.2457081528014, -2116.543266423629, -2114.0840308809443]]" REF_forces="_JSON [[[-0.8171440413609276, 2.9906881650284905e-08, 3.272228866699374e-08], [0.8319842281315756, 3.0794436818085045e-08, 3.6752706672440005e-08], [-4.470520932934185, 4.3751571101998425e-09, -2.98970261370425e-08]], [[0.8170121993229498, -1.949387529892511e-08, -4.5345208987593995e-08], [-0.8320047175793084, -2.2892234896013355e-08, -5.435891620255136e-08], [4.470542323185235, -2.8376823437386684e-08, -3.099767475604258e-08]], [[-0.06667888574571075, 0.05400322901452034, -1.708822798855052], [-0.7237641383236739, 0.23551343873162794, 1.0965884985469467], [-0.8065310641000061, 0.23745933430913366, 3.5718528621323276]], [[0.0667447414194136, -1.388019858556034, -0.9982456083840981], [0.7237743069848774, 0.7259748716501643, 0.8549924880204276], [0.8065202729900558, 2.687498649916915, 2.364762547995315]], [[0.06674471235848745, 1.38801979584165, 0.9982456327514422], [0.7237741035262185, -0.7259750365346007, -0.8549924117449955], [0.8065196438067921, -2.687499055699585, -2.364762344527076]], [[-0.06667872599318578, -0.05400317671296673, 1.7088227871102315], [-0.7237637827432373, -0.23551328174932443, -1.0965885572160283], [-0.806530242949486, -0.23745890452438345, -3.571853004706071]]]" REF_nacs="_JSON [[[-0.3075795060023636, 3.882995322901259e-10, -4.2297878173341246e-10], [-0.5660992714376814, 3.6390531997755006e-12, 1.3939834967134937e-11], [0.4736191075108904, -3.955226359507566e-11, 4.994371022780305e-10]], [[-0.30766430947665, 1.155236490810245e-09, -2.0987304756969775e-11], [0.5660985884303319, -7.524884132424865e-12, -2.424981755760165e-12], [0.47364906055355854, -2.526616363392425e-10, -2.838881965721656e-10]], [[0.07683209662952492, -0.020005953141709602, -0.17817103908610263], [0.021569935325656566, -0.012130141346431204, 0.13050445663680454], [-0.18907196252584924, 0.037138711959117186, 0.11049510037504603]], [[0.07683208881795496, 0.1290787588762868, 0.12442144991541901], [-0.02156959385103277, 0.11087171663765465, 0.06989429036248145], [-0.18904786650899993, -0.06499280220102163, -0.09678807650449345]], [[0.0768320702271232, -0.12907875712726344, -0.12442144453231664], [-0.02156959384465513, -0.11087171663176437, -0.06989429036134384], [-0.18904786635460366, 0.06499280233987587, 0.09678807628888857]], [[0.07683207751508651, 0.02000594985065555, 0.1781710341437443], [0.021569935333004765, 0.012130141344427015, -0.13050445664945173], [-0.18907196257427344, -0.03713871180667033, -0.1104951003729783]]]" REF_dip_perm="_JSON [[-3.9432006940024116e-10, 3.1512294458511353e-11, 3.928627090592688e-11], [-2.2176860502911137e-10, 2.5634968397704168e-11, 3.0964743358974595e-11], [1.1353461639178117e-05, 2.627412500438777e-11, 3.235964539961958e-11]]" REF_dip_trans="_JSON [[0.4527080984399873, 2.2078868111918373e-12, -1.3971229502003674e-12], [0.0, 0.0, 0.0], [-0.7297121901139422, -3.5587804857286163e-12, 2.2520818555732082e-12]]" pbc="F F F"
C        0.00000000       0.00000000       0.00000000
C        1.35403088       0.00000000       0.00000000
H       -0.56503637       0.92382805       0.00000000
H        1.91906725      -0.56291653       0.73251843
H        1.91906725       0.56291653      -0.73251843
H       -0.56503637      -0.92382805      -0.00000000
6
Properties=species:S:1:pos:R:3 REF_energy="_JSON [[-2120.4690533574785, -2112.2450486780463, -2105.800755721043]]" REF_forces="_JSON [[[-27.914826459355012, -2.842097438028672e-09, -9.98826687860762e-10], [-27.388380162066866, -4.131115413106733e-09, -7.966437214780847e-10], [-34.99675722633705, -1.7816696868769268e-09, -5.469499910291865e-10]], [[27.914874616837817, 2.0036314686791234e-09, 3.83107066439687e-09], [27.38835880476881, 2.5913693079094118e-09, 3.2114151445727904e-09], [34.99687099149494, 5.368508510827541e-10, 3.74131203905379e-09]], [[-0.5579664989404359, -0.01741674976781766, 1.2935148659365097], [-1.590131034701013, 0.4628780376447177, -2.0171907348699474], [-2.173340142398952, 0.77833587884256, -5.42079328733813]], [[0.5579424213137955, 0.6314042970324055, -1.1290967327835668], [1.5901417152474202, -0.6072666066974475, 1.978505975342126], [2.173283261106818, -2.0354557914993747, 5.084125551328843]], [[0.5579424201653556, -0.6314042969881157, 1.129096731111162], [1.5901417131806133, 0.6072666072420637, -1.9785059767444002], [2.1732832597188794, 2.035455791999326, -5.084125553056583]], [[-0.5579665000242074, 0.017416750562304434, -1.2935148670960517], [-1.5901310364280075, -0.4628780366482007, 2.0171907338572366], [-2.1733401435869917, -0.7783358780975365, 5.420793285871213]]]" REF_nacs="_JSON [[[-0.3468697358062672, -2.2634512050600083e-10, 3.0775882934093836e-10], [0.3190118446499368, -3.005049738193486e-11, -1.2185442643637272e-11], [-0.3141410935519244, -1.4527195767479592e-10, 2.095638210574191e-10]], [[-0.3469660346050452, 1.1451351635459899e-10, -3.89627306267806e-10], [-0.3190035266605863, 5.4052242772926714e-11, 2.557949920166616e-11], [-0.3138738974025695, -4.543431300179776e-11, -2.5590456749601795e-10]], [[0.11937607492107145, -0.06888417202131733, 0.21245831573112958], [-0.014368285374024325, 0.009503171715868812, 0.03385287254904809], [0.111138771756168, -0.07781560881950521, 0.180242919917587]], [[0.11940892751058635, -0.04650599196565364, 0.21846184352992304], [0.01436412588873473, 0.02514833826553799, -0.024573211650209034], [0.11112138401758344, -0.02269967044235728, 0.1950018556872563]], [[0.11940892867148328, 0.0465059907808479, -0.21846184369941446], [0.014364126386915064, -0.025148338616135853, 0.024573211393315884], [0.1111213840313482, 0.022699670520089275, -0.19500185572498846]], [[0.11937607652070098, 0.0688841732909786, -0.21245831546028268], [-0.014368284862314742, -0.009503171389272131, -0.033852872305550265], [0.11113877175426033, 0.07781560890959506, -0.18024291981696988]]]" REF_dip_perm="_JSON [[-1.1729668801483415e-09, -1.9910873367033507e-11, 7.987583834535191e-11], [-9.16575557304415e-10, 5.1107545214557135e-11, 2.8537197419583455e-12], [1.791075039621613e-05, 2.481051883338265e-11, 2.5693262811343063e-11]]" REF_dip_trans="_JSON [[0.21656161832379464, 1.1765465056558472e-11, -9.400604329440789e-12], [0.0, 0.0, 0.0], [0.2552382646381543, 1.3866683029740398e-11, -1.1079399079973737e-11]]" pbc="F F F"
C        0.00000000       0.00000000       0.00000000
C        1.10686568       0.00000000       0.00000000
H       -0.56503637       0.92382805       0.00000000
H        1.67190205       0.80014727       0.46176035
H        1.67190205      -0.80014727      -0.46176035
H       -0.56503637      -0.92382805      -0.00000000
6
Properties=species:S:1:pos:R:3 REF_energy="_JSON [[-2117.724757593421, -2114.8988124329144, -2114.0802376137326]]" REF_forces="_JSON [[[-25.78570123340319, -3.739374614470463e-11, 4.5582129026297425e-10], [-22.248524836132795, -9.034843879919878e-11, 2.832833785958077e-10], [-23.683617586744592, 1.9903817444352834e-10, 2.681252044313594e-10]], [[25.785701309553613, -2.650840584093645e-10, -3.4941473765611653e-10], [22.248524765607637, -3.8689676162860186e-10, 1.0511850961488223e-10], [23.683617618676465, -3.464501871386602e-10, -9.363035045980817e-11]], [[-0.9378721534208356, 0.24720409960985418, -2.4413742689882865], [-1.383221274521574, 0.35834930200347925, 0.40055629728577014], [-1.4827977332578075, 0.45102386232121805, 3.2595741025704266]], [[0.9378721154040695, -2.4436035088798826, -0.22409823224004918], [1.3832213097435353, 0.3246586956211739, 0.4283179884712173], [1.482797717415872, 3.1132242153667025, 1.0658709115761564]], [[0.9378721152459211, 2.4436035090178736, 0.2240982323411897], [1.3832213097223802, -0.32465869541023235, -0.42831798864301235], [1.4827977172456186, -3.1132242151975653, -1.065870911530756]], [[-0.9378721533795848, -0.247204099446006, 2.4413742687808186], [-1.3832212744205141, -0.35834930173664037, -0.4005562975020951], [-1.482797733335681, -0.45102386234284364, -3.259574102790246]]]" REF_nacs="_JSON [[[0.35127823722333934, 2.2942396131963494e-13, -8.600851567081537e-12], [0.6141677140056125, -1.301903143556733e-12, 3.9604119041487385e-12], [2.273698121924233, 5.561503744230775e-11, -7.774422313653021e-11]], [[0.35127813283135334, 1.4362929521075803e-12, 2.0597270615437523e-11], [-0.6141677297639234, -5.491349949997962e-12, 1.1909204616870198e-12], [2.2736982051587318, -7.614405528557691e-11, 7.197094590813561e-11]], [[-0.1647800193119952, 0.06989705066120075, 0.24292695664182098], [-0.012204007281265227, -0.00015663787231179422, -0.6953537559249385], [-1.1319869405883791, 0.49213212482558666, 0.10878924023377641]], [[-0.1647800624187637, -0.22508321238014922, -0.11505065894248508], [0.012204015172040712, -0.682497968358268, -0.13309165764350123], [-1.1319862834345333, -0.01269696100154423, -0.5038528239092818]], [[-0.16478006240607154, 0.2250832123821599, 0.11505065892986209], [0.012204015178306798, 0.6824979683594302, 0.1330916576377398], [-1.1319862834559231, 0.012696961040431108, 0.5038528238730595]], [[-0.16478001932187375, -0.06989705066464005, -0.24292695664237088], [-0.012204007275625737, 0.00015663787795614276, 0.6953537559256057], [-1.1319869405683838, -0.49213212484387914, -0.10878924019230259]]]" REF_dip_perm="_JSON [[-2.486464936033305e-10, -2.4927107660660443e-11, 2.8974405521875167e-11], [1.6290373891389266e-10, -3.269483827804323e-11, 3.2909278442500594e-11], [-6.68949215939765e-10, -3.045466723963426e-11, 3.131450984080796e-11]]" REF_dip_trans="_JSON [[-0.11969812128189805, -2.839850958626742e-14, -1.348543656754158e-13], [0.0, 0.0, 0.0], [-0.26731437857233253, -6.339175945241569e-14, -3.013311723929347e-13]]" pbc="F F F"
C        0.00000000       0.00000000       0.00000000
C        1.13172657       0.00000000       0.00000000
H       -0.56503637       0.92382805       0.00000000
H        1.69676294      -0.17661769       0.90678799
H        1.69676294       0.17661769      -0.90678799
H       -0.56503637      -0.92382805      -0.00000000
6
Properties=species:S:1:pos:R:3 REF_energy="_JSON [[-2123.5824911651544, -2114.717737529982, -2110.7884318918054]]" REF_forces="_JSON [[[4.066041339929331, -2.339498495979882e-09, -5.232607038597142e-10], [0.4848203545655573, -4.354189224593667e-09, 7.886060766889174e-10], [-9.004845743208984, -2.9551012045805038e-09, -2.790405450319382e-10]], [[-4.066041506375349, 4.461460815041224e-09, 2.0754169421335274e-09], [-0.4848203596883764, 4.746334751054827e-09, 3.1486977239229267e-09], [9.004845640169085, 4.2656227393735495e-09, 1.949008353969179e-09]], [[0.21080932732262314, 0.014996776532539386, 0.6296441520552428], [-0.051289658277790744, 0.013544049994393025, -1.154122166207482], [0.01546040428501734, -0.14515725740637772, -1.6192926022381555]], [[-0.2108092474807571, 0.1407919686071327, -0.6138845878174432], [0.051289658005974, -0.2178664110889625, 1.1334529800525122], [-0.01546035534214612, -0.46651223718048523, 1.5574162856157359]], [[-0.21080924143848115, -0.14079197170355515, 0.6138845863855545], [0.051289663021761155, 0.21786640888024333, -1.1334529828163198], [-0.015460350505495917, 0.466512235287405, -1.5574162869803543]], [[0.21080932804314395, -0.014996775557876683, -0.6296441521754881], [-0.05128965762726206, -0.013544048177995923, 1.154122165033907], [0.015460404603065499, 0.14515725798892393, 1.6192926019328164]]]" REF_nacs="_JSON [[[0.4860811206968842, 7.968430908390313e-12, -9.238618360958358e-11], [0.46684693216776757, -7.947043942898296e-11, 4.315169965404254e-11], [0.4221899612230087, -1.581596934441834e-11, -7.323111897155225e-11]], [[0.48608106291931485, 5.5783011614142533e-11, 8.754565636713919e-11], [-0.46684693618877215, 5.001262051008287e-11, 1.0482258402867031e-10], [0.42218997396168273, 1.1521698553719618e-10, 1.9135807019518178e-10]], [[-0.030182976534775557, 0.010161047394603263, -0.07942344333204371], [-0.012143582911268814, 0.011146170629122936, -0.026269721984009193], [-0.07708558427966856, -0.0005333660984606485, -0.04999060147880526]], [[-0.030182948242630687, 0.005950998986387361, -0.07984932554121664], [0.012143584970197087, 0.00565931920938064, 0.027969761384332475], [-0.07708558564437964, 0.010534180220649761, -0.04887101127073067]], [[-0.030182948333695267, -0.005950999040836645, 0.0798493256618456], [0.01214358494675235, -0.005659319199851469, -0.027969761480175225], [-0.07708558580919438, -0.010534180317945166, 0.048871011229516696]], [[-0.030182976530289157, -0.01016104741282472, 0.079423443176897], [-0.012143582933514764, -0.011146170609194036, 0.02626972193187713], [-0.077085584266905, 0.0005333660907362096, 0.04999060137711532]]]" REF_dip_perm="_JSON [[5.007073742912249e-10, 2.449406344505722e-11, 1.1137980503048628e-11], [6.480881436304175e-10, 3.5753213050740984e-11, -1.2913461787021837e-11], [3.0377635335897143e-10, 3.420632914596601e-11, -4.36979088523847e-13]]" REF_dip_trans="_JSON [[-0.7727185119765914, -3.8590155950615756e-12, 1.642846800683911e-13], [0.0, 0.0, 0.0], [-1.2273691030083949, -6.129582716580149e-12, 2.609695983229248e-13]]" pbc="F F F"
C        0.00000000       0.00000000       0.00000000
C        1.44492764       0.00000000       0.00000000
H       -0.56503637       0.92382805       0.00000000
H        2.00996401       0.90511196       0.18501513
H        2.00996401      -0.90511196      -0.18501513
H       -0.56503637      -0.92382805      -0.00000000
6
Properties=species:S:1:pos:R:3 REF_energy="_JSON [[-2122.353305510622, -2115.6410955054416, -2113.3109249272393]]" REF_forces="_JSON [[[5.00836655689501, -4.4127186026529955e-10, 1.501862317799521e-09], [5.805759070373322, 3.107116752770763e-09, 1.9880228543354984e-09], [0.019183121849494576, -1.1941374830167597e-09, 1.6621605147337333e-09]], [[-5.0083574938852795, -1.004135748290495e-08, 6.190360514503077e-09], [-5.80572273031464, -7.467837781062448e-09, 2.520488027536915e-09], [-0.01948462381527383, -9.236754826647165e-09, 5.0498733903776634e-09]], [[0.28371604511746784, 0.05524019784785721, -1.1729532769778517], [-0.25762024424286767, 0.1834124239776628, 1.0948384952276196], [-0.2516804601934347, 0.11974161978258184, 2.6703032970737546]], [[-0.28372057703874554, -0.7988648600713024, -0.860543171994705], [0.25760207560571113, 0.5661596164463977, 0.9547731566217637], [0.2518312106235562, 1.6308743552067246, 2.1179228943031365]], [[-0.2837205697068643, 0.7988648709038133, 0.8605431641144737], [0.2576020811614551, -0.5661596082977894, -0.9547731616654661], [0.25183121785067725, -1.6308743449383656, -2.1179229014597927]], [[0.2837160386179356, -0.05524019819829809, 1.1729532771660565], [-0.25762025258149573, -0.18341242776505695, -1.0948384946921923], [-0.25168046631495156, -0.11974161962062907, -2.6703032966294677]]]" REF_nacs="_JSON [[[0.35108108798106596, 2.7036676311776937e-10, -2.6083137609433244e-10], [0.5766881844263407, -1.3948522585188164e-11, -1.1813676493593617e-11], [0.5082828421416528, -5.895022413912881e-10, 1.267529407927461e-10]], [[0.3510073890041685, -3.235835735152356e-10, -1.3274751198229303e-10], [-0.5766898201144576, -3.575303210337832e-11, -3.636198404173116e-11], [0.5084422523419599, -2.391090622043747e-09, -4.212833916544764e-10]], [[-0.05305352858722816, 0.007574110292491801, 0.13278911384572897], [-0.020503816425690564, 0.013374028731643324, -0.07665852707723839], [-0.18578351583836125, -0.007084654206414635, 0.0741014619524638]], [[-0.05304970066733259, -0.07988168731211708, -0.10636121080187046], [0.020504634229394997, -0.05967366668238535, -0.049960415971484415], [-0.1858300973175021, -0.053194276504666134, -0.051993475173998965]], [[-0.05304970115815456, 0.07988168747374706, 0.10636121092922383], [0.020504634233250038, 0.059673666715714634, 0.049960415998407344], [-0.18583004007774084, 0.0531942747952728, 0.05199346566631043]], [[-0.053053528208750596, -0.0075741103988568115, -0.13278911357312465], [-0.02050381642593944, -0.013374028715271888, 0.07665852709849366], [-0.1857834563908473, 0.007084658897536324, -0.07410145214668344]]]" REF_dip_perm="_JSON [[-4.838644526362727e-11, -4.4010200354021635e-12, -3.179752069667309e-11], [-3.2919688159221827e-10, -3.2819754878698006e-12, -2.8385215555453473e-11], [2.3729990237718845e-05, -3.613004479604955e-12, -3.022565347176717e-11]]" REF_dip_trans="_JSON [[-0.6101984537517613, -4.372562651818384e-12, -9.192723147808707e-13], [0.0, 0.0, 0.0], [-1.0929705748155765, -7.831996074799029e-12, -1.6466178497806918e-12]]" pbc="F F F"
C        0.00000000       0.00000000       0.00000000
C        1.51657292       0.00000000       0.00000000
H       -0.56503637       0.92382805       0.00000000
H        2.08160929      -0.70588741       0.59597083
H        2.08160929       0.70588741      -0.59597083
H       -0.56503637      -0.92382805      -0.00000000
6
Properties=species:S:1:pos:R:3 REF_energy="_JSON [[-2120.517483638097, -2115.9055281356386, -2113.6374308106656]]" REF_forces="_JSON [[[-13.893063863750532, -1.2197834985738322e-09, 1.5298317995602663e-09], [-11.73923837145945, -2.7447588952509795e-09, 1.9617759573750677e-09], [-15.629213172563748, -1.485815020575666e-09, 1.458873534100725e-09]], [[13.893063908229127, 8.710436054327435e-10, -1.5892272454118542e-09], [11.739238422876067, 8.884272287261066e-10, -3.0079894479901735e-09], [15.629213128071166, 9.972949584859041e-10, -1.3859543752024743e-09]], [[-0.5344293670236033, 0.11886466320205515, 2.3205122075186106], [-1.1746362456538209, 0.3170062879981422, -0.937088940088006], [-1.364466607515361, 0.4217284846002595, -4.144885168468562]], [[0.5344293464777108, 2.1159943692546386, -0.959934134113297], [1.1746362217318742, -0.6868957756753432, 0.7119008654653581], [1.3644666313819571, -3.4884380341811, 2.277878029905899]], [[0.5344293434697461, -2.1159943689929412, 0.959934135099855], [1.1746362181367105, 0.6868957764029912, -0.7119008634469083], [1.3644666283568072, 3.4884380343672117, -2.277878028993795]], [[-0.5344293674027228, -0.11886466311495904, -2.3205122084455296], [-1.1746362456327788, -0.3170062868694052, 0.9370889391154553], [-1.3644666077299967, -0.42172848429811627, 4.144885167482791]]]" REF_nacs="_JSON [[[-0.3229542298840555, 2.541434975020229e-11, 6.384556740669528e-11], [0.5142064968462572, -5.196812786380565e-12, 4.681579200205737e-13], [-0.6383064751825528, -1.4598180058137e-12, 8.163667004658589e-11]], [[-0.32295420499420624, -6.260945749012493e-11, -1.0020377602572716e-10], [-0.5142064257537456, 1.255294560154851e-11, 4.659214102612626e-12], [-0.6383063554935304, -4.232236081956121e-11, -1.1933434118312048e-10]], [[0.12425906069412368, -0.047218056077925986, 0.21039269557305754], [-0.016390698458853437, 0.006583516634368574, 0.1958601130466938], [0.2948332885634037, -0.11557441906841073, 0.13746565452727472]], [[0.12425901750587172, -0.1652196852072676, 0.13855347773411641], [0.01639066290261918, 0.17701425916484892, -0.08408614010306807], [0.2948332772477501, -0.06904772410217808, 0.1657909867988981]], [[0.12425901751072964, 0.16521968522351133, -0.13855347772927964], [0.01639066290445624, -0.17701425916894148, 0.0840861401025773], [0.2948332772435738, 0.06904772412305218, -0.16579098675598222]], [[0.12425906068830163, 0.04721805609978483, -0.2103926955469529], [-0.01639069846812551, -0.006583516637631357, -0.1958601130513274], [0.2948332885736101, 0.11557441909192477, -0.13746565453601697]]]" REF_dip_perm="_JSON [[-4.459730837709908e-11, 1.1953061322321039e-11, 6.362627054350987e-11], [-2.318035719483783e-10, 2.3219914118378513e-11, 5.182997955501058e-11], [6.736960467646465e-11, 1.8666079441508673e-11, 5.2379612597891594e-11]]" REF_dip_trans="_JSON [[0.264545576295398, 1.5368793076900189e-12, -8.564129785120284e-13], [0.0, 0.0, 0.0], [0.404848113988566, 2.351898907060741e-12, -1.3106349095444147e-12]]" pbc="F F F"
C        0.00000000       0.00000000       0.00000000
C        1.20267916       0.00000000       0.00000000
H       -0.56503637       0.92382805       0.00000000
H        1.76771553       0.42420101       0.82067763
H        1.76771553      -0.42420101      -0.82067763
H       -0.56503637      -0.92382805      -0.00000000
6
Properties=species:S:1:pos:R:3 REF_energy="_JSON [[-2121.538775936086, -2116.266291249272, -2113.626824628735]]" REF_forces="_JSON [[[-8.148994960002932, -2.806070734401425e-10, -4.2848931436818366e-10], [-6.4022127591169795, 1.1044916466582966e-10, -5.448464598244152e-10], [-11.262174210513018, -8.504349895563374e-11, -6.330524764736625e-10]], [[8.149115902113522, -6.528573347942475e-10, -3.959220525970203e-11], [6.40201335684341, -6.33071135608417e-10, -3.2200515206129993e-10], [11.26223945265119, -8.985417487251815e-10, 1.126023292450319e-10]], [[-0.34017754563645136, 0.0796984809640063, -2.0439008738254603], [-1.021786946539784, 0.28489732851380856, 1.0910985487712175], [-1.1903715063757119, 0.3540878391650793, 4.0780572730633295]], [[0.34011707499101057, -1.7495862066066494, -1.0597406696520337], [1.0218866482493694, 0.7534407852709808, 0.8390276203444794], [1.1903388857530468, 3.208453338925555, 2.541937549441783]], [[0.3401170748251872, 1.7495862068204213, 1.0597406696844605], [1.0218866478293798, -0.7534407852695975, -0.8390276199339873], [1.1903388855449313, -3.2084533386478706, -2.5419375493863963]], [[-0.34017754629171865, -0.07969848024453598, 2.0439008742612006], [-1.021786947264943, -0.28489732799230344, -1.0910985483150832], [-1.1903715070594094, -0.3540878384584424, -4.078057272598346]]]" REF_nacs="_JSON [[[0.313078671489644, 6.309716292691237e-11, 6.44209051128344e-11], [0.5158835503441912, 2.57743499889267e-12, 3.456478731464598e-12], [0.5012767637443921, 6.67593966940602e-11, 6.864152373366491e-11]], [[0.31301322898802514, -1.9993923829914373e-11, -8.655183127625019e-11], [-0.5158859011389064, -1.9341730828293677e-12, 5.829181422211413e-12], [0.5011926644830338, -5.2082929773982896e-11, -7.356014034500137e-11]], [[-0.10199916091583852, 0.035241534134621125, 0.19855054230629665], [-0.018768072389288626, 0.009206602130002364, -0.14474373230439125], [-0.21427631274366143, 0.07355650708437636, 0.13229268130622546]], [[-0.10199960957312547, -0.1462960108439388, -0.13879612406051337], [0.01876924770676777, -0.12587003675079145, -0.07206586450925692], [-0.2142959436312046, -0.06988185632416075, -0.13427676288077378]], [[-0.1019996095933066, 0.1462960108539279, 0.13879612410997147], [0.018769247710882554, 0.1258700367537434, 0.0720658645021115], [-0.21429594364519616, 0.06988185632327559, 0.1342767629323741]], [[-0.10199916100462127, -0.03524153419061012, -0.19855054233482966], [-0.018768072387821064, -0.009206602133592845, 0.14474373230223564], [-0.2142763127312308, -0.07355650710008074, -0.13229268135370673]]]" REF_dip_perm="_JSON [[9.84092979958321e-10, -5.897104522577525e-11, -6.890607886451839e-11], [4.1237051819485624e-10, -6.604340676617979e-11, -5.6360288272090436e-11], [-2.8058350450406817e-05, -6.400934811885119e-11, -6.045547083022283e-11]]" REF_dip_trans="_JSON [[-0.34348968251286877, 2.7731544843192917e-12, 6.219031233848829e-13], [0.0, 0.0, 0.0], [-0.5154873961265546, 4.161795332388113e-12, 9.33324689692203e-13]]" pbc="F F F"
C        0.00000000       0.00000000       0.00000000
C        1.25300826       0.00000000       0.00000000
H       -0.56503637       0.92382805       0.00000000
H        1.81804463      -0.50894520       0.77099484
H        1.81804463       0.50894520      -0.77099484
H       -0.56503637      -0.92382805      -0.00000000
6
Properties=species:S:1:pos:R:3 REF_energy="_JSON [[-2123.621972437251, -2114.966681711367, -2110.6491817055335]]" REF_forces="_JSON [[[1.8311011860842124, 5.298586133233961e-09, 1.256640249049943e-09], [-0.48383804450579676, 2.6593782432743006e-09, -1.8100339246077026e-09], [-10.75288505702312, 5.179403353861309e-09, 5.69612521509906e-10]], [[-1.8311014418349174, -1.2117915496692618e-08, -1.1646924413723774e-09], [0.483837926268259, -1.2305087553989496e-08, 6.656854461042672e-10], [10.752884998263124, -1.2960787871894507e-08, -1.3734592379985636e-10]], [[0.1629767618931684, -0.013250896854802744, -0.8095219708726515], [-0.346986029883544, 0.07993825185650631, 1.5553264448209076], [-0.26066777509263267, -0.08627008320251754, 2.537737053587003]], [[-0.16297664502449946, -0.23205187132534658, -0.7756631445978526], [0.3469860771853871, 0.39390790419149535, 1.506740544537961], [0.2606677930143713, 0.8492818402430988, 2.3929630740120578]], [[-0.1629766291349126, 0.23205188461780796, 0.7756631452651361], [0.3469860919606352, -0.3939078923936493, -1.5067405442042934], [0.2606678104010278, -0.8492818248194663, -2.3929630742951926]], [[0.16297676801518762, 0.013250890381508883, 0.8095219701135384], [-0.34698602102559106, -0.07993825400964287, -1.5553264440102696], [-0.26066776956346976, 0.08627007556027226, -2.53773705373588]]]" REF_nacs="_JSON [[[0.4583871618666277, 8.633426284174179e-12, 1.1930930149158862e-11], [0.5113483530192935, -5.207277222575331e-12, -1.3656175516833682e-10], [0.38028394901844176, 1.6286690368803038e-10, -3.800020278347157e-11]], [[0.45838718261061817, 6.701249927085957e-11, -2.0045697414659468e-11], [-0.5113483544762402, -1.231943161184849e-11, 1.0199504119504655e-10], [0.38028394691839856, -1.0137701169274082e-10, -2.3339224481026278e-11]], [[-0.04040798329692792, 0.014273255033235071, 0.1210336497537771], [-0.02186185830664889, 0.014803695302695721, 0.017262608095953702], [-0.06345457276489477, 0.0064490988142740175, 0.08121425207175506]], [[-0.04040793725873067, -0.02297753705981295, -0.11968668008672996], [0.021861859069003526, -0.008893546652456164, 0.02092968898504393], [-0.06345457213540923, -0.018400064524090022, -0.07936487480852439]], [[-0.04040793739705314, 0.02297753701365242, 0.11968668013883767], [0.021861859067795614, 0.00889354666380104, -0.020929689042824766], [-0.0634545723759759, 0.01840006456084824, 0.07936487483026135]], [[-0.040407983257002164, -0.01427325505764453, -0.1210336498001861], [-0.021861858298032683, -0.014803695296514182, -0.017262608003605486], [-0.06345457270526408, -0.006449098909120033, -0.08121425203377024]]]" REF_dip_perm="_JSON [[3.669633338568454e-10, 1.936852712585736e-11, -5.914384652334769e-11], [5.016026099292509e-10, 1.0821733309057623e-11, -5.062037047200351e-11], [5.0383028930759433e-11, 1.2548288924441042e-11, -4.986254309469787e-11]]" REF_dip_trans="_JSON [[-0.7123678302345527, 5.523726775686628e-12, -5.045729235381707e-13], [0.0, 0.0, 0.0], [-1.0615483813092546, 8.231256946353021e-12, -7.520005362526433e-13]]" pbc="F F F"
C        0.00000000       0.00000000       0.00000000
C        1.39109442       0.00000000       0.00000000
H       -0.56503637       0.92382805       0.00000000
H        1.95613079      -0.88061756       0.27923283
H        1.95613079       0.88061756      -0.27923283
H       -0.56503637      -0.92382805      -0.00000000
6
Properties=species:S:1:pos:R:3 REF_energy="_JSON [[-2118.3955171704665, -2115.878160556258, -2115.5606066746063]]" REF_forces="_JSON [[[-20.00589631868778, 1.1525527989696717e-11, -8.956631324654722e-11], [-15.196676324583919, -5.895154054122996e-11, -8.30664633453677e-11], [-15.682991577935292, -4.110568195479072e-12, -5.262633462700735e-11]], [[20.00589563967846, 6.619102400587397e-11, 6.304900728255221e-11], [15.196676499443425, 4.926627243936161e-11, -1.7752975868889035e-11], [15.682992166895367, 1.01790351226061e-10, 5.557470062781062e-11]], [[-0.8023872067526879, 0.22289467376691374, 1.3182836980601083], [-1.2388308466592834, 0.32780921504858684, -0.16942345962831656], [-1.2815983651170868, 0.38336523282232954, -1.6562709049324846]], [[0.8023875461928124, 1.332247879689876, 0.1125704598325461], [1.2388307591634125, -0.14159611564960792, 0.34075455581408404], [1.2815980705681183, -1.6186819566148414, 0.5196810519657077]], [[0.8023875461657026, -1.3322478797598305, -0.11257045982654053], [1.2388307591055832, 0.1415961155931573, -0.3407545557433381], [1.2815980705702728, 1.6186819565468307, -0.5196810519982938]], [[-0.8023872065973829, -0.22289467377451802, -1.3182836980394572], [-1.2388308464678852, -0.3278092149824766, 0.1694234596585527], [-1.2815983649870248, -0.38336523285199336, 1.6562709049619648]]]" REF_nacs="_JSON [[[-0.17882539058089084, -1.1780468924037898e-12, -8.739960684398428e-13], [-0.4678024286744619, -3.13680055223607e-13, -3.074787245390138e-12], [5.688907898348192, -7.927538550555583e-11, -2.3248350320511956e-10]], [[-0.17882563153670497, 3.2973392712610665e-13, 2.099567638347837e-12], [0.46780242255559107, -2.424750456917137e-13, 7.594807194710039e-14], [5.688897210047794, 1.5474725372546e-10, 2.2185109110534867e-10]], [[0.08302127576891281, -0.03164347720645095, 0.2520213088051109], [0.011050002803851803, -0.002205728712657163, -1.1927419553296428], [-2.843110975527323, 1.0976730664345025, -0.0527534351681516]], [[0.08302073227918885, -0.24852009727420826, 0.05247813745077224], [-0.01104999966608937, -1.1887992746463514, 0.09692376717358347], [-2.843117397908979, -0.038650269153567646, -1.0982636364634104]], [[0.08302073227835662, 0.24852009727388513, -0.052478137452564834], [-0.01104999966924858, 1.1887992746463856, -0.0969237671707969], [-2.8431173980235913, 0.038650269128710946, 1.098263636457369]], [[0.08302127576947993, 0.03164347720871805, -0.25202130880506746], [0.011050002804030986, 0.0022057287131915966, 1.1927419553298393], [-2.8431109756325994, -1.0976730664853174, 0.052753435184932175]]]" REF_dip_perm="_JSON [[7.574109886367885e-10, 5.0328898403809035e-12, 2.4702257779481844e-12], [-3.80537604461331e-09, 5.469889748338193e-12, 3.36296308396098e-12], [-8.499325508550922e-08, 5.112003687462261e-12, 3.0458831126322747e-12]]" REF_dip_trans="_JSON [[0.07984172994019342, 2.0841362862863144e-13, -3.108083578724275e-13], [0.0, 0.0, 0.0], [-0.3816709231770656, -9.959967554379988e-13, 1.4857994455447837e-12]]" pbc="F F F"
C        0.00000000       0.00000000       0.00000000
C        1.17519200       0.00000000       0.00000000
H       -0.56503637       0.92382805       0.00000000
H        1.74022837       0.07677411       0.92063239
H        1.74022837      -0.07677411      -0.92063239
H       -0.56503637      -0.92382805      -0.00000000
6
Properties=species:S:1:pos:R:3 REF_energy="_JSON [[-2119.9454020707612, -2111.178382210203, -2103.9991703980727]]" REF_forces="_JSON [[[-32.73290232594465, 1.35209639750705e-08, -1.45267912598428e-09], [-31.92719479795206, 1.890170268081472e-08, -8.636899224360412e-10], [-39.7174899533726, 1.0346322921361267e-08, 1.79689696783902e-11]], [[32.73289570154601, -6.836980788977536e-09, 1.3413995257904881e-09], [31.927050132801856, -7.713673495818818e-09, -1.620631264737899e-09], [39.717485847737784, -4.717809691461946e-09, 1.2490466897978214e-09]], [[-0.6038435199437414, -0.04107149468575617, -1.098649162425334], [-1.7059247601258885, 0.5256871313400856, 2.1484794508521916], [-2.389497090772416, 0.9192473383151738, 5.604517556493985]], [[0.6038468329592137, -0.4303835468610621, -1.011595749208036], [1.705997094344563, 0.438170048447062, 2.168089432999474], [2.3894991440168396, 1.5521491907706422, 5.463235786487489]], [[0.603846829352074, 0.4303835451030568, 1.0115957492862284], [1.705997088590315, -0.4381700523828443, -2.168089431322359], [2.3894991413163016, -1.5521491920870265, -5.463235787075604]], [[-0.6038435179681416, 0.041071489759691625, 1.0986491624582955], [-1.7059247576578298, -0.5256871385924534, -2.148479450045076], [-2.3894970889234584, -0.9192473426278859, -5.6045175571729615]]]" REF_nacs="_JSON [[[0.342687258146249, -2.021934771178959e-10, -3.049241822138546e-10], [0.30192612284795795, 1.4515225331826173e-10, -7.064199367190197e-11], [0.2992624363298497, -9.184716047144904e-11, -3.005598798908327e-10]], [[0.34279507081857896, -2.7984163487681144e-10, 4.866999465645686e-10], [-0.3019256447285965, -7.096397725454256e-11, -3.384620136616072e-11], [0.2991084747086318, -1.657327862339726e-10, 4.969899132161373e-10]], [[-0.12422422864112358, 0.07749807546016332, 0.21656642794559489], [-0.013641581881899024, 0.010070931842716402, -0.029049693571286426], [-0.10870171438888403, 0.08354275799928412, 0.18795458586905522]], [[-0.12423114022503344, -0.021971127659907677, -0.22897263155590886], [0.013641342836735957, -0.021463141614568394, -0.02200367047486366], [-0.10864810279885452, -0.00436582012098726, -0.20560085968332759]], [[-0.12423113872162043, 0.021971129769742487, 0.22897263149109504], [0.013641342275097976, 0.021463141262328546, 0.022003670799200375], [-0.10864810284434194, 0.004365820466645419, 0.20560085971736533]], [[-0.12422423098518805, -0.07749807719322115, -0.2165664280739999], [-0.0136415813545296, -0.010070931564665351, 0.029049693351437766], [-0.10870171441681115, -0.08354275817872608, -0.18795458610945617]]]" REF_dip_perm="_JSON [[-3.1016791942580747e-10, -1.2753568538183725e-11, -2.668010395651579e-11], [-1.6918704392682787e-10, 3.0850236475041046e-10, -1.943702306188306e-10], [7.976341340476263e-06, 1.544343933894989e-10, -1.099266085762024e-10]]" REF_dip_trans="_JSON [[-0.17642224100190562, 6.871608018992147e-11, -2.0761829433153356e-12], [0.0, 0.0, 0.0], [-0.2032624372115742, 7.917019770986138e-11, -2.3919667290402176e-12]]" pbc="F F F"
C        0.00000000       0.00000000       0.00000000
C        1.08429726       0.00000000       0.00000000
H       -0.56503637       0.92382805       0.00000000
H        1.64933363      -0.83607674       0.39298085
H        1.64933363       0.83607674      -0.39298085
H       -0.56503637      -0.92382805      -0.00000000
6
Properties=species:S:1:pos:R:3 REF_energy="_JSON [[-2122.499906580714, -2116.3739465673452, -2113.6193605455487]]" REF_forces="_JSON [[[0.04964894142433117, 2.227286860479766e-09, -1.9176640570159517e-10], [1.2490065524667477, 1.1190862039840696e-08, -2.5764564544654056e-09], [-4.711704277387776, 2.7149614102255678e-09, 1.2366910578832943e-10]], [[-0.04964898794904282, -1.9993000260847195e-10, 1.0321407305796949e-09], [-1.2490066020985657, 3.897876464437106e-09, 8.47618123998762e-09], [4.711704213076135, -8.560628515503081e-10, 3.219165383121456e-11]], [[-0.013204349987446865, 0.04374936459770884, 1.5794155124008982], [-0.6799025533364839, 0.22416910560783712, -1.1991735823365277], [-0.7538249316674335, 0.2102237707583916, -3.560467779421841]], [[0.013204373176670456, 1.1989078718096018, -1.0291196922248818], [0.6799025781241211, -0.7372852449519981, 0.971946262668244], [0.7538249640078256, -2.4951169492016754, 2.5486302748961047]], [[0.013204371588290626, -1.1989078730683933, 1.0291196901119797], [0.6799025803207176, 0.7372852385532211, -0.9719462700693295], [0.7538249620996864, 2.4951169485027567, -2.5486302763314286]], [[-0.013204348253088014, -0.04374936536611691, -1.5794155111283357], [-0.6799025554755185, -0.2241691142987794, 1.199173583837651], [-0.7538249301286075, -0.2102237719176831, 3.560467780701088]]]" REF_nacs="_JSON [[[0.3225501584548056, 8.50496848986724e-10, 9.683323344940335e-10], [0.5527580225412377, -1.4819384755831267e-11, -2.2522664973752923e-11], [0.42992848155228874, -7.097873285004634e-10, -2.125974268583672e-09]], [[0.32255034434956836, 3.934251027526086e-10, -2.9390506357705625e-12], [-0.5527579144965094, 2.9649274245259766e-11, -2.715902996907297e-11], [0.42992851340438043, 1.9616949707935753e-09, -1.019044831355246e-09]], [[-0.07194572222446775, 0.018803269354153298, -0.17204785092233704], [-0.021964482899561606, 0.012645374282168836, 0.1018232130296688], [-0.15815112721118316, 0.02868581750090174, -0.10939306217661507]], [[-0.07194574210938813, 0.11475810557386731, -0.12955540897085635], [0.021964428865341067, 0.0838955235703895, -0.059071251650891575], [-0.15815101737852288, 0.06172233873670505, -0.09476320192086032]], [[-0.07194572141173511, -0.11475810380641403, 0.1295554034259452], [0.021964428869181367, -0.08389552359045668, 0.05907125167204649], [-0.15815101944488114, -0.06172233308002513, 0.09476320635196649]], [[-0.07194574214166503, -0.018803272369127388, 0.17204785551086324], [-0.021964482892633305, -0.012645374276931272, -0.10182321300114036], [-0.15815112924130914, -0.02868582441177777, 0.10939306089625513]]]" REF_dip_perm="_JSON [[1.7790830459587546e-10, 3.25178730937823e-11, 5.806956375771661e-13], [1.59389418548805e-10, 2.8462247459190592e-11, 6.109879132359492e-12], [2.6378222171600087e-10, 2.8106235147324478e-11, 4.916092818768688e-12]]" REF_dip_trans="_JSON [[-0.48920928189557994, -3.5992926101858545e-13, 8.38681350874632e-14], [0.0, 0.0, 0.0], [-0.7692013038959461, -5.657927492146367e-13, 1.318727791254047e-13]]" pbc="F F F"
C        0.00000000       0.00000000       0.00000000
C        1.36623151       0.00000000       0.00000000
H       -0.56503637       0.92382805       0.00000000
H        1.93126788       0.62089866       0.68406368
H        1.93126788      -0.62089866      -0.68406368
H       -0.56503637      -0.92382805      -0.00000000
6
Properties=species:S:1:pos:R:3 REF_energy="_JSON [[-2120.767625936809, -2116.200084042278, -2115.784035283544]]" REF_forces="_JSON [[[3.090459686431553, -1.8624038207707272e-11, 4.844458095270081e-11], [8.018904423203928, -8.574084884310997e-10, -1.722191165445548e-11], [6.885182214255254, -3.660341801558124e-10, -4.696875311823721e-11]], [[-3.090459804299421, 2.0142371177781165e-10, -2.6776544542408234e-11], [-8.018904168755506, 2.3793287308406096e-10, 9.64004898677712e-10], [-6.885181889300083, 2.567123029357845e-10, 5.879960653958728e-10]], [[0.2556702661698478, 0.07300168593640159, -0.9459168819547934], [-0.2731376629835689, 0.24087680875014522, 0.35364838921639763], [-0.2781156012648283, 0.2465398550009241, 1.484928799732315]], [[-0.2556702072491809, -0.9327255640398884, -0.17352519103621564], [0.27313753531762397, 0.2795263918617659, 0.32396563549683804], [0.2781154385678311, 1.371043331008726, 0.6213175465392058]], [[-0.2556702072940081, 0.9327255638625543, 0.1735251910601706], [0.2731375356705084, -0.2795263920078534, -0.3239656362967597], [0.2781154387385873, -1.3710433311988026, -0.621317546985714]], [[0.25567026623942907, -0.07300168594201946, 0.945916881909151], [-0.2731376624533287, -0.24087680798466038, -0.3536483893632272], [-0.27811560099516947, -0.246539854701407, -1.4849287998270448]]]" REF_nacs="_JSON [[[-0.15345333504732922, 3.132693397912617e-11, -2.254907113087411e-12], [0.5085459328627359, -2.0184220343371375e-11, 3.025505690156319e-11], [-2.810112061437856, 9.853686194645639e-11, -1.2168821247055382e-11]], [[-0.15345355326012183, 1.645427326979798e-12, -4.6559716614718564e-11], [-0.5085458851595289, 3.247346613715096e-11, -1.639364282941512e-11], [-2.8101127119516596, -3.741446961977668e-11, -1.0809058904370461e-11]], [[0.03902992868726002, -0.0016774671529142687, -0.1579090930751554], [-0.01467723761698428, 0.010036772231090818, -0.41491193830051104], [1.395657651351323, 0.07658462161196822, -0.03904848857731431]], [[0.03902999429189247, 0.1521298602568503, 0.0423627658075576], [0.014677213563358072, -0.40345361331703467, -0.09735413619525987], [1.395659650190037, 0.05748661755867468, -0.06391595771421817]], [[0.039029994298974406, -0.15212986027477682, -0.042362765793422644], [0.014677213565813904, 0.40345361330775986, 0.09735413619003647], [1.3956596502231033, -0.057486617582592756, 0.06391595771132161]], [[0.03902992868994362, 0.0016774671412019084, 0.15790909310587745], [-0.01467723761841261, -0.010036772234109939, 0.41491193829185985], [1.3956576514184402, -0.07658462164837435, 0.03904848860226266]]]" REF_dip_perm="_JSON [[-3.557208397979156e-10, -8.712724701336164e-14, 1.5551284004181846e-12], [-6.320571798797213e-09, -1.5845046210054994e-12, -3.413346112891739e-12], [4.311912860268424e-09, -3.704401792417367e-12, -4.208856664728234e-12]]" REF_dip_trans="_JSON [[0.27966244937527257, -1.2828018763440585e-12, 7.066213044012442e-13], [0.0, 0.0, 0.0], [1.1218218296374114, -5.1459098104458085e-12, 2.8344165362204517e-12]]" pbc="F F F"
C        0.00000000       0.00000000       0.00000000
C        1.55935327       0.00000000       0.00000000
H       -0.56503637       0.92382805       0.00000000
H        2.12438964      -0.23835606       0.89254953
H        2.12438964       0.23835606      -0.89254953
H       -0.56503637      -0.92382805      -0.00000000
6
Properties=species:S:1:pos:R:3 REF_energy="_JSON [[-2123.716786158031, -2113.7921952965653, -2107.897567983433]]" REF_forces="_JSON [[[-5.4701428127630445, -6.702229952873228e-11, 4.608463693396702e-10], [-9.085152105098791, -6.519607792619022e-10, 1.0150776820390614e-09], [-23.635021052300562, -9.074034132352665e-11, 5.452927429535141e-10]], [[5.47014272969162, -8.257429671089407e-11, 6.966011614148452e-11], [9.085152004543813, 1.15292261453354e-09, -7.205744834396599e-11], [23.635022316412577, 1.1351505374265857e-11, 8.765729863895326e-11]], [[0.005007208373781373, -0.07324417316394527, 0.613997258226337], [-0.5451649080317629, 0.01659025178467362, -1.9605010827644203], [-0.3158690508990406, -0.2838807659954295, -2.1810799149592084]], [[-0.005007166730763945, 0.0062961893687799525, -0.6183184387928089], [0.5451649584897896, -0.23557994994124018, 1.946366316985275], [0.3158684187822329, -0.5619146605045675, 2.1264876946193456]], [[-0.005007166850161893, -0.00629618921682934, 0.6183184386048407], [0.5451649584744196, 0.2355799494303532, -1.9463663174126076], [0.315868418850147, 0.5619146603865951, -2.126487694868619]], [[0.005007208276933957, 0.07324417316147906, -0.6139972585690086], [-0.5451649083797824, -0.016590251774237567, 1.9605010822486724], [-0.3158690508454444, 0.28388076619289176, 2.1810799145754864]]]" REF_nacs="_JSON [[[0.5174578374355955, 1.777014817615454e-11, -2.2072370153734683e-11], [0.5393155190984787, -5.2606265589320306e-11, 1.1042307343188745e-11], [0.3877161936913792, 1.3906821642262489e-11, 6.160561009392132e-12]], [[0.517457785245814, 7.558384872553037e-12, 2.2037529239889474e-11], [-0.539315519551654, 5.287937600858478e-11, -2.3267616910033713e-13], [0.3877164159198022, 1.9350618722528744e-11, 7.586686558406746e-12]], [[-0.03243614792376502, 0.01803095469162991, -0.12198124097495064], [-0.028432605251795005, 0.01889387499620837, -0.07088390158805354], [-0.028685112321874845, 0.009407177216553273, -0.08904273782654461]], [[-0.03243618596346967, -0.0022000413280637053, -0.12328705945814973], [0.028432605444742277, 0.009624606403045684, 0.0727246380284135], [-0.028685089999563033, 0.0021178014038414398, -0.0895132325893569]], [[-0.03243618597323257, 0.002200041316440151, 0.12328705950483844], [0.0284326054388006, -0.009624606423292532, -0.07272463803405982], [-0.028685089997634753, -0.0021178014287277724, 0.08951323261772716]], [[-0.03243614792369718, -0.01803095470006145, 0.12198124093547483], [-0.028432605256610403, -0.018893874976234154, 0.07088390158288892], [-0.02868511231678638, -0.009407177221075216, 0.08904273778967359]]]" REF_dip_perm="_JSON [[5.517566250921432e-10, 6.285178761945027e-13, 4.936704057876726e-12], [5.608130786396144e-10, -3.941118750658165e-12, 4.393733233697302e-12], [5.81590873215192e-10, -9.32377507287244e-13, 8.544087290452217e-12]]" REF_dip_trans="_JSON [[-0.7340287679970929, -4.7498095344502635e-12, -3.2271854776305623e-12], [0.0, 0.0, 0.0], [-1.0056445555878355, -6.5074005867139985e-12, -4.4213916375313975e-12]]" pbc="F F F"
C        0.00000000       0.00000000       0.00000000
C        1.27775585       0.00000000       0.00000000
H       -0.56503637       0.92382805       0.00000000
H        1.84279222       0.91616245       0.11876290
H        1.84279222      -0.91616245      -0.11876290
H       -0.56503637      -0.92382805      -0.00000000
6
Properties=species:S:1:pos:R:3 REF_energy="_JSON [[-2121.252037316424, -2116.635790578389, -2114.737957494595]]" REF_forces="_JSON [[[-6.830966502702344, 7.467124074635278e-10, -2.4450106489420404e-10], [-4.307305812165986, 1.184325978596031e-09, 2.5886663058702173e-12], [-8.150926398896562, 6.421613507063661e-10, -3.040838289314144e-10]], [[6.831053841356339, -4.775275357776375e-10, 4.560483968131471e-10], [4.3071644642247655, -3.1692750341010723e-10, -4.6705752713856516e-11], [8.150881390126893, -3.6142074855076086e-10, 6.031909170141083e-10]], [[-0.3346673279702317, 0.09525851944679271, -2.116161459234314], [-0.9561966730035244, 0.27609166619598535, 0.8617953627675566], [-1.071322152049081, 0.32787898702779145, 3.7121958953786796]], [[0.3346236583602408, -1.934546185272827, -0.8629943208789796], [0.9562673468879385, 0.6466236643634375, 0.6331062204447794], [1.0713446561708506, 3.171969006300099, 1.9561418339961192]], [[0.3346236578089227, 1.934546185073592, 0.8629943209146974], [0.9562673463147779, -0.6466236645964308, -0.6331062201916903], [1.071344655671532, -3.171969006414302, -1.9561418340665315]], [[-0.3346673268538602, -0.09525851951735562, 2.1161614589869226], [-0.9561966722599818, -0.27609166682961533, -0.8617953629763044], [-1.0713221510231852, -0.32787898719380865, -3.712195895606993]]]" REF_nacs="_JSON [[[0.29386242014738745, -3.565178304800231e-11, -7.690824667147697e-11], [0.5848941161842677, -9.486743537496644e-13, -3.843843934688784e-12], [0.668488125103715, -6.817346413110911e-11, -6.562610782173008e-11]], [[0.29379307696979307, 2.0461080803313885e-10, -2.1982066203366934e-11], [-0.5848929810798092, -9.756255999571583e-12, -1.0105470102269257e-11], [0.6684152972074552, 7.978185030031454e-11, 6.772237314998266e-11]], [[-0.1011274244754023, 0.031462576549955934, 0.20096850843017347], [-0.019788134062417268, 0.009554970560581784, -0.22492972396923588], [-0.3069526198887429, 0.09156926313591071, 0.1196547738920435]], [[-0.10112844679237588, -0.16558783166765545, -0.11815785810150845], [0.019787566500720725, -0.20537919830772144, -0.09222658570576056], [-0.3069717357367576, -0.06595432680760502, -0.1354670465304878]], [[-0.10112844660439103, 0.16558783158373008, 0.118157858132794], [0.01978756650328924, 0.2053791983115746, 0.0922265857158345], [-0.30697173571904907, 0.06595432678237265, 0.135467046485651]], [[-0.10112742423051722, -0.03146257662961658, -0.20096850836124006], [-0.019788134065014885, -0.009554970553732849, 0.2249297239731117], [-0.30695261986428607, -0.09156926311907987, -0.11965477384848283]]]" REF_dip_perm="_JSON [[4.730799861130771e-11, 4.6314911636102244e-11, 7.854339460503431e-11], [-6.225218793630734e-11, 4.6504368480428654e-11, 7.844346132451049e-11], [-2.151896640612932e-06, 4.808872736540006e-11, 8.05816171390514e-11]]" REF_dip_trans="_JSON [[-0.3289276893098523, -7.950745504640677e-12, 5.342907504931896e-12], [0.0, 0.0, 0.0], [-0.5523929397640553, -1.3352307964110448e-11, 8.97287150141418e-12]]" pbc="F F F"
C        0.00000000       0.00000000       0.00000000
C        1.27419277       0.00000000       0.00000000
H       -0.56503637       0.92382805       0.00000000
H        1.83922914      -0.41384309       0.82594925
H        1.83922914       0.41384309      -0.82594925
H       -0.56503637      -0.92382805      -0.00000000
6
Properties=species:S:1:pos:R:3 REF_energy="_JSON [[-2122.1029730043215, -2115.445310671452, -2113.359213436537]]" REF_forces="_JSON [[[5.546100335760439, 3.909799701639492e-08, 9.540908507794834e-09], [6.533869279063982, 2.4773056848856788e-09, -2.2264750227649618e-08], [1.2197452724306874, 5.972944214802104e-09, -2.255961047362309e-10]], [[-5.54608118911541, 3.116309005921754e-08, 6.537746116442369e-09], [-6.533815120702306, -1.7266730049258316e-08, 6.501686337742437e-09], [-1.2200103089485408, 1.094981204424635e-09, -6.62874436942386e-09]], [[0.3338596470716583, 0.06732201087529135, 1.1246899125447058], [-0.17593493386004785, 0.18751080294308403, -1.017471467775822], [-0.1656811913692313, 0.126720410963221, -2.4769849106165993]], [[-0.33386923049584594, 0.7866094116608883, -0.8065501303765669], [0.17590784439358195, -0.5237751952864325, 0.8921359017057159], [0.16581369927221026, -1.5242933311473612, 1.956633862831982]], [[-0.3338688200680304, -0.7866093885385136, 0.8065499804143308], [0.17590725622138526, 0.5237751629759679, -0.8921357736532709], [0.16581414311985043, 1.5242933695288023, -1.9566339596583615]], [[0.33385925684647355, -0.06732210425914742, -1.124689778661245], [-0.17593432511510645, -0.18751075584397858, 1.0174713554865238], [-0.16568161450527227, -0.1267204564127235, 2.4769850142969436]]]" REF_nacs="_JSON [[[0.3473096858154313, -2.780118475758158e-11, 6.190682751199315e-11], [-0.5812165935867838, -3.383081139344662e-11, 7.322870073693526e-11], [-0.5717079759480053, -2.9891838316635465e-10, 4.8495128382170406e-11]], [[0.34723560233025963, 1.0144871797677537e-10, -4.463788988679694e-11], [0.5812138154119634, 4.7487054983268355e-11, -4.009885056644166e-11], [-0.5718244179092763, -1.3814445761875378e-10, -2.7818452167465816e-10]], [[-0.05163047772200358, 0.005513883572421468, -0.1257345554736034], [0.01944685975925165, -0.013076383413786993, -0.08329483385408103], [0.2212731375471217, 0.01675563666546005, 0.06653681431840272]], [[-0.051616849554008755, 0.07808684782637658, -0.0987144269952541], [-0.01944547059125476, -0.06438043934793367, 0.05445941303102385], [0.22130513114131475, -0.05618880629080387, 0.039305661809905516]], [[-0.051616849627565964, -0.07808684789032623, 0.09871442695588864], [-0.019445470623793197, 0.06438043931294425, -0.054459412996523494], [0.221305131693625, 0.056188806391221834, -0.039305661533471654]], [[-0.051630477607868853, -0.0055138835771756985, 0.12573455548505666], [0.01944685976133167, 0.013076383435120867, 0.08329483378645018], [0.22127313711153038, -0.016755636331422855, -0.0665368143595139]]]" REF_dip_perm="_JSON [[6.201484639506326e-11, 1.5960385871326235e-11, -1.1689487294939463e-11], [-4.913802681090017e-10, 1.3085638501591002e-11, -4.322738965658505e-12], [2.2266384066713725e-05, 1.2675703857108915e-11, -5.648728681608946e-12]]" REF_dip_trans="_JSON [[-0.6130756907892669, 1.4599515306897317e-12, 5.6601784003292204e-12], [0.0, 0.0, 0.0], [1.1580492961808397, -2.757649867221921e-12, -1.0691611087851097e-11]]" pbc="F F F"
C        0.00000000       0.00000000       0.00000000
C        1.55464733       0.00000000       0.00000000
H       -0.56503637       0.92382805       0.00000000
H        2.11968370       0.69873651       0.60433894
H        2.11968370      -0.69873651      -0.60433894
H       -0.56503637      -0.92382805      -0.00000000
6
Properties=species:S:1:pos:R:3 REF_energy="_JSON [[-2123.755885382268, -2114.7220938007704, -2110.0714420747017]]" REF_forces="_JSON [[[0.8442946975926127, -4.138641866129999e-09, -1.068246345297451e-09], [-2.172824460506319, -3.825413124051139e-09, 4.0930371628055585e-10], [-13.30517983383699, -4.440997512571882e-09, -6.260893998868512e-10]], [[-0.8441086904273167, 1.6126283751645535e-08, -5.225251742009198e-09], [2.1730596943728315, 1.6379843589360497e-08, -7.736884727279857e-09], [13.305144234662052, 1.5603734097654693e-08, -5.041490466214977e-09]], [[0.13484078284160214, -0.0250364151238947, -0.7280612267328067], [-0.3327522331405356, 0.04575687813747485, 1.5827367057282242], [-0.2216884052010769, -0.1484951075009359, 2.3066554766898846]], [[-0.1349337812838375, -0.1466313707991093, -0.7135122238597088], [0.332634621444405, 0.32798711465323743, 1.5489891771400617], [0.22170620943376548, 0.6866745598819078, 2.207290357612303]], [[-0.13493379171928885, 0.14663135727938395, 0.7135122287739408], [0.33263460960031555, -0.3279871303028293, -1.5489891705668148], [0.22170619993624543, -0.6866745729256396, -2.207290353017474]], [[0.13484078299561944, 0.02503641665582395, 0.7280612281120391], [-0.3327522317701596, -0.04575687504210275, -1.5827367049738523], [-0.2216884049936691, 0.1484951093818677, -2.306655475617169]]]" REF_nacs="_JSON [[[0.4803785029545374, 9.354669196507523e-12, -5.996648486715466e-11], [0.5016613006833887, 5.2497838397335476e-11, 6.55005732704407e-11], [0.38465652422130353, -5.2735491355128766e-11, 2.33230924717007e-11]], [[0.4803595412815331, 5.901629885059842e-11, 1.3272678777616174e-10], [-0.5016599147074748, -4.6050027776120596e-11, -1.5856902862147362e-10], [0.3846986522480703, 1.0195871448807268e-10, -1.7491440203611596e-10]], [[-0.0359524358915121, 0.014588880799892722, 0.11327409226118336], [-0.021173053403694315, 0.014826840555092946, 0.03247007273178911], [-0.05330050121693975, 0.006595039229894888, 0.07710326060572886]], [[-0.03595634926816185, -0.012451813761085657, -0.11352143089256668], [0.021172360429438663, -0.006777171221988362, 0.03505097184013068], [-0.053331274565402646, -0.011697204062538586, -0.07643362343555173]], [[-0.03595634922135712, 0.012451813711467025, 0.11352143084606563], [0.021172360394442064, 0.006777171238583767, -0.03505097171776751], [-0.05333127445288154, 0.011697203991878572, 0.07643362363054462]], [[-0.03595243590498737, -0.014588880814661913, -0.11327409227087974], [-0.021173053398087876, -0.014826840578135702, -0.03247007276108383], [-0.05330050120153678, -0.0065950392057446796, -0.07710326063785647]]]" REF_dip_perm="_JSON [[-7.717347588452028e-10, -2.8216578144569528e-11, 3.9084322401534995e-12], [-8.313407967909732e-10, -2.659474427940169e-11, 1.2037796416431863e-12], [6.829815140799849e-06, -2.6161700063798475e-11, 4.863419652159258e-12]]" REF_dip_trans="_JSON [[-0.7334031217810434, 1.9064822043482153e-12, -1.7840388741553158e-12], [0.0, 0.0, 0.0], [-1.0773980378232295, 2.800767205171574e-12, -2.6208861074016775e-12]]" pbc="F F F"
C        0.00000000       0.00000000       0.00000000
C        1.36990789       0.00000000       0.00000000
H       -0.56503637       0.92382805       0.00000000
H        1.93494426      -0.89792421       0.21723349
H        1.93494426       0.89792421      -0.21723349
H       -0.56503637      -0.92382805      -0.00000000
6
Properties=species:S:1:pos:R:3 REF_energy="_JSON [[-2116.184324295948, -2113.6690398287856, -2112.987424269286]]" REF_forces="_JSON [[[-34.27337364878559, -3.6158829929827096e-10, 2.456098217678382e-10], [-30.855840877646163, 2.8785807242208633e-10, 2.3968109766889304e-10], [-31.898074211745723, 9.623425592493586e-11, 3.2793312769813343e-10]], [[34.27334383949922, 2.7164406962335927e-10, 2.7401723657129486e-10], [30.855848769070125, 3.588961008998053e-11, 3.039629829292606e-10], [31.898098862219292, 3.375721913696706e-11, 2.1496802966989057e-11]], [[-1.1420929362657422, 0.3107448380385551, 2.43522874375961], [-1.5276548186490826, 0.38992542924245266, -0.3278442280477086], [-1.6286613387297393, 0.49210366827899704, -3.1199182106782755]], [[1.1421078409446122, 2.45404295909597, -0.0674842526963005], [1.527650873069438, -0.2640063903426969, 0.4357066538762218], [1.6286490136299174, -3.0070786838670522, 0.9660764321596036]], [[1.1421078407448424, -2.454042959130176, 0.06748425238495478], [1.5276508728675449, 0.2640063902876023, -0.43570665421161403], [1.628649013314551, 3.0070786838330417, -0.9660764322846773]], [[-1.1420929361345953, -0.3107448379138936, -2.435228743967921], [-1.527654818710614, -0.3899254295114373, 0.3278442278396214], [-1.628661338690607, -0.49210366837550185, 3.1199182104535765]]]" REF_nacs="_JSON [[[0.38967002030328557, 3.971182799782825e-11, -1.815597150125476e-11], [0.573400315511655, 1.9322448854595056e-12, 3.6379676717100575e-12], [3.0989537257482276, -4.53981429221097e-10, 8.60279380040197e-11]], [[0.3895317555227557, -2.194722960079507e-11, 4.80705512352345e-11], [-0.5734100319165158, 7.73887576573986e-12, -1.9989822092441045e-12], [3.098721846538144, 4.0581265728614265e-10, 1.8362311610030643e-10]], [[-0.18871435395782177, 0.08710644752800428, -0.2530870057027874], [-0.006814907670672334, -0.005383525257736981, 0.8748718987648716], [-1.5466393495730155, 0.7293239796451554, -0.10448036639004289]], [[-0.1887831288687971, 0.23667230439827033, -0.12504863981958847], [0.00681976582411755, 0.8636259179917937, -0.13988455353125098], [-1.5472082541682366, -0.008979077654821182, -0.7370261432945824]], [[-0.18878312883555737, -0.23667230440383555, 0.12504863978179906], [0.00681976582943297, -0.863625917989834, 0.13988455352687304], [-1.547208253841811, 0.00897907758395566, 0.7370261429027571]], [[-0.18871435394614514, -0.08710644753903839, 0.25308700571174475], [-0.00681490768006673, 0.005383525246139222, -0.8748718987620767], [-1.5466393497552173, -0.7293239795257473, 0.1044803665126523]]]" REF_dip_perm="_JSON [[8.896352104298684e-10, 1.518694391893875e-11, 6.208979635545614e-11], [-4.837603554690604e-10, 2.5843162732128792e-11, 6.438826180750401e-11], [1.857780504371263e-06, 2.191245369819186e-11, 6.304957223715367e-11]]" REF_dip_trans="_JSON [[-0.07203952156808335, -5.548468032824773e-13, 2.3975333399137063e-13], [0.0, 0.0, 0.0], [-0.17472778223551594, -1.3455473813031362e-12, 5.816884282706143e-13]]" pbc="F F F"
C        0.00000000       0.00000000       0.00000000
C        1.08888991       0.00000000       0.00000000
H       -0.56503637       0.92382805       0.00000000
H        1.65392628       0.14209098       0.91283537
H        1.65392628      -0.14209098      -0.91283537
H       -0.56503637      -0.92382805      -0.00000000
6
Properties=species:S:1:pos:R:3 REF_energy="_JSON [[-2122.122041927306, -2113.955780625359, -2108.125523750664]]" REF_forces="_JSON [[[-15.560000675219346, 6.988248950279855e-10, 9.883804802302558e-10], [-15.74568094591176, 1.2721711797502223e-09, 1.9855314371940955e-09], [-25.012853480655984, 7.001748663674798e-10, 1.099201749316478e-09]], [[15.560000549041625, -1.9985543270962912e-10, -1.1878692092361582e-09], [15.745681017007344, -1.8557322164850756e-10, -2.3867749136517114e-09], [25.01285339721427, -1.8280458424517384e-10, -1.2951306958147524e-09]], [[-0.33949627013262634, -0.016749721353190132, -1.210156569757383], [-1.273993970837556, 0.33178400224151444, 1.9686902314823955], [-1.5847170841886593, 0.42975361933761674, 4.878872309394136]], [[0.33949633338398927, -0.5769812974922345, -1.0638854538002624], [1.2739939355914005, 0.6729703432466901, 1.8796097336968425], [1.5847171261146493, 2.0101662482221507, 4.466241694443623]], [[0.33949633319878963, 0.5769812973461959, 1.0638854541921758], [1.2739939352269158, -0.6729703436934296, -1.8796097331461687], [1.5847171259094548, -2.010166248369146, -4.466241694030216]], [[-0.3394962702732164, 0.016749721001287587, 1.2101565695651724], [-1.2739939710770285, -0.33178400288137877, -1.968690231632126], [-1.5847170843936584, -0.42975361970824444, -4.878872309611729]]]" REF_nacs="_JSON [[[0.36790119643205, -1.517181280563191e-11, 2.761244122899127e-12], [0.40118579704588364, 1.178797619174687e-11, 7.798262213718026e-12], [0.3163232889565594, 1.5070190641462085e-11, 2.693941473658389e-12]], [[0.36790120723163827, 1.2679503626346595e-11, 4.3446047887777194e-13], [-0.4011857960017986, 2.9114039524360483e-12, -1.3484504172016367e-11], [0.31632347039088066, -1.687841936403095e-11, 2.320112316149868e-11]], [[-0.09333457164016913, 0.04659557173533569, 0.2011126357008391], [-0.020540547782012558, 0.012719516555181058, -0.02869048416203888], [-0.08480815510050155, 0.05205673173714203, 0.16277443062919522]], [[-0.0933345815870682, -0.05766687916325826, -0.19822204081546946], [0.020540547261287376, -0.02512157740682884, -0.01881053349334246], [-0.08480795131124409, -0.03416092139783924, -0.1674468304436253]], [[-0.09333458160629031, 0.05766687918242197, 0.19822204081890876], [0.020540547257284367, 0.02512157739988901, 0.01881053349636419], [-0.08480795130235028, 0.03416092144724858, 0.1674468304239897]], [[-0.09333457162064751, -0.046595571747163105, -0.20111263569678942], [-0.020540547784183856, -0.012719516562940405, 0.028690484164701886], [-0.08480815510622683, -0.05205673178080925, -0.16277443062678695]]]" REF_dip_perm="_JSON [[-1.7265972542503064e-11, -1.0728254052900966e-11, 1.5251900551279232e-12], [4.964393904355201e-11, 3.746457047971141e-11, -1.3087095861931976e-11], [3.8155775670001166e-11, 2.0307691768446844e-11, -7.336560150789386e-12]]" REF_dip_trans="_JSON [[-0.36985906340817215, -2.0370844999008028e-12, -3.7643226829229195e-12], [0.0, 0.0, 0.0], [-0.45689838130253335, -2.5164002312207825e-12, -4.650077855122111e-12]]" pbc="F F F"
C        0.00000000       0.00000000       0.00000000
C        1.17989782       0.00000000       0.00000000
H       -0.56503637       0.92382805       0.00000000
H        1.74493419      -0.80591458       0.45161926
H        1.74493419       0.80591458      -0.45161926
H       -0.56503637      -0.92382805      -0.00000000
6
Properties=species:S:1:pos:R:3 REF_energy="_JSON [[-2122.2773242458816, -2116.4986881868163, -2114.206144968981]]" REF_forces="_JSON [[[1.0713247801341947, -1.7317025777660387e-09, -3.5658882202759713e-09], [2.7803760150948005, -2.8606770156549528e-08, 2.8311634274330577e-09], [-2.42161803239684, -3.0772431172935708e-09, -4.305208662114964e-09]], [[-1.071180187090466, -1.2902467801166952e-09, -4.315785401012635e-09], [-2.780358445585379, -1.1288606420644143e-08, -2.5399582749335014e-08], [2.42148820557098, 2.593419783879928e-10, -1.972265766049223e-09]], [[0.023063764048315935, 0.05230228673405732, 1.6039961144220538], [-0.612330754134026, 0.22321266440328874, -1.0615462101090338], [-0.6684671508368084, 0.20842143087379797, -3.340440052705599]], [[-0.023136061129548365, 1.2922641561982413, -0.95146210673431], [0.6123219670632782, -0.6958192906721089, 0.8321365748952655], [0.6685320629914766, -2.4950553889597664, 2.230846715030116]], [[-0.023136058303458197, -1.2922641529536478, 0.9514621148905695], [0.6123219605037764, 0.6958193056965057, -0.8321365521641305], [0.6685320665844701, 2.4950553908105753, -2.230846708524124]], [[0.023063762340766545, -0.05230228695673081, -1.6039961146968638], [-0.6123307429414784, -0.2232126395327314, 1.0615462099465143], [-0.6684671519141625, -0.20842142990644244, 3.3404400524771054]]]" REF_nacs="_JSON [[[0.3065995754111057, -4.578251059869555e-11, 1.1195356439033755e-11], [0.5834466522713928, 3.776981794789088e-11, -1.4791884306291698e-11], [0.49211588378798626, -6.851153598645976e-11, -7.856932765418068e-11]], [[0.3065087523620542, 1.4026969037846694e-10, -6.346857418864714e-12], [-0.5834485664798692, -6.825553707031549e-11, 4.2079521518193944e-11], [0.49209873334353815, 4.3812895933279114e-11, 4.922651027224485e-10]], [[-0.07016804357768197, 0.015745875925505668, -0.1698326579380706], [-0.021901059140787982, 0.012775919581274808, 0.13151545726816405], [-0.19660411644407647, 0.026180953582337005, -0.10098008157754634]], [[-0.07016954387791667, 0.12367910739715875, -0.11746671003816761], [0.021902016268310082, 0.11121992535553361, -0.07135002271767245], [-0.1966405025664975, 0.063111074398751, -0.08303920069915403]], [[-0.07016954388998106, -0.12367910751425393, 0.11746671001952246], [0.02190201625406552, -0.11121992531436573, 0.07135002269339154], [-0.196640502606229, -0.06311107440926543, 0.0830392002730429]], [[-0.0701680435813218, -0.015745875903806644, 0.16983265794925345], [-0.02190105914317206, -0.012775919591955672, -0.13151545727117628], [-0.19660411645561704, -0.02618095354767829, 0.10098008158840358]]]" REF_dip_perm="_JSON [[2.951779273472344e-10, -1.458567868112043e-11, -1.4547579117920727e-11], [4.393108650694028e-10, -1.3135813336187337e-11, -6.695113406427115e-12], [4.572155778299206e-06, -1.2919915811389001e-11, -6.509612254454773e-12]]" REF_dip_trans="_JSON [[-0.4830927712319614, 2.5417180110545195e-12, 6.345234600960757e-13], [0.0, 0.0, 0.0], [-0.8122177012926844, 4.27338634926449e-12, 1.0667984225000679e-12]]" pbc="F F F"
C        0.00000000       0.00000000       0.00000000
C        1.39465737       0.00000000       0.00000000
H       -0.56503637       0.92382805       0.00000000
H        1.95969374       0.57163950       0.72573173
H        1.95969374      -0.57163950      -0.72573173
H       -0.56503637      -0.92382805      -0.00000000
6
Properties=species:S:1:pos:R:3 REF_energy="_JSON [[-2121.317682064069, -2116.700131356416, -2115.7870745232494]]" REF_forces="_JSON [[[1.9211832817619572, -2.1736978715121276e-10, 1.5524231437341044e-11], [5.839638829104223, -6.552209729533431e-10, -6.592577093300811e-11], [3.420248296889534, -1.1361350741994434e-10, 7.156983845591554e-11]], [[-1.921198630551747, 8.550016721709634e-12, -7.227017227229362e-11], [-5.839608247093775, -5.160116820514281e-11, 2.7590607729386533e-10], [-3.4203035251652354, 3.7150850769298224e-11, -2.8214484012839453e-10]], [[0.09098570982369822, 0.06873889902412662, -1.4610823892043332], [-0.47015955014779276, 0.23356118842696819, 0.5792238256858129], [-0.4880425777468503, 0.23361469786791514, 2.398124136643524]], [[-0.09097803544397758, -1.3817199401030185, -0.4797921559132912], [0.4701442589539661, 0.45073174027149226, 0.43225550859239364], [0.48807019192866075, 2.13898997403123, 1.1092070618636083]], [[-0.09097803544070097, 1.3817199401857823, 0.4797921559154607], [0.47014425911321306, -0.4507317400650661, -0.4322555088679327], [0.4880701918584973, -2.138989973997307, -1.1092070617167313]], [[0.09098570985108972, -0.06873889889802634, 1.4610823892587637], [-0.47015954993159326, -0.2335611879260149, -0.5792238256202961], [-0.48804257776741394, -0.23361469782544, -2.398124136579581]]]" REF_nacs="_JSON [[[0.22180121127362865, 4.421555318995002e-12, 1.6170459841160826e-12], [0.6440209661947526, 6.67228785264267e-13, 7.509097057446847e-13], [1.1969228550626068, 2.949858508104721e-11, 1.701867238197271e-11]], [[0.22176121336218335, -2.487812673909254e-13, -3.926320529116416e-12], [-0.6440594184675031, -2.436326242514335e-13, -9.696117965156983e-13], [1.1969846226316319, -1.900538559674099e-11, -3.3584432344263305e-11]], [[-0.059646267756090394, 0.0076702676322990306, 0.17187159368752997], [-0.020339450302737493, 0.012572636158823262, -0.32910889291093975], [-0.5779638346733681, 0.024334192264109183, 0.0687564739441101]], [[-0.05964351800948935, -0.15667859577590929, -0.07106970068793736], [0.02035867632169352, -0.3101977258389411, -0.11071463867871603], [-0.5779185564021317, -0.054757349291538936, -0.048079962205564826]], [[-0.05964351801044121, 0.15667859577468835, 0.0710697006894382], [0.02035867632140855, 0.3101977258393096, 0.11071463867854557], [-0.57791855640134, 0.054757349293148044, 0.04807996222391784]], [[-0.05964626775580638, -0.0076702676362297, -0.171871593686803], [-0.020339450302735224, -0.012572636159608538, 0.3291088929113498], [-0.577963834662712, -0.02433419227657174, -0.06875647394587774]]]" REF_dip_perm="_JSON [[-6.003491827468508e-10, -7.761276593015622e-12, -7.39110706640864e-12], [-2.6859151084120966e-09, -6.697403544105786e-12, -5.940200749803422e-12], [3.4173018052458072e-06, -6.7225950585711656e-12, -6.085520395231811e-12]]" REF_dip_trans="_JSON [[-0.37390866821353025, 1.6226146096392608e-13, -4.4863329421586213e-13], [0.0, 0.0, 0.0], [-0.933069763862786, 4.049816931334742e-13, -1.11953431297513e-12]]" pbc="F F F"
C        0.00000000       0.00000000       0.00000000
C        1.46375069       0.00000000       0.00000000
H       -0.56503637       0.92382805       0.00000000
H        2.02878706      -0.34373324       0.85749970
H        2.02878706       0.34373324      -0.85749970
H       -0.56503637      -0.92382805      -0.00000000
6
Properties=species:S:1:pos:R:3 REF_energy="_JSON [[-2123.646887998636, -2113.058799462714, -2106.8263046961483]]" REF_forces="_JSON [[[-7.5237743967592925, 8.850328016724699e-10, -1.4015767883613031e-08], [-15.476203187976438, 3.6113155295248067e-09, -1.4813866802689e-08], [-29.48850939364894, -8.803815340865599e-10, -6.459460541123579e-09]], [[7.523972290271773, -9.883064712682816e-10, -5.003642776673974e-09], [15.476233664693005, -3.85744661463318e-09, -1.7506226766294174e-08], [29.48800028595186, 2.1899402874867005e-09, -6.287989433479339e-09]], [[-0.14578849445243788, -0.042267098782327706, 0.2539077856242053], [-0.198700698184862, -0.20813994158125612, -0.6502292851292348], [-0.16167453442875845, -0.44792126760848366, -0.22813526626417677]], [[0.14568954657420624, -0.039634293694021425, -0.2544989605450081], [0.1986854584773554, -0.21481035780481758, 0.6479522260790085], [0.1619290935387768, -0.4500584981420445, 0.2234299898949509]], [[0.14568954707294426, 0.039634292842216375, 0.2544989680350908], [0.19868545895491316, 0.21481035887134928, -0.6479522116172001], [0.16192908790411173, 0.45005850608563347, -0.22342998559764884]], [[-0.14578849270564517, 0.04226709973678051, -0.2539077740948791], [-0.19870069596459908, 0.20813994076078204, 0.6502293029875017], [-0.16167453931698386, 0.44792125835579905, 0.2281352747143193]]]" REF_nacs="_JSON [[[-0.5650833505210642, 4.0114562592964e-11, -1.7118609580498626e-09], [0.336652926678415, 4.2904138407479943e-10, -2.7275776311394054e-10], [-0.45426237729276775, 4.52855026308708e-11, 1.404669352626368e-10]], [[-0.5650893107514842, 4.981209472863541e-11, 1.653465474919179e-09], [-0.33665222270396267, -3.7062280747974504e-10, -3.572765149333657e-10], [-0.4544432010234307, 8.763366073496048e-12, -3.968175911705871e-10]], [[0.01343935914549787, -0.013860907846164765, 0.022780622052928638], [-0.002024974150754104, 0.006355854867983067, -0.05254259666698274], [0.03364167423344562, -0.00940789995261999, 0.016427797301833486]], [[0.01343572934509238, 0.013624554854536149, 0.022919200425733397], [0.00202462198292811, 0.0058176594132779156, 0.05259840816123875], [0.033682990366197825, 0.009311683068705057, 0.01645442688138812]], [[0.013435729309815672, -0.013624554867399118, -0.022919199925206173], [0.002024622013954106, -0.0058176592899181435, -0.05259840782851354], [0.03368299033763972, -0.009311683054495262, -0.016454426145167546]], [[0.013439359185458981, 0.013860907850420183, -0.02278062297932303], [-0.0020249741395628813, -0.00635585504976153, 0.05254259696428919], [0.033641674260155005, 0.009407899942841205, -0.01642779812993653]]]" REF_dip_perm="_JSON [[-8.992329692468436e-10, -3.7554094043513995e-12, -2.468352028938363e-10], [-8.956103878278551e-10, -2.030165413274853e-11, -5.656223677648232e-10], [-2.890570139151504e-05, -2.927004147675814e-12, -4.62004047521687e-10]]" REF_dip_trans="_JSON [[0.7989518742200458, -4.672281273610289e-11, 1.390573741915215e-10], [0.0, 0.0, 0.0], [1.1110429767012595, -6.497394216086283e-11, 1.9337674280084238e-10]]" pbc="F F F"
C        0.00000000       0.00000000       0.00000000
C        1.24933201       0.00000000       0.00000000
H       -0.56503637       0.92382805       0.00000000
H        1.81436838       0.92378040       0.00938321
H        1.81436838      -0.92378040      -0.00938321
H       -0.56503637      -0.92382805      -0.00000000
6
Properties=species:S:1:pos:R:3 REF_energy="_JSON [[-2123.078623916646, -2112.810185355441, -2105.7962277464085]]" REF_forces="_JSON [[[-12.81052781677978, 3.844985370860771e-10, 4.960371796437692e-10], [-14.454584998120916, 8.863314923988403e-10, 1.6631527741087715e-09], [-32.29711059466506, 1.1044783777020882e-10, 5.319220325531194e-10]], [[12.810527893649393, -7.089547779651844e-10, -4.2428140909176327e-10], [14.454585293103293, -1.0430916512914604e-09, -1.7797921286727539e-09], [32.297111101223585, -5.399080249526518e-10, -4.6505192129078695e-10]], [[-0.13249900742037984, -0.09680916712640456, -0.4767174009636047], [-1.009470743763745, 0.14423997656537405, 2.4322083595163217], [-0.6406574846341907, -0.24895313674207092, 3.0828066496588287]], [[0.13249896885230744, 0.03938463612484834, -0.484850856617057], [1.009470596182114, 0.14625408315731298, 2.432088042400321], [0.640657231193622, 0.614083390893237, 3.0312664315002684]], [[0.1324989685910751, -0.0393846359513634, 0.4848508566576337], [1.0094705957276202, -0.14625408299533704, -2.4320880422080897], [0.6406572310767447, -0.614083390622654, -3.0312664314816176]], [[-0.1324990068924804, 0.09680916727684805, 0.4767174008512218], [-1.00947074312516, -0.14423997657087775, -2.4322083595919377], [-0.6406574841957148, 0.2489531369009183, -3.0828066497445232]]]" REF_nacs="_JSON [[[0.5015922489235386, 2.5313173430585364e-12, -4.327469667367071e-12], [0.641103693055792, 2.6846756452584558e-11, 1.2704838732860112e-11], [0.35303602028101655, -1.224542155254108e-11, -3.759937907315174e-11]], [[0.5015922493859659, 5.160475159349439e-12, 1.0633604848821809e-11], [-0.6411036937366564, -3.33428270890206e-11, -2.0615603953628453e-11], [0.353035974622618, -1.8695290319178608e-11, 5.596553214885356e-11]], [[-0.045731615584545734, 0.025198301602079882, 0.17543968887092454], [-0.0427596978279647, 0.026159132794889833, 0.06103637531717415], [-0.015222915051793906, 0.013943468562406379, 0.137995583564049]], [[-0.04573161581326836, 0.00413930420317022, -0.1771917177609824], [0.042759698150237085, -0.018708981863787777, 0.06371587983068387], [-0.015222977906583652, -0.0025790921301237857, -0.13867427344353198]], [[-0.045731615830589975, -0.00413930420518686, 0.17719171779768655], [0.042759698146459336, 0.018708981879269813, -0.06371587982165478], [-0.015222977896596847, 0.0025790921591000333, 0.13867427345219294]], [[-0.045731615573976876, -0.02519830159549702, -0.1754396888956187], [-0.04275969782268009, -0.02615913280387586, -0.06103637531829362], [-0.015222915042197459, -0.01394346855079817, -0.137995583576669]]]" REF_dip_perm="_JSON [[-4.867999927516599e-10, -5.018940819974454e-12, -6.615583170676908e-12], [-2.0931858383051875e-10, 7.79396310352029e-12, -1.1341178173447064e-11], [-2.4564849518761593e-10, 4.445157234300185e-13, -4.067909100322763e-12]]" REF_dip_trans="_JSON [[-0.6497420304522765, -4.961279103789585e-12, -7.2189973528350395e-12], [0.0, 0.0, 0.0], [-0.8260577650153663, -6.307575546017818e-12, -9.177873959020795e-12]]" pbc="F F F"
C        0.00000000       0.00000000       0.00000000
C        1.20635099       0.00000000       0.00000000
H       -0.56503637       0.92382805       0.00000000
H        1.77138736      -0.91726194       0.10994911
H        1.77138736       0.91726194      -0.10994911
H       -0.56503637      -0.92382805      -0.00000000
6
Properties=species:S:1:pos:R:3 REF_energy="_JSON [[-2122.471872050263, -2116.163095605255, -2113.703242364107]]" REF_forces="_JSON [[[3.0276049608731266, -1.047724475068912e-09, -6.166371735332537e-10], [4.2074653348842945, -7.665585934700188e-10, -7.653734201309682e-10], [-1.5744218514141062, -1.0566653096212038e-09, -6.919532576505257e-10]], [[-3.027410344348101, -1.9912625654883013e-11, 8.548487594239156e-10], [-4.207448425626871, 4.97231172644628e-10, 9.74315788840843e-11], [1.5742790387962682, 2.9008442973297315e-10, 6.733460679358336e-10]], [[0.14290850877902003, 0.0457758916456348, -1.3930067886497188], [-0.4707596432331984, 0.20234012232144838, 1.1328883355193335], [-0.49796326099182264, 0.1601282673411008, 3.118395937391991]], [[-0.14300581778644375, -1.0263496184351524, -0.9427954174680427], [0.4707511881354363, 0.6671279086320061, 0.9376561900641287], [0.49803466665066737, 2.113971325729018, 2.298168677235932]], [[-0.14300581783030009, 1.026349618453546, 0.9427954169417636], [0.47075118774140134, -0.6671279090497898, -0.9376561899735179], [0.49803466653185213, -2.1139713258118897, -2.298168677614424]], [[0.14290851031292434, -0.04577589059575041, 1.3930067889376103], [-0.47075964190101516, -0.20234012163525017, -1.1328883349419203], [-0.4979632595719724, -0.16012826649130488, -3.118395936994596]]]" REF_nacs="_JSON [[[0.32879760649052964, 3.346799241703468e-11, 3.123705580449801e-11], [0.5772186273383832, -1.5705155533568135e-11, -2.025856348532732e-11], [0.46558808995871015, -5.443450832500229e-10, -9.82932237514808e-10]], [[0.32874719331843444, -6.0895376506225356e-12, -3.614439412696704e-11], [-0.5772227182031291, 7.056456751301061e-12, -1.4773049806489145e-11], [0.4655901255618664, 7.711698059210934e-10, 2.2224961838122154e-09]], [[-0.06143565581496064, 0.012140400866668883, 0.154694785062983], [-0.02196944074602084, 0.013406731700739858, -0.09763508613648313], [-0.17183621523438466, 0.010753861082064345, 0.09149988244741133]], [[-0.06144607997825864, -0.1019388585143827, -0.11700378229488201], [0.021971486156979005, -0.0790902199053963, -0.05880756336986314], [-0.1719065291210289, -0.05776032232508474, -0.0717684253973379]], [[-0.061446079958219046, 0.1019388584953934, 0.11700378227960356], [0.02197148615209803, 0.07909021990208871, 0.05880756338470864], [-0.17190654664756633, 0.05776032778782263, 0.07176843402009925]], [[-0.06143565579472867, -0.01214040086937728, -0.15469478504999246], [-0.021969440743184923, -0.013406731688781842, 0.0976350861566758], [-0.1718362301896171, -0.010753866768259535, -0.09149989231398589]]]" REF_dip_perm="_JSON [[-1.9110574345505248e-10, 6.296213061669533e-12, -7.366123746277684e-13], [-3.460398032471705e-10, 7.782096026458087e-12, 8.071069762639466e-12], [1.1725296720460499e-05, 7.096303888863368e-12, 7.37361874231697e-12]]" REF_dip_trans="_JSON [[-0.5477124890473766, -2.866097730220712e-12, 1.1255929581107734e-12], [0.0, 0.0, 0.0], [-0.925500772883384, -4.8430217505442686e-12, 1.9019877911716823e-12]]" pbc="F F F"
C        0.00000000       0.00000000       0.00000000
C        1.44136911       0.00000000       0.00000000
H       -0.56503637       0.92382805       0.00000000
H        2.00640548      -0.64690844       0.65952084
H        2.00640548       0.64690844      -0.65952084
H       -0.56503637      -0.92382805      -0.00000000
6
Properties=species:S:1:pos:R:3 REF_energy="_JSON [[-2121.262088113966, -2112.360669313036, -2105.3944176175264]]" REF_forces="_JSON [[[-23.960852254401708, -6.706098958027507e-10, 6.889226640656715e-10], [-23.87156545611408, -9.110465490560361e-10, 1.1174596504777593e-09], [-33.662031624263385, -3.1298305898592845e-10, 7.820518514023806e-10]], [[23.961037983821463, -5.712068357299384e-10, -1.653028553021512e-09], [23.87148385916258, -7.872024925694257e-10, -2.2524912618524054e-09], [33.6620750798399, -2.447509374396767e-10, -1.7059442026195227e-09]], [[-0.4592295304551689, -0.04314969372362437, 0.9891908869288087], [-1.5052763205151156, 0.4159076128327777, -2.185267983837806], [-1.958843510774565, 0.6131258476824163, -5.288662572922168]], [[0.45913666718407364, 0.3494382542033413, -0.9263915335825017], [1.5053171204275715, -0.47743554508643093, 2.1726262561414984], [1.9588217844254596, -1.5174190815667812, 5.103363947853714]], [[0.4591366644636571, -0.3494382531376087, 0.9263915344931866], [1.5053171175892894, 0.47743554638586666, -2.172626255042722], [1.9588217818782419, 1.5174190823389349, -5.103363946999542]], [[-0.4592295306123374, 0.04314969389934731, -0.9891908868751447], [-1.5052763205511317, -0.4159076124340387, 2.185267983874305], [-1.9588435111041806, -0.6131258478972782, 5.288662572992462]]]" REF_nacs="_JSON [[[-0.36554017535263167, 2.0499517323585475e-10, -9.798756114794094e-11], [0.3669391270408898, -2.8486048571363444e-11, -2.3722462808760036e-11], [-0.3010411886636909, 4.2424391841045423e-10, 3.7026598980261225e-10]], [[-0.3656047729939522, -4.5901043007174867e-11, -2.8442004095152794e-11], [-0.3669420481156227, -1.909632393528343e-11, -3.248422121043054e-11], [-0.3006960157391873, -3.641413963051132e-11, -2.2701106898105423e-11]], [[0.10402449570584212, -0.06013801047727739, 0.2129010248235948], [-0.019318486979681235, 0.013219785592163372, 0.022476291546701797], [0.08362912523461027, -0.06329800553584664, 0.18061638831656232]], [[0.10405403290833945, -0.028460757138840036, 0.21939031276080412], [0.01931994876474181, 0.02100800575919345, -0.01546307105517266], [0.08360743555350028, -0.012890486227791901, 0.19095727794965212]], [[0.10405403114443261, 0.028460759403195486, -0.2193903127390798], [0.01931994752811694, -0.021008004893625375, 0.015463071659149103], [0.08360743445448565, 0.01289048750228218, -0.1909572782476487]], [[0.1040244925540898, 0.06013800809165405, -0.21290102472781028], [-0.019318488233534173, -0.013219786410149014, -0.022476292094471984], [0.08362912370168371, 0.06329800390563282, -0.1806163883736978]]]" REF_dip_perm="_JSON [[-8.26427410498552e-10, 3.4828830205895646e-12, -2.621374864740463e-11], [-2.7845992229293695e-10, -6.674085778650228e-11, -5.040176642085765e-11], [2.1427360898982482e-05, -3.2840574312140464e-11, -3.997539415287239e-11]]" REF_dip_trans="_JSON [[0.2939368649274486, -1.8034617786165344e-11, 4.448556388707849e-12], [0.0, 0.0, 0.0], [0.34642348012734825, -2.125474588663545e-11, 5.242965588789758e-12]]" pbc="F F F"
C        0.00000000       0.00000000       0.00000000
C        1.12701709       0.00000000       0.00000000
H       -0.56503637       0.92382805       0.00000000
H        1.69205346       0.84930411       0.36351176
H        1.69205346      -0.84930411      -0.36351176
H       -0.56503637      -0.92382805      -0.00000000
6
Properties=species:S:1:pos:R:3 REF_energy="_JSON [[-2116.357242041692, -2114.1385638591064, -2113.8091441804645]]" REF_forces="_JSON [[[-32.134203318056066, 1.8961925047864042e-10, -2.537307406149961e-09], [-27.955263212021567, -5.432286632522562e-10, -2.7068012554856126e-09], [-28.35757045872679, -4.4043885415002074e-10, -2.4928915156887014e-09]], [[32.134203308812694, -6.464609077942924e-11, 3.0359536381681185e-09], [27.955263232604022, 1.6157457911476878e-10, 2.2529664302569772e-09], [28.357570562200795, -8.227084668837509e-11, 2.7588529771730316e-09]], [[-1.1184928526019178, 0.3183989426104365, -1.4724297838973137], [-1.477385720754218, 0.37739649820391075, 0.15560667530116887], [-1.5325914079514031, 0.4473921154572596, 1.7952134423501656]], [[1.1184928564458665, -1.4918435691894538, 0.20935640249401122], [1.4773857098300833, 0.12745813921640162, 0.3878091799876343], [1.5325913552974637, 1.7574908283295811, 0.5780803746987766]], [[1.1184928579642985, 1.4918435691635064, -0.2093564027996023], [1.4773857107199266, -0.1274581393182399, -0.38780917936432585], [1.5325913566522347, -1.7574908284267432, -0.5780803747987308]], [[-1.118492852567172, -0.31839894270899666, 1.472429783704085], [-1.4773857203806058, -0.3773964977202903, -0.15560667547062978], [-1.5325914074733424, -0.44739211483701175, -1.7952134425159503]]]" REF_nacs="_JSON [[[-0.23684677889447478, 8.857752714154705e-11, -7.381527980007984e-11], [0.44273915685782733, 4.963516256721081e-11, -8.039436563093797e-12], [-6.579991342084725, 5.534432822739284e-10, -7.823105500261512e-09]], [[-0.2368468164883934, 8.728999681609401e-11, 5.459945545378472e-11], [-0.44273910060968513, -4.323029298145168e-11, 8.757909242629819e-14], [-6.579995146015883, -1.1389163462667924e-09, 1.587575660840187e-08]], [[0.11494304235808092, -0.051463577071406606, -0.2652281027130372], [-0.00619354722486294, -0.0030681864996378815, -1.3952123998962236], [3.2892363856923907, -1.4988180959494244, -0.05803559391398213]], [[0.1149430237034399, 0.26073014287248053, 0.07081124758699209], [0.006193519144930938, -1.391216132260114, -0.10556860159164277], [3.2892345565355967, -0.05224194286127372, 1.499030425096332]], [[0.11494302369269775, -0.2607301429729629, -0.07081124760587915], [0.0061935191283536365, 1.391216132302043, 0.10556860160635353], [3.289234559900953, 0.05224194360288842, -1.499030434064632]], [[0.11494304234388965, 0.05146357701304506, 0.2652281027575743], [-0.006193547259397628, 0.0030681864513554358, 1.3952123998895036], [3.289236385593936, 1.4988180957972768, 0.058035594831104015]]]" REF_dip_perm="_JSON [[-3.1805848470050076e-10, -6.644105794493082e-12, -2.1664702440226554e-10], [8.209310800697418e-10, 6.142357448529734e-13, -2.1464835879178917e-10], [-1.338439737149034e-09, -7.554747813266395e-12, -2.1764635720750377e-10]]" REF_dip_trans="_JSON [[0.04703564007754538, 1.1224571492128702e-12, 3.6107819999461743e-12], [0.0, 0.0, 0.0], [0.21507089754606692, 5.132588139302139e-12, 1.6510439620546573e-11]]" pbc="F F F"
C        0.00000000       0.00000000       0.00000000
C        1.10226962       0.00000000       0.00000000
H       -0.56503637       0.92382805       0.00000000
H        1.66730599      -0.06787526       0.92133122
H        1.66730599       0.06787526      -0.92133122
H       -0.56503637      -0.92382805      -0.00000000
6
Properties=species:S:1:pos:R:3 REF_energy="_JSON [[-2123.644820205412, -2114.9228430800263, -2110.2098546945117]]" REF_forces="_JSON [[[-0.19945269511479327, -4.69400443901423e-09, -1.1026952076387533e-09], [-2.2503915708455065, -2.327438313803693e-09, -4.668361572776774e-09], [-13.202806962052296, -2.9877150501043552e-09, -1.6106086376131046e-09]], [[0.1994525588444314, -1.0989969760973875e-08, -3.600853326903994e-09], [2.2503915991234886, -9.55149148270759e-09, -2.9327949668438666e-10], [13.202806973153809, -1.1452641454850588e-08, -2.5592537414687617e-09]], [[0.10058091126151643, -0.027082808013669836, 0.8336680120921851], [-0.5053119876813683, 0.10513216108279051, -1.7196602975109403], [-0.42062331831627464, -0.06536677861165617, -2.9171726757688723]], [[-0.10058083249240525, 0.23812604925782405, -0.799394670447888], [0.5053119844570756, -0.4444630149410374, 1.6645530540118056], [0.4206233231499788, -0.9851564368612229, 2.746568023545861]], [[-0.10058085114198366, -0.23812603843320126, 0.7993946751038066], [0.5053119664513807, 0.4444630243127657, -1.6645530497765557], [0.4206233052973427, 0.985156447627456, -2.746568019402677]], [[0.100580908638701, 0.027082812872596593, -0.8336680120442957], [-0.5053119915050253, -0.10513215857574208, 1.719660298237313], [-0.4206233212333549, 0.06536678228560089, 2.9171726757954217]]]" REF_nacs="_JSON [[[-0.45177274713471116, 1.0631321696722264e-10, -3.414681402011024e-10], [0.5165049815236511, -5.656181742748015e-12, -9.816719341254945e-11], [-0.3620146999518256, 7.526872625920832e-11, 6.40980719876496e-11]], [[-0.45177268910829127, -9.204720189378318e-11, 2.7662988253076636e-10], [-0.5165050003761315, 1.2584003582387043e-11, -7.133632582506803e-12], [-0.3620146252324269, 1.3130169238897818e-11, 7.543126341074315e-11]], [[0.04529566993697411, -0.017492423893455167, 0.1375789087735378], [-0.024930338361072935, 0.016076964611765433, -0.015405736507147334], [0.05464409798428944, -0.011065549029714787, 0.09626496100347245]], [[0.045295643282806816, -0.02694385305122805, 0.13604399617074778], [0.024930347801524453, 0.01037554905979131, 0.01970161727192204], [0.05464475542473803, -0.019966480149736187, 0.09481948103366578]], [[0.04529564320210209, 0.02694385305089187, -0.1360439961198909], [0.02493034776764979, -0.010375549066132589, -0.019701617228656196], [0.05464475518027116, 0.0199664801160692, -0.09481948113318348]], [[0.045295669953371455, 0.017492423880649154, -0.1375789087479095], [-0.024930338374196708, -0.016076964612352192, 0.015405736569182642], [0.05464409804995874, 0.011065548975777675, -0.09626496103533608]]]" REF_dip_perm="_JSON [[-3.275729657837062e-10, 2.123374016796758e-11, 6.279973903584412e-11], [-3.4566505344520615e-10, 4.077902428375145e-11, 6.930997587330216e-11], [-2.7504553520837306e-10, 3.071491015766504e-11, 6.770271561154406e-11]]" REF_dip_trans="_JSON [[0.679400423398068, 3.9892250029941805e-12, -9.093119031938933e-12], [0.0, 0.0, 0.0], [0.9709605825486355, 5.701178891850544e-12, -1.2995266649617754e-11]]" pbc="F F F"
C        0.00000000       0.00000000       0.00000000
C        1.35035918       0.00000000       0.00000000
H       -0.56503637       0.92382805       0.00000000
H        1.91539555       0.87635076       0.29234845
H        1.91539555      -0.87635076      -0.29234845
H       -0.56503637      -0.92382805      -0.00000000
6
Properties=species:S:1:pos:R:3 REF_energy="_JSON [[-2122.322584672142, -2115.3375271877508, -2112.988758715657]]" REF_forces="_JSON [[[5.629782776826541, -3.2395215261668216e-08, 8.851227042796319e-09], [6.043613301686726, -1.9408665027668604e-08, 1.548742298466422e-08], [0.12729429158414876, -3.2193858728511165e-08, 1.2729992874515546e-08]], [[-5.629781759222966, 1.3069766675934549e-08, -1.386584549053363e-08], [-6.043613726280224, 2.2612241788639692e-08, -2.4530315957626204e-08], [-0.12729429739264148, 1.4947196920832623e-08, -1.6965962696884018e-08]], [[0.33387648952524823, 0.06129306110399556, -1.064810868355228], [-0.16109945744100537, 0.17219826134856941, 1.0848065173605732], [-0.14311350184009652, 0.09924280370516547, 2.4570160986882126]], [[-0.3338770028881168, -0.6778774909384976, -0.8234446553723122], [0.16109967208713974, 0.5011815211473466, 0.9773814055003158], [0.14311350092425973, 1.3698850439725667, 2.0421048438022398]], [[-0.33387701684324406, 0.6778774800561432, 0.8234446645587359], [0.16109965127065498, -0.5011815418336893, -0.977381388261649], [0.14311348611668726, -1.3698850563372238, -2.0421048331877993]], [[0.3338765126004519, -0.06129303089605185, 1.0648108641834175], [-0.16109944132291065, -0.1721982438657963, -1.0848065255564536], [-0.1431134793923233, -0.09924277409376608, -2.457016105066801]]]" REF_nacs="_JSON [[[0.36872191828118867, -4.675340200189915e-10, -2.3147719336881428e-10], [0.5672980757210198, 7.091716953292978e-12, 3.275210534711182e-10], [0.5233481995877274, -5.268745745646821e-10, -4.9618748797778174e-11]], [[0.36872210450876236, -5.145179661021335e-10, 3.918818150691824e-10], [-0.5672979938835311, -4.2746282450169177e-11, -1.1169015093072734e-10], [0.5233484638893738, 2.5520610112560084e-10, -2.332612118804299e-10]], [[-0.04967051927280564, 0.00624478160558138, 0.12109754858117232], [-0.01922610750434723, 0.013051819013492375, -0.06075895804452577], [-0.18767877787370452, -0.013651322145605991, 0.06652603577509164]], [[-0.049670567960266254, -0.06642406916924272, -0.10144682231014032], [0.019226066981682284, -0.046393408225175244, -0.04134793306610867], [-0.18767886402852918, -0.05028087720449728, -0.04564980789559335]], [[-0.04967054888346024, 0.0664240686424328, 0.10144681894759926], [0.01922606695901823, 0.04639340824727351, 0.04134793311392952], [-0.18767886374485104, 0.05028087707309953, 0.045649808113491626]], [[-0.04967049981912775, -0.006244780110848115, -0.12109754538611352], [-0.019226107464953807, -0.013051818999935537, 0.06075895778087098], [-0.18767877695770985, 0.013651322540910638, -0.06652603571400095]]]" REF_dip_perm="_JSON [[4.6310747749413755e-11, 5.999119746445591e-11, -3.2875967348992656e-11], [3.183083179018103e-09, 6.644730377496356e-11, -2.54788226468857e-11], [-3.2657363297846794e-09, 6.555415008028191e-11, -2.373831801109583e-11]]" REF_dip_trans="_JSON [[-0.642289326164896, -6.0195146505486864e-12, -1.1932074067089328e-12], [0.0, 0.0, 0.0], [-1.1691310078181414, -1.0957095272644175e-11, -2.1719094920076144e-12]]" pbc="F F F"
C        0.00000000       0.00000000       0.00000000
C        1.54603189       0.00000000       0.00000000
H       -0.56503637       0.92382805       0.00000000
H        2.11106826      -0.74580179       0.54519534
H        2.11106826       0.74580179      -0.54519534
H       -0.56503637      -0.92382805      -0.00000000
6
Properties=species:S:1:pos:R:3 REF_energy="_JSON [[-2121.715280686736, -2116.6135752028385, -2114.3807307726884]]" REF_forces="_JSON [[[-4.689892638673018, -7.142757225639918e-10, 3.5282375111101377e-10], [-2.5940388696522114, -2.7687991162228832e-09, 9.99894519171827e-10], [-7.132986779812751, -3.2001376038934297e-10, 3.262448502716281e-10]], [[4.689963167781024, -8.876206836657126e-10, -3.794762937180194e-10], [2.593942036768894, -1.570114678698992e-09, -2.2779028185659016e-09], [7.132979868100825, -9.023894361300187e-10, -1.504025461025771e-10]], [[-0.24008959837016658, 0.0760632435697311, 1.972683857769834], [-0.8897988552184375, 0.26335989428187023, -0.9882120235888143], [-1.0059209315022613, 0.3019763030479461, -3.7584407474435446]], [[0.24005433226467585, 1.7228526867656135, -0.9638864416995089], [0.8898472699706348, -0.7057689459601213, 0.7401949530579891], [1.0059243857797004, -3.049582052441344, 2.2174435958955607]], [[0.24005433194870573, -1.7228526868735536, 0.9638864420254271], [0.8898472689522515, 0.7057689467571583, -0.7401949514234101], [1.0059243856070816, 3.0495820522428088, -2.2174435957378753]], [[-0.24008959495125423, -0.07606324185922488, -1.9726838580692645], [-0.8897988508196192, -0.2633598907400319, 0.9882120232323975], [-1.005920928175264, -0.3019763016267255, 3.7584407471095527]]]" REF_nacs="_JSON [[[0.29884373235791767, -2.807270077423054e-11, 2.9719774402411374e-12], [0.564802909597588, -5.576926164887995e-13, 2.043135540032546e-12], [0.5488631954612205, -8.328861083708378e-11, 3.511842064371818e-11]], [[0.2988017303695681, 4.853147584442225e-13, -1.7370078327110603e-11], [-0.5648239282877943, -9.878527434872563e-12, 7.591112760397199e-12], [0.5488586798491434, 2.0768710567989023e-11, -3.3138387147247734e-11]], [[-0.09214717878995966, 0.02756463409988428, -0.19304639031805526], [-0.02029774588945449, 0.010456569308195218, 0.1724360114421403], [-0.23889751518490138, 0.06560415461518264, -0.1197831129218831]], [[-0.09215005629372588, 0.15035170935603318, -0.1241849048894461], [0.020308255201677658, 0.15262083820092742, -0.08095012900269985], [-0.23889879358768498, 0.06800111783285653, -0.11842567460592707]], [[-0.09215005630299726, -0.15035170934743017, 0.12418490490057317], [0.020308255204808178, -0.15262083819557043, 0.080950128994914], [-0.23889879358450078, -0.06800111783488876, 0.11842567463690705]], [[-0.09214717876836916, -0.027564634080123038, 0.19304639033043677], [-0.020297745882599322, -0.010456569303117013, -0.17243601144399165], [-0.23889751512158422, -0.06560415455013677, 0.11978311289458299]]]" REF_dip_perm="_JSON [[7.33760112246151e-10, 2.356551671352339e-11, -2.2851410146446925e-11], [4.943574470912739e-10, 1.8843044625769606e-11, -1.5032671917130103e-11], [-5.394939787945327e-06, 1.9501771499889118e-11, -1.696596450659718e-11]]" REF_dip_trans="_JSON [[-0.3742665872742621, -2.9009110553372623e-12, 7.909576099753741e-13], [0.0, 0.0, 0.0], [-0.6031561316829451, -4.67502844418121e-12, 1.2746135310656403e-12]]" pbc="F F F"
C        0.00000000       0.00000000       0.00000000
C        1.29724561       0.00000000       0.00000000
H       -0.56503637       0.92382805       0.00000000
H        1.86228198       0.48171782       0.78829322
H        1.86228198      -0.48171782      -0.78829322
H       -0.56503637      -0.92382805      -0.00000000
6
Properties=species:S:1:pos:R:3 REF_energy="_JSON [[-2122.729860480021, -2116.0407722616596, -2112.498266679721]]" REF_forces="_JSON [[[-2.4707982259733368, -6.64325885396943e-10, 1.4617791542756205e-09], [-1.9463665193320963, -3.1000960510193624e-09, 1.0098916315542551e-09], [-9.05500245686578, -8.288335459221457e-10, 1.7053344398731354e-09]], [[2.4708687497290875, -1.291217723490543e-09, 3.973297976019973e-10], [1.9464196211021807, -2.7266246342325537e-09, 2.3462833675803422e-09], [9.05508906943993, -1.0821000119836826e-09, 1.6377493641659768e-10]], [[-0.08402739346189769, 0.028364431081306977, -1.5093840385523751], [-0.8100268518260929, 0.23339595642550373, 1.41942117001896], [-0.9215463886812227, 0.22783960917788054, 3.906400322819573]], [[0.08399213285025423, -1.0300114129945928, -1.1036982462620026], [0.8100003011178912, 0.7753363152228981, 1.2116099418339665], [0.9215030836279894, 2.4420659815342507, 3.0574600110294172]], [[0.08399212986860531, 1.0300114147044486, 1.1036982445684373], [0.810000299253137, -0.7753363118611445, -1.211609944921039], [0.9215030807867504, -2.4420659798199984, -3.0574600127139013]], [[-0.08402739301175458, -0.028364430835386294, 1.5093840383868065], [-0.8100268503131168, -0.23339595395994825, -1.419421170287985], [-0.9215463883078421, -0.2278396089813084, -3.906400323004302]]]" REF_nacs="_JSON [[[0.34320070677531694, 7.796840416981451e-12, 9.543093419287597e-12], [0.5057266073198722, 1.1245945012514378e-11, 1.7025726955570695e-11], [0.3718387210285077, 3.2550868175781e-11, 9.918300049775848e-12]], [[0.3431460214562134, 3.7496171677910345e-11, -1.5388839642942633e-11], [-0.5057219862899427, -6.1907166875820846e-12, -1.5961405840438617e-11], [0.3718598632572444, -4.001575820274586e-12, -7.21433608616469e-11]], [[-0.07539478918964276, 0.024457222250351282, 0.17762475508728626], [-0.021951922409224316, 0.012542155592122583, -0.06821925221746356], [-0.1192301276569553, 0.03327812512510927, 0.12314639641162929]], [[-0.0753985919652435, -0.10054673089127084, -0.14846019219970893], [0.021949611917525143, -0.054921738266991434, -0.04236299660599726], [-0.11923549949687065, -0.057570701837313, -0.1138180626097267]], [[-0.07539859197269715, 0.10054673085906367, 0.14846019221486037], [0.02194961191325115, 0.05492173826904727, 0.04236299661294333], [-0.11923549946727263, 0.057570701834070044, 0.11381806267771923]], [[-0.07539478918055789, -0.02445722225682246, -0.17762475509047462], [-0.02195192241125785, -0.01254215559923317, 0.06821925220945092], [-0.11923012763671313, -0.03327812514581953, -0.12314639641314144]]]" REF_dip_perm="_JSON [[-9.7351670776955e-10, -3.3388125411677235e-11, -2.516236725856027e-12], [-8.732919551775353e-10, -1.9348748664087018e-11, -7.075692649755331e-12], [-2.376538327457103e-05, -2.06674515783326e-11, -6.540008627280769e-12]]" REF_dip_trans="_JSON [[-0.4815283969241814, -5.225413886695725e-13, 1.7818210448398936e-12], [0.0, 0.0, 0.0], [-0.6945110151444533, -7.536216812207497e-13, 2.569841128618163e-12]]" pbc="F F F"
C        0.00000000       0.00000000       0.00000000
C        1.31677539       0.00000000       0.00000000
H       -0.56503637       0.92382805       0.00000000
H        1.88181176      -0.68708380       0.61755496
H        1.88181176       0.68708380      -0.61755496
H       -0.56503637      -0.92382805      -0.00000000
6
Properties=species:S:1:pos:R:3 REF_energy="_JSON [[-2121.265427767373, -2116.2230809288344, -2115.275964964351]]" REF_forces="_JSON [[[3.6736115305732295, 1.4751669196162166e-09, 1.286992817932633e-09], [7.325011243977823, 1.734388874617646e-09, 8.506965096769096e-10], [4.747999465755661, 1.1429157684620262e-09, 9.806792238742874e-10]], [[-3.6735944467948025, -4.6550216865154915e-09, -9.566064287507915e-09], [-7.325048530860484, -4.374550828173715e-09, -8.060305192711111e-09], [-4.747884606832369, -4.780257379894508e-09, -9.134729368502033e-09]], [[0.23105749316946625, 0.07260706430649448, 1.2971747120678774], [-0.31307010735322266, 0.22992523666840808, -0.6146735185156459], [-0.3213648695444515, 0.21890850788801414, -2.23239953970169]], [[-0.23106603213882324, 1.201160438739003, -0.4952319924143226], [0.3130887534479879, -0.45492007493522263, 0.47306561223096766], [0.32130744285261575, -1.918582972439288, 1.1620976009216395]], [[-0.231066037475068, -1.2011604347692963, 0.4952320008151108], [0.3130887488265782, 0.4549200786815459, -0.47306560501227307], [0.32130743770008663, 1.9185829766144051, -1.1620975927795258]], [[0.2310574926658642, -0.07260706509618572, -1.297174712189439], [-0.31307010803830193, -0.2299252377749256, 0.6146735185068167], [-0.3213648699301853, -0.2189085084254817, 2.2323995397134815]]]" REF_nacs="_JSON [[[-0.23294502764266248, -6.633772027740606e-11, -1.582154517788391e-10], [-0.6250197121851868, 7.122795815024109e-12, 8.8064603524009e-13], [1.1693517209433764, -1.2614064531163825e-10, 1.0755008549323419e-10]], [[-0.23297046739915853, 9.005666858907746e-11, 1.8335856948184654e-11], [0.6249811850050645, -4.230066939151677e-12, 8.90560342190737e-13], [1.169225449980209, 2.4728907879425353e-10, -2.996339973606649e-10]], [[0.053936188432501385, -0.004201250633651914, 0.15440282605077935], [0.01931205490002067, -0.012755334627208223, -0.2706843599653016], [-0.5598954898753423, -0.020228685004928755, -0.060927082051026545]], [[0.05394382449132296, -0.137417400663683, 0.07052431076716813], [-0.019292791157211647, -0.24957207592507807, 0.10555073478076984], [-0.5599663646641035, 0.06368674991242478, -0.00820584062813818]], [[0.053943824439572616, 0.13741740063090002, -0.07052431065733687], [-0.019292791158410677, 0.24957207592898606, -0.10555073477877448], [-0.5599663643950689, -0.06368675010556783, 0.008205840848363649]], [[0.05393618845406978, 0.004201250642089844, -0.1544028260263501], [0.019312054893602784, 0.012755334620408119, 0.27068435996152784], [-0.5598954898407055, 0.02022868507715371, 0.060927082025104794]]]" REF_dip_perm="_JSON [[-1.1425913267557886e-10, 4.2604888596655416e-11, -1.6971585753626644e-11], [-2.5562100380655554e-09, 4.230092486839546e-11, -1.870834289139687e-11], [-1.5022470394743298e-05, 4.206150138380714e-11, -1.9879227828200965e-11]]" REF_dip_trans="_JSON [[0.419331715937964, 2.3412834322965786e-12, 1.0968566299955288e-12], [0.0, 0.0, 0.0], [-1.0611476830336437, -5.924772138630083e-12, -2.7756954398230283e-12]]" pbc="F F F"
C        0.00000000       0.00000000       0.00000000
C        1.53270402       0.00000000       0.00000000
H       -0.56503637       0.92382805       0.00000000
H        2.09774039       0.39929229       0.83308099
H        2.09774039      -0.39929229      -0.83308099
H       -0.56503637      -0.92382805      -0.00000000
6
Properties=species:S:1:pos:R:3 REF_energy="_JSON [[-2120.545743478825, -2117.165578576883, -2116.7451827992318]]" REF_forces="_JSON [[[-4.9541558754084045, -1.243009714745678e-10, 1.422280730936605e-11], [0.17909963513180552, -1.2096374535961106e-10, 1.2689075288322712e-11], [-0.7936728441617964, -1.1688043594294127e-10, 5.233069095179037e-13]], [[4.954064718067427, -8.907845958157575e-11, -1.7737532042905895e-12], [-0.17905695780684328, -8.168961065189259e-11, -4.094828366730131e-11], [0.7937260101509207, -7.988110906603981e-11, -3.545053546154972e-11]], [[-0.266048258172215, 0.10035645248730796, -1.354465193175666], [-0.7980935059492604, 0.2604921747276965, 0.2887193307804786], [-0.8242564929591784, 0.29159653357777654, 1.876007783654506]], [[0.2660938368146499, -1.3530799426518654, -0.1184112251793096], [0.7980721672713296, 0.24316039795036448, 0.30340291775752876], [0.8242299099534705, 1.804768576026352, 0.5891835132359183]], [[0.26609383681168125, 1.3530799427062443, 0.1184112251769118], [0.7980721672474543, -0.24316039790326804, -0.3034029177218593], [0.8242299099218201, -1.8047685759779792, -0.5891835131935569]], [[-0.26604825811148247, -0.10035645232718221, 1.3544651931654537], [-0.7980935058935653, -0.2604921745726399, -0.2887193307880397], [-0.8242564929071545, -0.2915965334294794, -1.8760077836622038]]]" REF_nacs="_JSON [[[-0.16003215845615873, -6.014486852728304e-12, -3.362546797839778e-12], [-0.5706700991730685, 3.5990083580187266e-13, -1.4884399540906049e-12], [3.069570985340392, 8.444074501384109e-11, 1.4978615553118358e-11]], [[-0.16005051308124765, 3.681288428466048e-12, 6.684803518587342e-12], [0.5706718891660786, -3.525792843028544e-13, -2.0496843157260376e-14], [3.0695591121372487, -7.707747144622111e-11, -2.6043099452244227e-11]], [[0.06087986350294588, -0.014184303822608282, -0.21373329941777042], [0.017167584332524844, -0.00876729994618231, 0.7173801116024207], [-1.529647716627348, 0.32093471080444075, 0.05706510974165109]], [[0.06088737258689825, 0.20867289349157844, 0.0483569787107471], [-0.01716847928707303, 0.7094569854962895, 0.10664814835719359], [-1.5296895592621667, -0.004769939538081963, -0.32598887950957683]], [[0.06088737258841248, -0.20867289349225684, -0.048356978714074905], [-0.01716847928859936, -0.7094569854963009, -0.10664814835569957], [-1.5296895592563162, 0.0047699395652325465, 0.32598887951723593]], [[0.060879863503063805, 0.01418430382539576, 0.2137332994172772], [0.017167584332614172, 0.00876729994616863, -0.7173801116024037], [-1.5296477166259252, -0.3209347108388205, -0.05706510973803056]]]" REF_dip_perm="_JSON [[1.356261172175782e-10, -1.0042045526637398e-11, -1.1081559838419556e-12], [-1.361299475068858e-09, -9.82739716784561e-12, -1.6338258588306931e-13], [-1.1831684025351483e-05, -9.650848372253527e-12, -4.71997375574069e-13]]" REF_dip_trans="_JSON [[0.18697008056843128, -1.0682671803068484e-13, -5.189135470970464e-14], [0.0, 0.0, 0.0], [-0.6996744670683022, 3.9970883858393624e-13, 1.941849985470678e-13]]" pbc="F F F"
C        0.00000000       0.00000000       0.00000000
C        1.33087987       0.00000000       0.00000000
H       -0.56503637       0.92382805       0.00000000
H        1.89591624      -0.14848190       0.91181763
H        1.89591624       0.14848190      -0.91181763
H       -0.56503637      -0.92382805      -0.00000000
6
Properties=species:S:1:pos:R:3 REF_energy="_JSON [[-2121.2140390648656, -2111.3082877344, -2103.249366642676]]" REF_forces="_JSON [[[-26.119446231285973, 2.373502116378536e-09, -7.215993302866875e-10], [-25.910819665003253, 4.026581580358562e-09, -3.9689940068528084e-10], [-38.90865731456252, 2.1927557957384003e-09, -9.346062128000304e-10]], [[26.119481002340194, -1.9914114717897847e-09, -8.963436101495078e-10], [25.910864450720602, -3.3739098399202797e-09, -9.124092814963536e-10], [38.90855192317212, -1.143787240150991e-09, -1.0074850272137083e-09]], [[-0.455164789905888, -0.07502822526801002, 0.5757679907280638], [-1.5634919568183794, 0.3868805817899849, -2.3726081042484517], [-1.8887126024680927, 0.49940977916538015, -5.265596063933825]], [[0.45514740393397435, 0.05931203909952871, -0.5775684126161692], [1.5634695627898927, -0.16877176599348057, 2.398062581447452], [1.8887652980081873, -0.724020007191402, 5.23938901681629]], [[0.45514740411091925, -0.05931203883435745, 0.5775684134809239], [1.563469563767102, 0.16877176569729768, -2.398062580798953], [1.8887652980886063, 0.7240200072453644, -5.239389015836699]], [[-0.4551647891932337, 0.0750282246206098, -0.575767989974818], [-1.5634919554571909, -0.38688058214590637, 2.372608104909179], [-1.8887126022378042, -0.4994097802677191, 5.265596064895881]]]" REF_nacs="_JSON [[[-0.387573946011454, 1.2233653552035682e-10, -1.5031397017565876e-10], [0.42639854517206055, 4.3592514772282515e-11, 4.847368341587395e-12], [-0.2888602203392106, 1.302159890983657e-10, 1.6850639949273602e-10]], [[-0.38769133434050884, 2.0597080203241973e-11, 1.1118391622317773e-10], [-0.42638383875881813, -6.160885999187169e-11, -7.860462387162473e-12], [-0.2889503422739462, 3.765729977174256e-11, 6.885132152764948e-11]], [[0.09445096030584417, -0.0582216350528099, 0.22731505419622552], [-0.02515394504883793, 0.017192411429854587, 0.011748526731010804], [0.058547387451668556, -0.0550796358020364, 0.19660458242580447]], [[0.09444793860140682, 0.004422130540837144, 0.23463640069159128], [0.025146592326676195, 0.01942025524488793, -0.00748672886906625], [0.05853484874733805, 0.008405766370903678, 0.2039731163897337]], [[0.0944479375496019, -0.004422129314385368, -0.23463640068960329], [0.02514659184185203, -0.019420254871646232, 0.0074867292128565285], [0.05853484908251084, -0.008405766486228315, -0.20397311661311637]], [[0.09445095855200542, 0.05822163375641413, -0.22731505415260497], [-0.025153945543016053, -0.017192411785080883, -0.011748527071787779], [0.05854738740478256, 0.055079635812601294, -0.1966045824341873]]]" REF_dip_perm="_JSON [[-3.1187511296808937e-10, -1.0835890523798496e-11, -2.3711252747620627e-11], [-1.0630402715721391e-09, 5.6755857507497225e-12, -3.0444257522913025e-11], [1.043407545835897e-05, 1.4089551582186548e-12, -3.3802432137182234e-11]]" REF_dip_trans="_JSON [[0.33288309104654024, -4.566839449382054e-11, -4.326267281921196e-12], [0.0, 0.0, 0.0], [0.38501879984210247, -5.2821036834526786e-11, -5.003718978490731e-12]]" pbc="F F F"
C        0.00000000       0.00000000       0.00000000
C        1.11554702       0.00000000       0.00000000
H       -0.56503637       0.92382805       0.00000000
H        1.68058339       0.89909879       0.21231965
H        1.68058339      -0.89909879      -0.21231965
H       -0.56503637      -0.92382805      -0.00000000
6
Properties=species:S:1:pos:R:3 REF_energy="_JSON [[-2120.5650583927386, -2114.6602153810645, -2110.8684545915985]]" REF_forces="_JSON [[[-19.51656428751483, -1.7372123339577117e-11, 1.0060870333266687e-10], [-18.36853117345172, 1.0387252917403477e-10, 1.6003356940433703e-10], [-23.603082649985556, -2.1322665141452674e-11, 1.2487058652142984e-10]], [[19.516564091814576, 6.627509479496723e-11, -4.067782748728376e-11], [18.36853102094112, 1.0339734137591644e-10, -1.5107937713115919e-10], [23.603082645818724, 8.293681996814984e-11, -5.417726765425047e-11]], [[-0.5629071474621404, 0.07792887578020018, -2.068350845419302], [-1.3486007293057063, 0.36184024331819875, 1.3617755667483467], [-1.7033609552511022, 0.5520163366740656, 4.782514982141506]], [[0.5629072453287677, -1.649261106651259, -1.2506344058621948], [1.3486008056208978, 0.8240008081149743, 1.1429714464292837], [1.7033609573536326, 3.349410730671895, 3.4581237269679446]], [[0.5629072452574864, 1.6492611066168423, 1.2506344058660566], [1.3486008055159555, -0.8240008081997025, -1.1429714463693872], [1.7033609572863362, -3.3494107307086876, -3.4581237269689837]], [[-0.5629071474262684, -0.07792887579527198, 2.068350845356042], [-1.3486007293215236, -0.3618402434406681, -1.3617755668173963], [-1.7033609552239464, -0.552016336698522, -4.782514982211394]]]" REF_nacs="_JSON [[[-0.3386681034124882, 3.2125561166518844e-12, 3.5185634613948304e-12], [0.389040625895429, -2.2149050635396325e-13, 5.715064211635648e-14], [-0.42944574087432796, 4.370151343522256e-12, 4.882430907636299e-12]], [[-0.3386680343027982, -2.987855838555035e-12, -2.976520910521761e-12], [-0.38904062222695474, 4.7027006881810043e-14, -2.2718822407343266e-13], [-0.4294457948983419, -2.0093097408294443e-12, -6.2989798914249646e-12]], [[0.12520073359102363, -0.056667925517744216, -0.20855758012636194], [-0.013750802730944407, 0.006099434924894739, -0.09103302249718395], [0.18116087747520124, -0.08938589763668932, -0.15859385611892687]], [[0.1252010908494275, 0.12540322109745014, 0.1760157403164875], [0.013750800911424214, -0.07427987822119768, -0.05297846001755435], [0.18116147579209602, 0.06601963950522663, 0.16965630809137716]], [[0.1252010908491601, -0.12540322109683238, -0.1760157403151768], [0.013750800911304746, 0.07427987822110112, 0.05297846001785293], [0.1811614757911487, -0.06601963950577125, -0.16965630808840823]], [[0.12520073359046957, 0.056667925517213016, 0.20855758012454778], [-0.013750802730893252, -0.00609943492462277, 0.09103302249706073], [0.18116087747465323, 0.08938589763510196, 0.1585938561174032]]]" REF_dip_perm="_JSON [[-4.648563099033044e-10, 4.853009935438027e-12, 7.546628234223835e-12], [-3.021940764173443e-10, 4.527393996397912e-12, 5.762194593870367e-12], [-5.679125054434942e-10, 4.5061581742866e-12, 6.210020607217737e-12]]" REF_dip_trans="_JSON [[0.24516582464816894, 6.088017698810596e-14, -5.439559341143934e-14], [0.0, 0.0, 0.0], [0.3223892397265679, 7.99593930221395e-14, -7.16755762372776e-14]]" pbc="F F F"
C        0.00000000       0.00000000       0.00000000
C        1.15681726       0.00000000       0.00000000
H       -0.56503637       0.92382805       0.00000000
H        1.72185363      -0.58551854       0.71458121
H        1.72185363       0.58551854      -0.71458121
H       -0.56503637      -0.92382805      -0.00000000
6
Properties=species:S:1:pos:R:3 REF_energy="_JSON [[-2123.159602008202, -2115.4546697555606, -2111.99432596047]]" REF_forces="_JSON [[[3.4979631580233157, 2.026202212695627e-09, 2.2832802930267583e-09], [2.705779550252326, 2.105522856559898e-09, 2.0723279194359673e-09], [-5.474386714194025, -3.840761509681798e-09, 2.2742714641746594e-10]], [[-3.4979631668986104, 2.4897433795385522e-09, -1.7381619040946465e-09], [-2.705779430443877, 2.3624384602118465e-09, -1.791461940795981e-09], [5.4743869069321605, -3.419711404234525e-09, -2.594635504864244e-09]], [[0.20760951175133144, 0.01742827060519412, 1.0242415111537986], [-0.3570129933990934, 0.14195800427781852, -1.3991453311407265], [-0.32680357963733625, 0.03560746030286412, -2.844647196513647]], [[-0.207609508061036, 0.5001253349755321, -0.8940073010082427], [0.3570129326798991, -0.5371636025467413, 1.2996980291307512], [0.32680348252552843, -1.3150030614218842, 2.522707364619426]], [[-0.20760950422903224, -0.5001253366424108, 0.8940073016380138], [0.35701293666781564, 0.537163600915294, -1.2996980282478805], [0.3268032739324028, 1.315003060004183, -2.5227073406257916]], [[0.20760950941377113, -0.017428273454919565, -1.0242415123283712], [-0.35701299575623524, -0.14195800711402526, 1.3991453299770247], [-0.3268033695580795, -0.03560745162502989, 2.844647174887197]]]" REF_nacs="_JSON [[[0.4051882397644094, -3.832610549341924e-10, 2.4868761174654645e-09], [0.5347358702732794, 3.482135175362803e-11, -1.2042187757392536e-11], [0.3943142579140103, 3.205793845217071e-11, 9.776169916760783e-12]], [[0.40518819935684347, 7.95948116799162e-10, -2.3980845225365456e-09], [-0.5347358741423878, 6.090542402218987e-12, 3.4232679468431014e-12], [0.3943142334409553, 1.376099693292087e-10, 1.9850913521912136e-11]], [[-0.049129704043141334, 0.012507696894797521, -0.13299730344734148], [-0.021954536644205498, 0.014159882920942071, 0.021939437559910492], [-0.09930378001988001, 0.0049027529267783206, -0.08479719110606077]], [[-0.049129739520858674, 0.05192946398924555, -0.12307743402609926], [0.02195453855832402, 0.022857387314820423, -0.012624622307912501], [-0.09930381880137397, 0.03581560332818186, -0.07701846080098843]], [[-0.04912973964059664, -0.05192946420823098, 0.12307743409838186], [0.02195453858877866, -0.02285738733339908, 0.012624622316536814], [-0.09930381881967162, -0.035815603422267354, 0.07701846072282331]], [[-0.04912970397505544, -0.012507697081217076, 0.132997303271473], [-0.021954536649895846, -0.01415988294327508, -0.021939437559916918], [-0.09930378013675617, -0.004902752997711195, 0.08479719114516998]]]" REF_dip_perm="_JSON [[-4.414760861474189e-10, -1.8921325695513263e-11, -1.2420873991773173e-11], [-4.209481247731508e-10, -9.411841276334057e-12, -2.7350489713363084e-12], [-3.3598401689446106e-10, -1.0933950055312495e-11, -7.09588750019452e-12]]" REF_dip_trans="_JSON [[-0.6594856010936812, -2.281413026499076e-12, 5.158919367578915e-12], [0.0, 0.0, 0.0], [-1.0342781439476492, -3.5780359532286407e-12, 8.090777224783618e-12]]" pbc="F F F"
C        0.00000000       0.00000000       0.00000000
C        1.43844083       0.00000000       0.00000000
H       -0.56503637       0.92382805       0.00000000
H        2.00347720       0.81380167       0.43724720
H        2.00347720      -0.81380167      -0.43724720
H       -0.56503637      -0.92382805      -0.00000000
6
Properties=species:S:1:pos:R:3 REF_energy="_JSON [[-2123.460248095148, -2114.4565316259395, -2110.8686058869043]]" REF_forces="_JSON [[[5.788898533283248, -4.529940892683488e-09, 1.4155384309483157e-10], [0.8121792333718174, -3.431914177035354e-09, -1.1555664541758657e-13], [-7.660602892851973, -5.9234359194242575e-09, 6.091509109700738e-11]], [[-5.7887353748649755, 5.1707837018598835e-09, -1.757261649927237e-10], [-0.8124649605089992, 5.98048949030865e-09, -1.9667528420431654e-10], [7.660636714471931, 1.7635282257775008e-09, -3.477265726125733e-11]], [[0.1980799280272642, 0.058914761093676944, -0.06206281541713583], [0.2157620922756997, -0.03969539635524351, 0.10425274974341972], [0.22140872418841848, -0.17027660593136493, 0.13118592741430507]], [[-0.19816150958049986, -0.05990800835270202, -0.06102673291587918], [-0.2156192304495718, 0.0410304731166665, 0.10355956150360354], [-0.221425638654968, 0.17253254746155264, 0.12827629971509777]], [[-0.19816151094160442, 0.05990800637188543, 0.06102673295996537], [-0.21561923230210675, -0.0410304760009199, -0.10355956133758842], [-0.22142563842457608, -0.17253254682440597, -0.1282762997162162]], [[0.1980799340757406, -0.058914759754300765, 0.0620628154072304], [0.21576209761444465, 0.03969539669024742, -0.10425274971264359], [0.22140873127094227, 0.17027660945413547, -0.13118592743934246]]]" REF_nacs="_JSON [[[0.5048595351260147, 2.064043116093166e-12, 6.587439618210562e-12], [0.3977844643787017, 1.1669312004404086e-10, -3.2155170383940933e-12], [0.464734275416864, 4.3973268065280555e-13, 1.9535044466380058e-11]], [[0.5048680454886891, 3.81564209687181e-11, -9.263383658305963e-12], [-0.39778270573786945, -1.2078049076995851e-10, -5.306355477349636e-12], [0.4647341535453611, 1.4327176746470503e-10, -1.6605116556693557e-11]], [[-0.023484246871998352, 0.00745739681860028, 0.006489293341029027], [0.0008932480422787028, 0.006318257083399182, 0.003289040769928118], [-0.09628882676872214, -0.0061072091764800005, 0.0038603300789577595]], [[-0.0234874507452309, 0.0073461682478296415, -0.006613449275066031], [-0.0008941273844317543, -0.006259427567485261, 0.003393485880565157], [-0.09630480762692008, -0.0061478937044493745, -0.0037544394979085786]], [[-0.023487450773193176, -0.007346168270571059, 0.00661344926852002], [-0.0008941274200241809, 0.0062594275481634345, -0.0033934858742171703], [-0.09630480773150167, 0.006147893621195146, 0.003754439494693153]], [[-0.023484246855963082, -0.007457396834005272, -0.0064892933253093595], [0.0008932480817932711, -0.006318257059990314, -0.003289040767754234], [-0.09628882670579161, 0.006107209117257703, -0.0038603300748111715]]]" REF_dip_perm="_JSON [[-3.8486804661736316e-10, 8.671294028785662e-11, -2.7816845022474248e-12], [-5.383072710883123e-10, 8.671918611788937e-11, 2.7183934245823385e-12], [3.2401284266504507e-06, 8.70127401294281e-11, 9.257777468859833e-13]]" REF_dip_trans="_JSON [[-0.8079206394650591, 2.7223445872197978e-11, -2.3948577246851977e-12], [0.0, 0.0, 0.0], [-1.3593726862734157, 4.5805007358759187e-11, -4.0294859164460196e-12]]" pbc="F F F"
C        0.00000000       0.00000000       0.00000000
C        1.49129021       0.00000000       0.00000000
H       -0.56503637       0.92382805       0.00000000
H        2.05632658      -0.92369514       0.01567021
H        2.05632658       0.92369514      -0.01567021
H       -0.56503637      -0.92382805      -0.00000000
6
Properties=species:S:1:pos:R:3 REF_energy="_JSON [[-2120.176257483287, -2116.1530023579508, -2114.498984925618]]" REF_forces="_JSON [[[-13.601433184401007, -4.923198485137978e-10, 7.840585886706043e-10], [-10.821914778622716, -1.0990590448956108e-09, 9.716673094191521e-10], [-13.909873295475188, -3.641316470551557e-11, 5.455035942546766e-10]], [[13.601368816301402, 4.328092808110011e-11, -9.954767629983634e-11], [10.821986120895605, -1.9240110544420835e-11, -7.715199474915952e-10], [13.909900256103837, -1.855113937562105e-10, 4.522753524908144e-10]], [[-0.5649649684305807, 0.13916828560152342, 2.377876383506548], [-1.1469021540122806, 0.3112755590423963, -0.7400381903006742], [-1.2844856415202548, 0.3965295589704427, -3.8175561749437525]], [[0.56499715286387, 2.2629096629908916, -0.7435048618415349], [1.1468664832833606, -0.5741468011292492, 0.5611607201582322], [1.2844721615364498, -3.4053070348397614, 1.7705248866765724]], [[0.5649971522817155, -2.2629096627887617, 0.743504861678671], [1.1468664824507704, 0.5741468015150175, -0.561160719860128], [1.2844721610639633, 3.4053070349489976, -1.770524887115275]], [[-0.5649649686167441, -0.13916828535468928, -2.377876384028338], [-1.14690215399472, -0.3112755583098864, 0.7400381898025024], [-1.2844856417098736, -0.396529558858067, 3.8175561743846456]]]" REF_nacs="_JSON [[[-0.31434731582518843, -8.334552135469262e-11, 4.5072367557903986e-11], [-0.5793411067765516, 4.496408898732222e-12, 9.359900481222694e-12], [0.8764445214682195, 3.434310121848982e-11, -1.850838631346435e-10]], [[-0.31440182789543847, 2.0425000642064202e-11, -1.0219391817621466e-10], [0.5793282607585839, -1.3718525771921434e-11, -1.9017900066032937e-12], [0.8765202157856303, 3.629347177925623e-11, 2.197974890787287e-10]], [[0.12688334801019616, -0.04615194176403503, 0.21558619249741617], [0.017291183237031656, -0.006532853353086461, -0.29512010292850127], [-0.42047906660057527, 0.15581255800087682, -0.12640445020847169]], [[0.12688067161367675, -0.18357522461520695, 0.12208738434126333], [-0.01728476017173461, -0.2768708873725189, 0.10233050748042238], [-0.42046378030657483, 0.0603653135473543, -0.19134282365445793]], [[0.12688067156856594, 0.1835752246374991, -0.12208738427294669], [-0.017284760171434124, 0.27687088737152493, -0.10233050748313471], [-0.4204637803188165, -0.06036531356796158, 0.19134282356189347]], [[0.12688334801814774, 0.046151941808829665, -0.21558619251343353], [0.017291183246792713, 0.006532853363303209, 0.2951201029237619], [-0.42047906661440426, -0.15581255805333596, 0.12640445026913832]]]" REF_dip_perm="_JSON [[6.912468291566425e-10, -1.526439221134471e-11, 1.2020099898005768e-10], [-4.181166818249759e-11, 1.6000150989201338e-12, 1.042054282662137e-10], [3.533474243854748e-06, -4.937536835214425e-12, 1.0593552318528232e-10]]" REF_dip_trans="_JSON [[0.24576002609601244, -1.8381590763378966e-12, -2.0361591806304104e-12], [0.0, 0.0, 0.0], [-0.4191291887067598, 3.1348444195194475e-12, 3.472564166986744e-12]]" pbc="F F F"
C        0.00000000       0.00000000       0.00000000
C        1.20935800       0.00000000       0.00000000
H       -0.56503637       0.92382805       0.00000000
H        1.77439437       0.33921481       0.85929714
H        1.77439437      -0.33921481      -0.85929714
H       -0.56503637      -0.92382805      -0.00000000
6
Properties=species:S:1:pos:R:3 REF_energy="_JSON [[-2120.0971485418368, -2116.4967847503635, -2115.360731969297]]" REF_forces="_JSON [[[-11.900284927356019, -1.3335416844009037e-10, -4.034051943552594e-11], [-8.40922117259633, -1.0442173906508332e-10, -5.248763297046205e-11], [-10.770772067798399, -7.694870531677592e-11, -4.365870470285482e-11]], [[11.9002660086772, 1.5772910679393743e-11, 2.6480143972783313e-11], [8.409238762705828, -8.226249005749668e-12, 5.272185991952428e-11], [10.770786795886975, -1.3169325457787606e-11, 2.775317450919405e-11]], [[-0.5380952426060269, 0.14428590153382692, -2.2595568515458515], [-1.0805413360092662, 0.29908599617629383, 0.568230597249193], [-1.1686310070495745, 0.36186798716314406, 3.3531270414301417]], [[0.5381047019164602, -2.2055268037863, -0.5119182930328376], [1.0805325409259317, 0.45817214939924067, 0.44988950916594855], [1.1686236429861578, 3.107202384255078, 1.311341688293928]], [[0.5381047019086852, 2.205526803808283, 0.5119182930335457], [1.0805325409234325, -0.4581721493722713, -0.4498895091779144], [1.168623642974377, -3.107202384231192, -1.3113416882895057]], [[-0.5380952425413996, -0.14428590143789286, 2.2595568515593087], [-1.0805413359495855, -0.299085996091161, -0.5682305972373454], [-1.168631006999402, -0.36186798709662293, -3.353127041418664]]]" REF_nacs="_JSON [[[-0.2875892950108175, -1.9316743035773074e-12, -2.455999243668934e-13], [-0.6446421653153662, 1.6253461224855335e-13, -6.908994212216159e-13], [1.2604689459650742, 1.1641751902882611e-11, -7.412719495761001e-12]], [[-0.28760221434122807, 1.0906991650977542e-12, 3.060810878248666e-13], [0.6446386509908376, -1.0561780858762595e-13, 2.0316725969726085e-13], [1.2604869286273923, -8.618359128799357e-12, -9.399941729151954e-16]], [[0.11801863930900564, -0.039852352857892355, -0.21954272269075756], [0.018864790822933842, -0.007364113141884927, 0.4346552745882509], [-0.6173858527572161, 0.20887793674346639, 0.10948103776477823]], [[0.1180207497132589, 0.19879023024176512, 0.10133925308647544], [-0.018863033679786256, 0.4183849792065636, 0.11802895006790376], [-0.6173843191693749, -0.044751133497398295, -0.23155157695733097]], [[0.11802074971370885, -0.19879023024222245, -0.1013392530871066], [-0.0188630336801529, -0.4183849792066184, -0.11802895006742604], [-0.6173843191727575, 0.044751133498317455, 0.23155157696526782]], [[0.11801863930949207, 0.03985235285920968, 0.21954272269126213], [0.018864790822892268, 0.007364113141913444, -0.4346552745882017], [-0.6173858527554908, -0.208877936747414, -0.10948103776527657]]]" REF_dip_perm="_JSON [[-2.0520049989559963e-10, -3.805584238947735e-12, -9.59109659827366e-13], [1.1972839784091378e-10, -3.814536595327993e-12, -4.4039347560841087e-13], [-1.6949517154177632e-06, -3.744375104626894e-12, -6.568947639765793e-13]]" REF_dip_trans="_JSON [[0.23333961676838832, -1.4639148933683755e-13, -3.3216048316102176e-14], [0.0, 0.0, 0.0], [-0.46795753887794356, 2.936348608474938e-13, 6.666709862213732e-14]]" pbc="F F F"
C        0.00000000       0.00000000       0.00000000
C        1.22984311       0.00000000       0.00000000
H       -0.56503637       0.92382805       0.00000000
H        1.79487948      -0.26581894       0.88475904
H        1.79487948       0.26581894      -0.88475904
H       -0.56503637      -0.92382805      -0.00000000
6
Properties=species:S:1:pos:R:3 REF_energy="_JSON [[-2123.5135535676864, -2114.526058894143, -2110.829912384433]]" REF_forces="_JSON [[[5.3047778466069335, -1.011634163017763e-09, 3.2684542259078385e-11], [0.6603486051737261, -6.538786786528072e-10, -1.1322322308908876e-10], [-8.133912678800364, -6.300620172922901e-10, -5.159800351952525e-11]], [[-5.3049336493515575, 3.151676332079966e-09, 1.387073039734723e-10], [-0.6604503106872737, 2.854612057904232e-09, 2.0256286223756134e-10], [8.133860374256813, 2.780577641101083e-09, 1.1214943179752665e-10]], [[0.20248570969737367, 0.04527363292279353, 0.349919743327736], [0.1456135950619519, -0.029079253408111048, -0.607769611725087], [0.16949054872879843, -0.1690872356931791, -0.7790232627580292]], [[-0.2024078083127765, 0.07951425904845376, -0.3440167649754936], [-0.1455627419934786, -0.08867380208256229, 0.6020573320265965], [-0.1694643960855019, -0.24486278067697212, 0.7585744573653435]], [[-0.20240780880599946, -0.07951426192124318, 0.344016764849219], [-0.14556274280130127, 0.08867379964557437, -0.6020573321552083], [-0.16946439698382382, 0.24486277831390393, -0.7585744574262838]], [[0.20248571016663036, -0.045273632190397824, -0.3499197433729298], [0.14561359524459383, 0.02907925364434932, 0.607769611764317], [0.16949054888388942, 0.1690872359052113, 0.7790232627584355]]]" REF_nacs="_JSON [[[-0.5013035767095155, 6.668252441759227e-14, -3.007342348211286e-12], [-0.41612321310149886, -2.1293694530471633e-12, 4.142565627671515e-12], [0.4525575686887677, -6.582148791169113e-13, 7.455880908655492e-12]], [[-0.5013117313072191, -7.718149893512534e-12, 1.1867736125448377e-11], [0.41613324829633147, 3.3752241539676467e-12, -8.824529381399715e-12], [0.452541310141154, 2.8695340389333445e-11, 1.512200584239089e-11]], [[0.024791951219055478, -0.008146739012005643, 0.0385258631264567], [0.0026768751012563783, -0.007609172951234625, 0.01818470510792431], [-0.08976452063424475, -0.004390037156741626, -0.02327584385430567]], [[0.024786070393353662, 0.0043067071315291555, 0.03915083035407109], [-0.0026818927070102255, -0.005791025889325017, -0.018862341467229222], [-0.08974397175551449, 0.006692507370598101, -0.022755867759595517]], [[0.024786070392361748, -0.00430670712411695, -0.0391508303586225], [-0.002681892707945394, 0.005791025887272322, 0.01886234147527815], [-0.08974397174680454, -0.006692507396862837, 0.022755867733267283]], [[0.024791951219630338, 0.008146739012802032, -0.03852586312966375], [0.0026768751007797517, 0.007609172952041823, -0.01818470511129133], [-0.08976452063525066, 0.004390037154634203, 0.02327584385738895]]]" REF_dip_perm="_JSON [[2.2314268763631388e-10, -5.408680614017353e-12, 6.284137790272904e-14], [2.882658754443368e-10, -5.088685922006703e-12, 1.0534425127551639e-12], [-4.535513575440472e-06, -5.154058943016036e-12, 4.145981975731998e-13]]" REF_dip_trans="_JSON [[0.8008352476630751, -6.208557123484696e-13, -1.888965380324131e-13], [0.0, 0.0, 0.0], [-1.3249331878137238, 1.027167097634497e-12, 3.12499270093152e-13]]" pbc="F F F"
C        0.00000000       0.00000000       0.00000000
C        1.47703869       0.00000000       0.00000000
H       -0.56503637       0.92382805       0.00000000
H        2.04207506       0.91933339       0.09101856
H        2.04207506      -0.91933339      -0.09101856
H       -0.56503637      -0.92382805      -0.00000000
6
Properties=species:S:1:pos:R:3 REF_energy="_JSON [[-2123.398051846453, -2115.2594185368507, -2111.376672396504]]" REF_forces="_JSON [[[2.7299323545718313, 8.853296137274142e-10, -5.710023824195705e-09], [1.284767636901011, -2.1901009774810277e-10, -7.593717954015861e-09], [-7.871637000086946, 7.717514954413955e-11, -5.845685963350351e-09]], [[-2.7303407980949648, 9.643496511036294e-09, 5.308054297034547e-09], [-1.2849141490431617, 1.1570593255936341e-08, 7.010093613653541e-09], [7.871692275589995, 3.282367170766366e-09, 1.1058178136945757e-08]], [[0.1856396585874537, 0.0022329646118714745, -0.9301998300869221], [-0.3684900883942055, 0.11858198701631063, 1.4929998484062816], [-0.31617694896501264, -0.012468498065442831, 2.7759722176906343]], [[-0.18543541286359713, -0.3717920756132475, -0.8528303469172941], [0.36856334750187325, 0.4837925104774661, 1.4175777836859422], [0.3161493116939891, 1.1138174347929681, 2.5425977261993284]], [[-0.18543544915615465, 0.3717920669430406, 0.8528303526187313], [0.368563332073767, -0.48379252128872946, -1.417577785494117], [0.316149304812125, -1.1138174328652424, -2.5425977334810637]], [[0.18563964695653803, -0.0022329664703781282, 0.9301998247874309], [-0.36849007904031195, -0.11858198755649586, -1.4929998460147802], [-0.31617694304449795, 0.012468492777861825, -2.7759722156214104]]]" REF_nacs="_JSON [[[-0.4284466929213148, -1.7367839621538423e-10, 2.4336866776516647e-11], [-0.5232421493441762, 9.838215108961891e-11, 7.312582287246734e-11], [0.38119095321307556, -1.3142930394841446e-09, -1.0218499575610521e-09]], [[-0.42845536929343053, 1.0759971262775574e-10, 3.045141724981002e-11], [0.523248329904181, -2.178893954790759e-11, -8.558624198691013e-11], [0.38115313819910757, 2.9658859618771783e-10, 9.930587326558331e-10]], [[0.045908126560786904, -0.013716058201195952, -0.12973780908390156], [0.02227999111905107, -0.014559384859318524, 0.0037490456143185833], [-0.08001265799494421, 0.006363113032726759, 0.08519428446628334]], [[0.0459013085353775, 0.03892892491892077, 0.12451359318811503], [-0.02228308134582115, 0.014855294972184373, -0.0023376389137250886], [-0.07993959220926061, -0.028041129306223257, -0.08073502101255263]], [[0.04590130828110181, -0.03892892495695812, -0.12451359312192717], [-0.02228308131893885, -0.014855294946486118, 0.0023376389121871535], [-0.07993959204303917, 0.02804112930367061, 0.08073502088948686]], [[0.0459081265668208, 0.013716058265919203, 0.1297378091437067], [0.02227999098207465, 0.014559384757027215, -0.003749045600320342], [-0.08001265730857395, -0.006363111986575415, -0.08519428443324034]]]" REF_dip_perm="_JSON [[4.888194777955788e-10, 1.2005109905927195e-10, 8.712308312667314e-11], [5.378492435525782e-10, 1.7421701904652684e-11, 4.685205301891778e-11], [-8.274892016041175e-06, 4.866542567175627e-11, 5.616042171104281e-11]]" REF_dip_trans="_JSON [[0.6811184554216568, 2.9667233380271256e-11, -6.436800356248903e-11], [0.0, 0.0, 0.0], [-1.0364931527485388, -4.514617622816422e-11, 9.795213257054436e-11]]" pbc="F F F"
C        0.00000000       0.00000000       0.00000000
C        1.41419270       0.00000000       0.00000000
H       -0.56503637       0.92382805       0.00000000
H        1.97922907      -0.84787211       0.36683940
H        1.97922907       0.84787211      -0.36683940
H       -0.56503637      -0.92382805      -0.00000000
6
Properties=species:S:1:pos:R:3 REF_energy="_JSON [[-2121.0520439694715, -2114.644985440421, -2110.4107027510995]]" REF_forces="_JSON [[[-17.856674298888514, 2.8551161083393177e-10, -1.809824990930013e-10], [-17.006889729484744, -1.396965560143197e-09, 2.3242755936543827e-10], [-22.999074299077435, 3.8546990273341004e-10, -1.4102855829695976e-10]], [[17.856680124279706, 2.46958460375486e-11, 4.338942292845587e-10], [17.00692238154748, -7.096670005920218e-10, -7.696121682705914e-10], [22.999030305645014, -1.6221422812374179e-10, 4.947090697522998e-10]], [[-0.4943553253413367, 0.05402347159129874, 1.880184673929755], [-1.3209529081985594, 0.35509235023637026, -1.4994097926487024], [-1.6819978043705361, 0.5344457754857472, -4.8319888327857505]], [[0.49435241257535073, 1.3908603059786868, -1.2662550108090749], [1.3209365819240637, -0.8328975649105764, 1.296365213407048], [1.6820198010171403, -3.107203582505681, 3.7388634803361156]], [[0.4943524128718992, -1.390860306217779, 1.2662550106326405], [1.3209365817538103, 0.8328975654620422, -1.2963652127568726], [1.682019801322752, 3.1072035823067554, -3.7388634805989236]], [[-0.4943553254985283, -0.054023471662775414, -1.88018467400606], [-1.3209529075446713, -0.3550923486817882, 1.4994097925350698], [-1.6819978045353696, -0.5344457755100441, 4.831988832695057]]]" REF_nacs="_JSON [[[0.3386953773896567, 3.9695300702223843e-11, -2.127486988542317e-11], [0.3854617271285716, 3.690598525867409e-12, -1.6854358723051166e-12], [0.386180884843868, 7.155967011272957e-11, -2.3983308460198852e-11]], [[0.33871495302437454, -4.1471798653819755e-11, 2.6723641056273025e-12], [-0.38545556495970473, 3.539824176515541e-12, -1.5765059639860797e-12], [0.38618123062869836, -6.020669033743969e-11, 2.234519653569219e-11]], [[-0.11609382491143586, 0.05301278607398608, -0.2057346996968167], [-0.015037171656629437, 0.007505889012700039, 0.07270346485159365], [-0.15185533815152075, 0.07689553556942717, -0.1592986383354672]], [[-0.11609192973079112, 0.11130014422737158, -0.18096733601141832], [0.015034090568276629, 0.057537140611525754, -0.045071031452454835], [-0.15185434117792465, 0.06129361695043299, -0.16593066503586437]], [[-0.11609192971790488, -0.11130014421188432, 0.18096733600300638], [0.015034090569331795, -0.05753714061556807, 0.04507103145593345], [-0.15185434116760957, -0.061293616929605936, 0.1659306650194935]], [[-0.11609382490695398, -0.05301278608519877, 0.20573469971969374], [-0.015037171655849111, -0.00750588901588659, -0.07270346485181078], [-0.15185533814475893, -0.07689553559966808, 0.1592986383502609]]]" REF_dip_perm="_JSON [[1.0460516138830896e-10, -7.669462891534365e-11, 4.913802681090017e-11], [1.4087469638842302e-10, -6.35325830930188e-11, 4.1949076443217846e-11], [1.3310696577104023e-05, -6.180665206063864e-11, 4.4857551295129863e-11]]" REF_dip_trans="_JSON [[-0.27432017206748077, 3.6908809242984865e-12, -5.54648520581679e-13], [0.0, 0.0, 0.0], [-0.35430986577669715, 4.76708676290872e-12, -7.164252912047789e-13]]" pbc="F F F"
C        0.00000000       0.00000000       0.00000000
C        1.16656339       0.00000000       0.00000000
H       -0.56503637       0.92382805       0.00000000
H        1.73159976       0.64125823       0.66501590
H        1.73159976      -0.64125823      -0.66501590
H       -0.56503637      -0.92382805      -0.00000000
6
Properties=species:S:1:pos:R:3 REF_energy="_JSON [[-2119.192192266176, -2109.799010657583, -2101.731182190758]]" REF_forces="_JSON [[[-38.872080574787184, 3.035170527116213e-08, 3.226197368094411e-08], [-37.40575881636494, 3.9598462664309647e-08, 4.4291321952535535e-08], [-45.137577772517126, 2.128061804795235e-08, 3.4694480790536816e-08]], [[38.87208070559207, 1.7145463598714263e-09, -3.526540051989236e-08], [37.405758965504305, 1.0252393718824422e-09, -4.9696567188376464e-08], [45.137577907654986, -2.9544698063085326e-09, -3.406157989556669e-08]], [[-0.6629523784022254, -0.07057451266049626, -0.8551357376768254], [-1.848294721152365, 0.615811128454552, 2.261876971392472], [-2.673879461672732, 1.137063791859918, 5.802231311653053]], [[0.6629523208558417, -0.21713734517812486, -0.8301140166284513], [1.848294654729473, 0.1695089295288704, 2.3380712762937264], [2.6738793996163395, 0.8523897511345122, 5.850831853659943]], [[0.662952312167744, 0.21713733174608962, 0.8301140265931737], [1.8482946447660875, -0.169508946969877, -2.3380712640274135], [2.6738793938889858, -0.8523897575375416, -5.850831845611412]], [[-0.6629523854287476, 0.07057449402589815, 0.8551357307156711], [-1.8482947274843393, -0.6158111516371625, -2.2618769782536154], [-2.673879466969071, -1.1370638037827208, -5.802231320334281]]]" REF_nacs="_JSON [[[-0.3308156868922256, 1.1323051635083486e-09, -5.003386816586782e-11], [0.28277439232373625, 2.883954934601393e-10, 8.795362135143977e-11], [-0.2798233441314434, -7.418042344838986e-11, 2.555658060571004e-10]], [[-0.3308157102818968, -1.4909990349056762e-09, 8.400837463757371e-11], [-0.28277438446663483, 2.5729829348705254e-11, -2.4509867870307244e-10], [-0.27982331618487144, 2.7982170912023974e-10, -4.0854552449629537e-10]], [[0.1315484005908263, -0.08969279530164444, -0.22272072166208723], [-0.012325500587202245, 0.010430406756860236, -0.026417683442643197], [0.1098108383107767, -0.09271324707621773, -0.19797694225751417]], [[0.1315480752677769, -0.010718497654527205, 0.23986329465090003], [0.012325496673935312, -0.018604382858207504, -0.02146076692942509], [0.10981083874070018, -0.021777539137941195, 0.21752322711773708]], [[0.1315480983301903, 0.010718516808894754, -0.2398632989658629], [0.012325495663460447, 0.018604381843811288, 0.021460766215023387], [0.10981083889041258, 0.021777537848549505, -0.21752322699872026]], [[0.13154837968145625, 0.08969277663028727, 0.2227207258837524], [-0.012325499590960024, -0.010430406056589205, 0.026417684314189803], [0.10981083825858758, 0.0927132482704878, 0.1979769422387322]]]" REF_dip_perm="_JSON [[-1.6262267656241943e-09, -3.5513789566152664e-10, 7.218097574501775e-11], [-1.4977084029838728e-09, 2.113797077413225e-09, -3.7787271698069577e-10], [-1.7343004446240176e-09, 9.629196161473366e-10, -1.4762852059715788e-10]]" REF_dip_trans="_JSON [[0.1169707160089687, -7.987893427315932e-11, 1.7426491675038506e-12], [0.0, 0.0, 0.0], [0.13157721513210244, -8.98536775665304e-11, 1.960356386753833e-12]]" pbc="F F F"
C        0.00000000       0.00000000       0.00000000
C        1.05900042       0.00000000       0.00000000
H       -0.56503637       0.92382805       0.00000000
H        1.62403679      -0.87150040       0.30650502
H        1.62403679       0.87150040      -0.30650502
H       -0.56503637      -0.92382805      -0.00000000
6
Properties=species:S:1:pos:R:3 REF_energy="_JSON [[-2120.5535044382327, -2117.2056612206106, -2117.023899774408]]" REF_forces="_JSON [[[-3.2828498954822005, -1.3763652998746017e-11, -2.3966530099905795e-10], [2.591910843342161, -3.518878013392751e-11, -4.240279741454672e-10], [2.3311254259786405, 3.1207577019654824e-11, -3.7220744036306686e-10]], [[3.2828143366992952, 2.222445839396524e-11, 1.0874856121258996e-11], [-2.591896332141277, 2.366674096978645e-11, -3.527273170680048e-11], [-2.331103313196038, 2.139699820061556e-11, -8.570081304292731e-11]], [[-0.15820736034479826, 0.08284387772406675, 0.44531040046608145], [-0.692117258932729, 0.25174474670509217, -0.09053858944385917], [-0.7094871903951052, 0.28195772594713053, -0.6045558143087332]], [[0.15822513966891932, 0.44911688006382844, 0.05933989390242465], [0.6921100033004901, -0.07718035143812131, 0.2561333498384237], [0.7094761339902929, -0.5888633813111126, 0.31338036556144205]], [[0.15822513985161885, -0.4491168801023728, -0.059339893833734024], [0.6921100034014779, 0.07718035140501374, -0.25613334967078466], [0.709476134095739, 0.5888633812790046, -0.31338036538001013]], [[-0.15820736039281103, -0.08284387769444866, -0.4453104003062997], [-0.6921172589729565, -0.2517447466611099, 0.09053858973560998], [-0.7094871904737861, -0.2819577259677513, 0.6045558145850188]]]" REF_nacs="_JSON [[[-0.05165344514475702, 5.359095505277998e-12, -3.24073723500993e-13], [-0.21565123357108473, 4.523553119868757e-12, 4.2049565655447496e-12], [6.993144547806674, -2.3731680687760915e-11, -6.783815367812601e-11]], [[-0.051777801689101545, -9.396570233914016e-12, 2.4433607594613018e-12], [0.21566601708910826, -7.347801169825184e-12, -3.0898645825040485e-13], [6.993108149247183, 1.6317860318587547e-11, -1.1035271169277623e-10]], [[0.019066257713606295, -0.003630943763410247, 0.21020533800503727], [0.006415231722215207, -0.003522092636918867, -0.8483035180289275], [-3.4959594439926356, 0.5500337410716919, -0.01770215326964806]], [[0.019008200998284475, -0.20972270513032054, 0.014670188352212342], [-0.006422623528427198, -0.847309773972201, 0.041168834162242963], [-3.496013514926094, -0.011231034724421258, -0.550255501497907]], [[0.019008200999014856, 0.20972270513573082, -0.014670188353634626], [-0.006422623527265905, 0.8473097739750487, -0.041168834163303476], [-3.4960135150331655, 0.011231034726929075, 0.5502555016027869]], [[0.019066257719464446, 0.0036309437621384233, -0.21020533800590274], [0.006415231720363049, 0.0035220926368899545, 0.848303518026125], [-3.495959444000686, -0.5500337410665008, 0.017702153342868163]]]" REF_dip_perm="_JSON [[-5.796338464716006e-10, 6.45902103118959e-13, -5.861295097056489e-12], [4.991875556499252e-09, 1.7401923442882345e-13, -5.7932155496996366e-12], [-4.493874708555547e-06, 1.2701936343246417e-13, -6.088435115913756e-12]]" REF_dip_trans="_JSON [[0.06759812665627682, -8.569307149112999e-15, 1.8783076772185656e-13], [0.0, 0.0, 0.0], [-0.7994845916261484, 1.0130050189956428e-13, -2.2215169238562276e-12]]" pbc="F F F"
C        0.00000000       0.00000000       0.00000000
C        1.37292449       0.00000000       0.00000000
H       -0.56503637       0.92382805       0.00000000
H        1.93796086       0.04869999       0.92254354
H        1.93796086      -0.04869999      -0.92254354
H       -0.56503637      -0.92382805      -0.00000000
6
Properties=species:S:1:pos:R:3 REF_energy="_JSON [[-2121.2580994690024, -2115.726627150335, -2114.6216092271425]]" REF_forces="_JSON [[[4.809291140214859, 1.285877037636457e-08, 1.4907260487750323e-08], [7.882250010143818, 8.732432522298217e-09, -1.4940682402092804e-09], [4.8641929182882455, 1.1296319599403162e-09, -1.0396749624811582e-09]], [[-4.8092908051270165, -4.057828266822821e-09, -2.4674754039233218e-08], [-7.8822493273465435, -1.962811547127123e-11, -4.968406463587759e-09], [-4.864192845333573, -2.8934222946472265e-10, -2.788894177006568e-09]], [[0.3292103567329844, 0.08225190279380314, -1.1945882468028666], [-0.19210325894577418, 0.2267040238860924, 0.6910254152116975], [-0.1935809252298678, 0.20341387371422084, 2.185006189328847]], [[-0.3292102095672316, -1.0601428344725794, -0.5566899501626783], [0.19210292768019152, 0.4693572072482544, 0.5555308241407435], [0.19358089628332695, 1.7534496451453674, 1.3194860791530993]], [[-0.32921051275397245, 1.060142801979597, 0.5566899049433157], [0.19210293174972415, -0.4693572072488139, -0.5555308206735541], [0.19358090166998182, -1.753449644123467, -1.3194860778366377]], [[0.32921003049965314, -0.0822518791016056, 1.194588301789352], [-0.19210328328232365, -0.22670403259822625, -0.6910254122163518], [-0.19358094568074838, -0.20341387557670088, -2.1850061868167967]]]" REF_nacs="_JSON [[[-0.2610985803712841, -4.036521217822538e-09, 4.7101238976116685e-09], [0.6117822426685873, 3.331185102911614e-11, -1.2621859802208067e-10], [-1.0403784439421793, 4.335797796406158e-10, 4.7525828347922394e-11]], [[-0.2610987163037743, 2.4191741969890958e-09, 2.976349404338637e-09], [-0.6117822014210004, -7.466986668503385e-11, -8.269930891948489e-13], [-1.0403758691528386, 7.814938524533806e-10, -1.9912913538330155e-10]], [[0.05215333378810343, -0.0024965515309195033, -0.13849900072624474], [-0.01860687636984922, 0.012698357400956805, -0.20474724826199542], [0.48776554542534195, 0.04275668960128483, -0.05710280722464387]], [[0.052153397171290444, 0.11659888091766811, 0.07478582008219378], [0.01860685546192301, -0.18096980604861795, -0.09660544528865175], [0.4877653962817499, 0.07104478833857836, -0.00644246059160166]], [[0.05215354748948199, -0.11659887968287251, -0.07478586030410636], [0.018606855483502906, 0.18096980611191416, 0.09660544529428236], [0.4877653958197384, -0.07104478900808016, 0.006442460602680727]], [[0.05215347757048215, 0.002496551908535897, 0.13849903325378232], [-0.018606876426141495, -0.012698357422898604, 0.20474724838340652], [0.48776554699969926, -0.04275669014885376, 0.057102807361895436]]]" REF_dip_perm="_JSON [[-3.747289825308839e-10, -3.472681498202758e-11, -3.2719821598174185e-11], [-4.70102807130805e-09, -3.0662861574058884e-11, -1.2822689057212702e-11], [3.2070255274769353e-09, -3.041511031609358e-11, -1.3829308664155767e-11]]" REF_dip_trans="_JSON [[0.4792323864384935, 2.021530314774118e-12, 3.6075543946775544e-12], [0.0, 0.0, 0.0], [1.1587367926292602, 4.887848357342904e-12, 8.722756051594343e-12]]" pbc="F F F"
C        0.00000000       0.00000000       0.00000000
C        1.58445405       0.00000000       0.00000000
H       -0.56503637       0.92382805       0.00000000
H        2.14949042      -0.48466525       0.78648450
H        2.14949042       0.48466525      -0.78648450
H       -0.56503637      -0.92382805      -0.00000000
6
Properties=species:S:1:pos:R:3 REF_energy="_JSON [[-2122.8291322421737, -2115.4799885896873, -2111.0650195760254]]" REF_forces="_JSON [[[-5.6691932064409185, 1.1123136249291848e-09, -8.126104497567064e-10], [-5.715083358115577, 1.309819495843411e-09, -1.6094270670138398e-09], [-14.043743468509348, 1.1882325990378088e-09, -8.807764427895555e-10]], [[5.669246736024459, -7.665965025715095e-10, 9.967722414225113e-10], [5.7149541359867735, -9.51492542917874e-10, 2.003022644327276e-09], [14.043656873566437, -7.583382080736948e-10, 1.1637951441503559e-09]], [[-0.14793973052678752, 0.008324307762060928, 1.3693218590440461], [-0.9407305310731161, 0.2479709110323428, -1.6526170044842112], [-1.0902487392852607, 0.25086808586710646, -4.207869754762241]], [[0.14791296575950785, 0.8056550106835285, -1.1071915832761507], [0.9407951420964672, -0.7625678575422603, 1.4869858278982797], [1.0902920367808537, -2.2511221452396577, 3.5638750195964883]], [[0.14791296561400857, -0.8056550103874351, 1.1071915828622803], [0.9407951420758932, 0.7625678577502317, -1.486985828459135], [1.0902920366951745, 2.251122145498892, -3.5638750201013756]], [[-0.14793973043076195, -0.00832430840343243, -1.3693218588142975], [-0.9407305309722619, -0.2479709115991775, 1.6526170046516055], [-1.090248739246329, -0.25086808655627374, 4.207869754984256]]]" REF_nacs="_JSON [[[-0.36198204670767214, -4.379002950026453e-12, 1.519007210282119e-11], [-0.4679359862156714, -3.787279323961923e-12, 8.957368429808659e-12], [0.33965988354402255, 1.9674555124082492e-11, -2.596961874937596e-12]], [[-0.3620609354499472, -4.827183325636842e-12, -1.6140541471403837e-11], [0.467930949372293, 5.044633677161376e-13, -1.4234461809761128e-11], [0.3396984111582981, -1.535796835422791e-11, -1.7618756546724905e-11]], [[0.07798137987558816, -0.0302062399355191, 0.18332237657731726], [0.022240784347265882, -0.012928572554630176, -0.043430374188710937], [-0.09356609928609715, 0.03661183439270248, -0.1357561015479227]], [[0.07798799149673823, -0.08240633783393284, 0.16651793552090696], [-0.022238265914609492, -0.03584673687379665, 0.02771418790273281], [-0.09350761954778902, 0.04948024900071339, -0.1315794853500735]], [[0.0779879914924323, 0.08240633782616359, -0.16651793552196897], [-0.022238265916575756, 0.03584673687441875, -0.027714187895807534], [-0.09350761955422203, -0.04948024897651204, 0.13157948537176342]], [[0.07798137986823712, 0.030206239945732315, -0.18332237657637315], [0.022240784347747195, 0.012928572557290892, 0.04343037418706423], [-0.09356609927998125, -0.03661183441620557, 0.1357561015472477]]]" REF_dip_perm="_JSON [[1.315309346594458e-10, -9.258818440531957e-12, 2.8926520824957506e-12], [1.0436573790372065e-10, 6.9728446485495665e-12, 1.0228587650281864e-11], [-1.8283834643505058e-05, 2.6394877718354057e-12, 7.630530550996959e-12]]" REF_dip_trans="_JSON [[0.4686531211541413, 4.396143624421101e-12, 3.8610076032941615e-13], [0.0, 0.0, 0.0], [-0.6327885579030142, -5.9358172312044145e-12, -5.212268468605579e-13]]" pbc="F F F"
C        0.00000000       0.00000000       0.00000000
C        1.27125894       0.00000000       0.00000000
H       -0.56503637       0.92382805       0.00000000
H        1.83629531       0.75032676       0.53895085
H        1.83629531      -0.75032676      -0.53895085
H       -0.56503637      -0.92382805      -0.00000000
6
Properties=species:S:1:pos:R:3 REF_energy="_JSON [[-2123.4199183720348, -2114.2547254564506, -2108.430135352895]]" REF_forces="_JSON [[[-6.498785563261031, -1.2551621206807715e-09, 1.6772734067009318e-09], [-8.227626863084268, -3.0698121227023396e-09, 3.1929791290368515e-09], [-21.03726451392813, 1.698333546894326e-09, 2.0136680117525127e-08]], [[6.498786455329817, 5.2871363343772045e-09, -3.680343928090564e-09], [8.22762821960745, 2.0282305150032327e-09, -4.811484788142675e-09], [21.03726451221634, -9.676622915007892e-10, -2.943339274136385e-08]], [[-0.0612841694508312, -0.05317932326240878, -0.7641432940064862], [-0.8430616015499305, 0.16278766018812607, 2.0618820889718688], [-0.770231517096491, -0.017930970598509236, 3.60945719521706]], [[0.06128372248155737, -0.1688770415784839, -0.7471434653520461], [0.8430609210046093, 0.43719971426796866, 2.0215622965725863], [0.770231515356831, 1.055445501153956, 3.451744145991245]], [[0.061283725638381206, 0.16887703964592024, 0.7471434673224214], [0.8430609254112131, -0.437199713645574, -2.0215622947250322], [0.770231521639286, -1.0554454990091056, -3.4517441409382403]], [[-0.061284170736965474, 0.053179321163462336, 0.7641432940390311], [-0.8430616013896223, -0.16278765976979367, -2.0618820892009078], [-0.7702315181879912, 0.017930967722750754, -3.6094571909735262]]]" REF_nacs="_JSON [[[0.44814836272909125, -1.9440537001793453e-11, -2.6657951385938655e-11], [0.5173191700507174, 6.465151958909117e-11, 8.600689823713548e-11], [0.3369349856026608, -5.970823664798289e-11, 7.38224697442168e-11]], [[0.4481476808130227, 3.8627286791912575e-11, 6.99346091170759e-11], [-0.5173191703869923, -4.498721873614295e-11, -1.42035156566726e-10], [0.33693488496701746, 2.226661749054625e-11, -1.1339732965562977e-10]], [[-0.055820701403079494, 0.02608178140943394, 0.16815744393130047], [-0.02962796831735579, 0.018524866607232196, 0.01635834979295038], [-0.04043538988649598, 0.020439984054477885, 0.12796346680698198]], [[-0.05582076081340343, -0.02339160083279012, -0.168552714871005], [0.029627968473004408, -0.013036372774104268, 0.020995698696471377], [-0.04043544213771967, -0.01723302517140665, -0.1284346499117775]], [[-0.0558207608580295, 0.02339160082422985, 0.16855271488012538], [0.02962796845161384, 0.013036372781179062, -0.020995698618306448], [-0.0404354421667676, 0.01723302521123816, 0.12843465000399462]], [[-0.055820701407136734, -0.026081781424865818, -0.16815744394932863], [-0.029627968314203917, -0.018524866633972917, -0.016358349815086878], [-0.04043538989825273, -0.020439984060525957, -0.1279634668334506]]]" REF_dip_perm="_JSON [[5.795089298709459e-10, -8.478714269442884e-12, -2.9320008117020047e-12], [5.518815416927979e-10, 2.752537295427977e-11, -8.787674661729028e-12], [7.288259065202875e-10, 1.0042670109640672e-11, -3.4002298698229882e-12]]" REF_dip_trans="_JSON [[-0.6057644249867259, 5.455348560328691e-12, -1.4473511175005166e-11], [0.0, 0.0, 0.0], [-0.7960651278680664, 7.1690851466637735e-12, -1.9020305698573845e-11]]" pbc="F F F"
C        0.00000000       0.00000000       0.00000000
C        1.26205316       0.00000000       0.00000000
H       -0.56503637       0.92382805       0.00000000
H        1.82708953      -0.88478207       0.26574226
H        1.82708953       0.88478207      -0.26574226
H       -0.56503637      -0.92382805      -0.00000000
6
Properties=species:S:1:pos:R:3 REF_energy="_JSON [[-2120.500812854563, -2116.136174836833, -2115.9767827826263]]" REF_forces="_JSON [[[2.7078194554978188, 2.0621811257797504e-10, -2.5454860410091524e-11], [8.374281288581573, -2.639325882195542e-09, 1.0400854861320119e-10], [8.05925289480591, -8.92478612881325e-10, 9.723015374269064e-11]], [[-2.7078608355144405, 6.393241175473737e-11, 1.104173598562474e-10], [-8.374410973640979, 9.405169046197434e-11, -1.2450306743301897e-09], [-8.059404893068589, -4.001399499274301e-11, -1.0043202012771635e-09]], [[0.2787137836586864, 0.07107262088528542, 0.39423120988441857], [-0.2442482500171862, 0.24643937486040202, -0.13143708191022363], [-0.24940987145862237, 0.26210717286828766, -0.5937734383847076]], [[-0.2786930937116001, 0.39924871155269503, 0.03208660940940228], [0.24431309213298685, -0.10647669909159313, 0.25840964687125423], [0.24948587053065185, -0.5650790856985561, 0.3194422941361857]], [[-0.2786930935936749, -0.39924871164720466, -0.032086609526733596], [0.24431309161693912, 0.10647669933800767, -0.25840964583593934], [0.249485870137759, 0.5650790858670148, -0.3194422933263303]], [[0.2787137836631853, -0.07107262106073442, -0.39423120985221854], [-0.24424824867411069, -0.24643937256090953, 0.13143708201562707], [-0.24940987094628525, -0.26210717210508644, 0.5937734384821833]]]" REF_nacs="_JSON [[[0.06158826657100539, -1.6106988517790907e-12, -8.264960851082731e-12], [0.22825962389637838, -8.213205192706402e-14, 6.793075075509308e-12], [7.67290386197705, -5.16706024658076e-11, -2.5716528149916665e-11]], [[0.061584821440285084, 5.547487000901926e-13, 1.7156806201973075e-11], [-0.22824777645533434, -2.8705178958215793e-12, -2.0331323057979694e-12], [7.6738966461753355, 9.283841036741923e-11, 3.067566408102627e-11]], [[-0.016281610500933155, 0.00037200168507428, -0.15916201887836873], [-0.006356876702309045, 0.004469474671906102, 0.5148446556513429], [-3.835685891131975, -0.25669043418353443, -0.01541188108673846]], [[-0.01625375385855998, 0.15835722816857906, -0.015990089816762934], [0.00635095318636398, 0.5127998413449822, -0.046145719377768825], [-3.8349046312803097, 0.04017994536350119, 0.25477448980506295]], [[-0.01625375386424244, -0.15835722816910347, 0.015990089811759957], [0.0063509531895909336, -0.5127998413427542, 0.04614571937393816], [-3.8349046313148345, -0.0401799454406177, -0.25477448981607437]], [[-0.016281610502587984, -0.0003720016854554226, 0.15916201887866713], [-0.006356876700767596, -0.004469474671201347, -0.5148446556522728], [-3.835685891045728, 0.25669043421921056, 0.015411881093039771]]]" REF_dip_perm="_JSON [[6.196904364148985e-11, 1.2220799236391108e-11, 4.754534015255178e-12], [1.669198076249437e-08, 1.2004485322923921e-11, 4.001078718972458e-12], [2.2701510225661192e-05, 1.2713387031639771e-11, 4.125995319627234e-12]]" REF_dip_trans="_JSON [[-0.11291644862320832, -5.26856794425202e-13, 9.195458676480996e-14], [0.0, 0.0, 0.0], [-1.1674979669463414, -5.447549440763958e-12, 9.506854540651198e-13]]" pbc="F F F"
C        0.00000000       0.00000000       0.00000000
C        1.57712256       0.00000000       0.00000000
H       -0.56503637       0.92382805       0.00000000
H        2.14215893       0.09074057       0.91936087
H        2.14215893      -0.09074057      -0.91936087
H       -0.56503637      -0.92382805      -0.00000000
6
Properties=species:S:1:pos:R:3 REF_energy="_JSON [[-2121.4606596659983, -2116.937647844127, -2115.6929987752583]]" REF_forces="_JSON [[[-0.6776116883397796, 2.1585424043573096e-10, -5.583587730238997e-10], [2.7216242209269303, -1.3964666428764308e-10, -5.259961948994348e-10], [-0.3149388007128279, -7.653274584032577e-11, -5.402466654360585e-10]], [[0.6776643279962586, -8.0357913608047e-10, 2.2074748084209694e-09], [-2.7216606642850842, -7.583823860739039e-10, 2.21142820029459e-09], [0.3149119108030826, -7.552024075435301e-10, 2.1031021877317235e-09]], [[-0.08249880358331368, 0.0753519201354165, -1.7651536125469902], [-0.6659638595500968, 0.24252464380073546, 0.6826733098450013], [-0.7087926685415608, 0.2538715950883313, 2.937523849900692]], [[0.08247248319984077, -1.6498206162846447, -0.6320511980180356], [0.6659820805665668, 0.5301456757758424, 0.49379758960168807], [0.7088061128721685, 2.5950184729261427, 1.3997906850248711]], [[0.08247248450866247, 1.6498206170939202, 0.6320511961690524], [0.665982081943439, -0.5301456749285609, -0.49379759148983593], [0.7088061141676292, -2.5950184721227916, -1.3997906868056584]], [[-0.08249880378197513, -0.07535192035708572, 1.7651536127473357], [-0.6659638595994825, -0.2425246437498338, -0.6826733096427943], [-0.7087926685885709, -0.2538715950597864, -2.9375238496830485]]]" REF_nacs="_JSON [[[0.24944029055667816, 1.3557777773680156e-11, 2.928878097646454e-11], [0.6536874668019775, -1.5162244730750561e-12, -1.0439455735314877e-13], [0.8997879110178452, 2.032814309307095e-11, 7.475800617897067e-11]], [[0.2494285983961911, -9.573305312902168e-12, -2.02976455995211e-11], [-0.6536946459622742, 6.603132529607317e-12, -5.122525098480223e-13], [0.8998074910670766, -1.2590199575187426e-12, -9.42295856401153e-11]], [[-0.07482888224559424, 0.015282155816842436, 0.18611072159077924], [-0.021574364960592663, 0.012170690020788355, -0.2989789524117589], [-0.42597705195928903, 0.06269814072707705, 0.08923081818370314]], [[-0.07483031041122575, -0.16473075267997636, -0.08794740276958835], [0.02157795454764853, -0.2792259706847975, -0.10756651452900225], [-0.4259685657603592, -0.056988434179393845, -0.0929675873471436]], [[-0.07483031039575475, 0.16473075267565024, 0.08794740276163979], [0.021577954554959314, 0.27922597068008825, 0.10756651452497788], [-0.42596856574937986, 0.05698843416707926, 0.09296758738684599]], [[-0.0748288822446664, -0.015282155817847467, -0.18611072159329786], [-0.021574364958163988, -0.012170690021184991, 0.298978952416402], [-0.4259770519525276, -0.06269814073446589, -0.08923081820464149]]]" REF_dip_perm="_JSON [[-5.307498167486984e-10, -4.96210376667653e-12, -3.0556682463502326e-11], [-3.6619301481947424e-10, -2.816661150430762e-12, -2.4750142476399513e-11], [4.067909100322763e-06, -3.824738117714799e-12, -2.4925025717316195e-11]]" REF_dip_trans="_JSON [[-0.36944804776448675, 3.2743106979375846e-13, -8.024359822661702e-13], [0.0, 0.0, 0.0], [-0.7703274194588865, 6.82665801335978e-13, -1.6730665765653015e-12]]" pbc="F F F"
C        0.00000000       0.00000000       0.00000000
C        1.38154691       0.00000000       0.00000000
H       -0.56503637       0.92382805       0.00000000
H        1.94658328      -0.36693324       0.84783151
H        1.94658328       0.36693324      -0.84783151
H       -0.56503637      -0.92382805      -0.00000000
6
Properties=species:S:1:pos:R:3 REF_energy="_JSON [[-2118.392688274775, -2111.675405250898, -2106.567689316056]]" REF_forces="_JSON [[[-37.19824841245386, 1.1915530717017516e-09, 1.1826085209527296e-09], [-36.00688118150722, 6.829655263537908e-10, 1.216692067845107e-09], [-40.52040607929991, 1.7038628213009259e-09, 1.8447854083700133e-09]], [[37.19824905188448, -1.6507718655961197e-09, 5.813473977966664e-11], [36.00689155815018, -1.8744640494688303e-09, -2.682011719138489e-10], [40.52039702395627, -2.844644695384516e-09, -1.9225247036048342e-10]], [[-0.7927698101880821, 0.05711910208861478, 1.94098438521398], [-1.7178611648307034, 0.49926017117521365, -1.6166049975733734], [-2.373175266565526, 0.9245402987783012, -5.378836087966033]], [[0.7927694902564101, 1.3887264874473781, -1.3572202640185282], [1.717855976597583, -0.7631663515804317, 1.5100508255017424], [2.373179794103621, -3.069284242591573, 4.512885254266416]], [[0.79276949118066, -1.388726487509388, 1.357220263384124], [1.7178559770323205, 0.763166351995454, -1.5100508257254182], [2.3731797948804076, 3.069284242901823, -4.5128852550730425]], [[-0.7927698106761649, -0.057119101567543136, -1.9409843858202152], [-1.7178611654421938, -0.49926017039785386, 1.6166049968490217], [-2.373175267073561, -0.9245402979481228, 5.378836087119678]]]" REF_nacs="_JSON [[[0.3470611329881225, 1.2795012705327874e-10, -1.4114602445181882e-10], [0.2662597574975646, 4.771029889497145e-13, -5.203092254304929e-13], [0.39179765868324407, 1.9277157797838356e-10, -1.7660374379620268e-10]], [[0.34704042512770783, -4.787508933454949e-11, 1.7053199720814138e-10], [-0.26625838421056447, 8.525493794323297e-12, -6.0446924361117025e-12], [0.39179288942818236, -7.561277132387732e-11, 2.3236192623984844e-10]], [[-0.15161981723653634, 0.0858423087111542, -0.21452423262969583], [-0.007054581729730928, 0.002724824864426156, 0.05966824437707151], [-0.17769566299684178, 0.1114013775141084, -0.1783808412309862]], [[-0.15164329812294708, 0.08716412571467426, -0.21399839517941616], [0.007053895108022932, 0.043389276241725415, -0.041049507576080606], [-0.17769348598369966, 0.04368481200485808, -0.20572290001894256]], [[-0.15164329807496787, -0.08716412571055333, 0.21399839507258617], [0.0070538951066361185, -0.04338927624592155, 0.041049507585325336], [-0.1776934859470252, -0.04368481200550343, 0.20572289990480308]], [[-0.15161981725889598, -0.08584230880233594, 0.21452423270405468], [-0.007054581729780268, -0.0027248248692315785, -0.059668244379750955], [-0.17769566302540404, -0.11140137763643755, 0.1783808412868091]]]" REF_dip_perm="_JSON [[-3.762904400390686e-09, -1.8532626873142485e-10, 3.138321397116809e-10], [-3.002995079740802e-09, -1.376018814512679e-10, 2.393402068545498e-10], [6.957021879133294e-06, -1.385554115029327e-10, 2.5843162732128796e-10]]" REF_dip_trans="_JSON [[-0.10268201161375304, 2.3464409891863016e-11, 8.815434931144909e-13], [0.0, 0.0, 0.0], [-0.12350134435308091, 2.8221626600193463e-11, 1.06041665117611e-12]]" pbc="F F F"
C        0.00000000       0.00000000       0.00000000
C        1.06691527       0.00000000       0.00000000
H       -0.56503637       0.92382805       0.00000000
H        1.63195164       0.66483731       0.64144339
H        1.63195164      -0.66483731      -0.64144339
H       -0.56503637      -0.92382805      -0.00000000
6
Properties=species:S:1:pos:R:3 REF_energy="_JSON [[-2119.060403169838, -2115.3476637011586, -2113.7553282223244]]" REF_forces="_JSON [[[-20.62709008746781, -1.0693419919807257e-10, -2.2369771549675377e-10], [-17.892605530028103, -2.4410634922827277e-10, -5.100551334460482e-10], [-20.563662570046606, 1.879475404021809e-10, -3.2619960137595363e-10]], [[20.62709016283276, -1.2145578846365049e-10, 1.4204020408520694e-10], [17.892606043386426, -2.5722900860857476e-10, 4.80205716389596e-10], [20.563662510830135, -2.9344060337964327e-10, 2.984292269874002e-10]], [[-0.7570614981595882, 0.180591451351487, -2.568142398722465], [-1.3077606077956532, 0.3443781677238474, 0.6885313065490885], [-1.4727046271109947, 0.46040289217230834, 3.952302396918558]], [[0.7570614604371568, -2.4830767704955066, -0.6799252343582172], [1.3077603510123312, 0.5356675219026749, 0.5529302226131552], [1.4727046566966349, 3.576922923056527, 1.7430682301511935]], [[0.757061460397135, 2.4830767705305714, 0.679925234340749], [1.3077603509425308, -0.5356675218333014, -0.5529302226970348], [1.4727046566711397, -3.576922923019621, -1.7430682302201455]], [[-0.7570614980386692, -0.1805914511578608, 2.5681423988215766], [-1.3077606075176809, -0.3443781672919278, -0.6885313064357234], [-1.4727046270409117, -0.4604028921035725, -3.9523023968216426]]]" REF_nacs="_JSON [[[0.3488576864324631, -3.813768528500085e-11, 1.5647480442256472e-11], [0.5507445260443086, 2.58242817476176e-12, 7.127472348282984e-13], [1.026790439251506, -2.4780420329313463e-11, 5.490177122494868e-11]], [[0.3488574943326165, -2.8406881424023026e-11, 2.307024538253291e-11], [-0.5507444463219033, -5.3994017884144235e-12, 3.2392766785233294e-12], [1.0267905898468723, 5.3371884872523205e-12, -3.085541247049235e-11]], [[-0.15296152014055084, 0.06251772556993494, 0.22451103804705505], [-0.01396819231082406, 0.003147700108526664, -0.33008272276582884], [-0.5006546048022048, 0.2117064716511718, 0.13325205085363145]], [[-0.15296147356348835, -0.19114712830425062, -0.13332843416923726], [0.013968152500899748, -0.3125060263337082, -0.1063225774763818], [-0.5006544964706292, -0.05563825834289512, -0.24388540181414914]], [[-0.15296147353472275, 0.19114712834037276, 0.13332843415302778], [0.01396815249997312, 0.3125060263372307, 0.10632257747360956], [-0.5006544964720899, 0.055638258346018835, 0.24388540181793422]], [[-0.15296152013407815, -0.06251772553735777, -0.22451103807123976], [-0.013968192307568534, -0.0031477001092358025, 0.33008272276466666], [-0.5006546048055497, -0.2117064716335992, -0.13325205088242445]]]" REF_dip_perm="_JSON [[-8.991288720796312e-10, -8.235751481169345e-12, -2.768151870509824e-11], [-2.7210999509298584e-10, -1.5385977702648693e-11, -2.7927188019719297e-11], [-1.8188065249669731e-09, -1.605511429348944e-11, -2.847057523256757e-11]]" REF_dip_trans="_JSON [[-0.18525742763118797, 4.818273111384037e-13, -3.4139752590565195e-12], [0.0, 0.0, 0.0], [-0.3121472444790142, 8.118434036681084e-13, -5.752508446262583e-12]]" pbc="F F F"
C        0.00000000       0.00000000       0.00000000
C        1.15793946       0.00000000       0.00000000
H       -0.56503637       0.92382805       0.00000000
H        1.72297583      -0.30588597       0.87171787
H        1.72297583       0.30588597      -0.87171787
H       -0.56503637      -0.92382805      -0.00000000
6
Properties=species:S:1:pos:R:3 REF_energy="_JSON [[-2123.862928444155, -2114.4261906584084, -2110.0545168647086]]" REF_forces="_JSON [[[3.040787675383162, 5.891209899249501e-06, -1.4554045490066583e-07], [-2.7489243844396962, 5.9106170457967655e-06, -3.875716720274507e-07], [-12.893600056588397, 5.940553997337075e-06, -2.1001023706967261e-07]], [[-3.0408354404166316, -6.195796922172522e-06, 2.3296360639145283e-07], [2.748810936076937, -6.233064028561088e-06, 6.03177210702688e-07], [12.893525833532165, -6.2794833260432e-06, 3.496644313122607e-07]], [[0.10171874765266137, 0.019572127952150572, 0.2506506576264821], [0.07127198164047355, -0.09031146673064512, -0.5001640403139797], [0.09208207820015372, -0.2545160531342119, -0.5459513588717011]], [[-0.10169448579947574, 0.0326514401664347, -0.2492464210695907], [-0.0712148613824961, -0.11619983644376145, 0.49470641363667117], [-0.09204457039498651, -0.2825313939936722, 0.5319403263604309]], [[-0.10169487448683935, -0.03265180035897642, 0.2492463648193936], [-0.07121527705613687, 0.11619952106926106, -0.4947065331653507], [-0.09204499031723982, 0.28253107241020503, -0.5319404048747025]], [[0.10171837766704434, -0.019571463172531087, -0.2506506887994365], [0.07127160516056517, 0.0903121045514477, 0.5001639442370986], [0.09208170556758373, 0.2545167136480463, 0.5459512977317683]]]" REF_nacs="_JSON [[[-0.5213045811937026, 9.583091671968316e-09, -7.117397854784672e-09], [0.38387813908031626, 9.749699628169566e-10, -1.566603853771789e-08], [-0.43705876038870284, 3.171387733011275e-08, -2.759485906255389e-08]], [[-0.5212749426074391, -2.2761637393470047e-08, 7.755599298978359e-09], [-0.38388873483887137, -5.769238837935076e-10, 2.413195729910196e-08], [-0.43706041043275723, -5.7156332509306306e-08, 3.153565487659455e-08]], [[0.019956883109558305, -0.009999899401034249, 0.028532029502540118], [-0.0012644596639151309, 0.006775817105363411, -0.020822270370436487], [0.06425865954194251, -0.0016143292321016882, 0.018274213952244593]], [[0.019948896244655342, 0.008492272917664438, 0.029033098191155557], [0.0012697573670999525, 0.005688622382105931, 0.021147487552674798], [0.06424459997747833, 0.0006452911884177803, 0.0183442254114153]], [[0.019948896163467227, -0.008492265175950569, -0.029033099706799625], [0.0012697570378164657, -0.00568862129400845, -0.021147491432100173], [0.06424460255276233, -0.0006452744603431121, -0.018344223465963268]], [[0.019956876417362896, 0.009999904502971873, -0.028532026587114116], [-0.0012644589400962242, -0.006775818591507002, 0.020822265783942678], [0.06425863379422167, 0.0016143377318179764, -0.01827421853219016]]]" REF_dip_perm="_JSON [[3.5588739526545526e-10, -1.2912629009684138e-08, 1.2534548098369019e-09], [4.726011391439004e-10, -1.2585972098971903e-08, 9.251739833161519e-10], [-8.779138694017619e-06, -1.2484997846775957e-08, 9.069777984874398e-10]]" REF_dip_trans="_JSON [[0.8086352721208372, 6.255695911895397e-10, -6.797206655705849e-10], [0.0, 0.0, 0.0], [1.261565629751856, 9.759617516973206e-10, -1.0604437767999236e-09]]" pbc="F F F"
C        0.00000000       0.00000000       0.00000000
C        1.40628037       0.00000000       0.00000000
H       -0.56503637       0.92382805       0.00000000
H        1.97131674       0.92256519       0.04828799
H        1.97131674      -0.92256519      -0.04828799
H       -0.56503637      -0.92382805      -0.00000000
6
Properties=species:S:1:pos:R:3 REF_energy="_JSON [[-2122.823936500126, -2115.4588292880285, -2112.5204053191624]]" REF_forces="_JSON [[[4.704015918696868, 1.9726349353680373e-08, 4.8120144690146414e-09], [4.420994385907243, 1.3796516619875975e-08, -2.193500260845381e-09], [-2.7127482276154944, 1.307036001775468e-08, 6.214298114943412e-09]], [[-4.703581822294515, 1.191550485370009e-08, -1.0982921562402e-08], [-4.420956437423422, 4.454589311539228e-09, -3.271482756743698e-09], [2.7127559929033382, 1.439805523437972e-09, -8.880073305669967e-09]], [[0.26599861208508696, 0.03718402872223336, -1.0538866763519519], [-0.26426518719210307, 0.1533771118189765, 1.2530400891258628], [-0.24067611351032722, 0.06287819789096963, 2.6741950461805715]], [[-0.26621568082433333, -0.5847873796312152, -0.8772469561932917], [0.26424618796954147, 0.5275883888942381, 1.1467125846289241], [0.24067199995596683, 1.3510375847524956, 2.308777067277834]], [[-0.2662156713407656, 0.5847873627716832, 0.8772469698357924], [0.2642462016395961, -0.5275883988784957, -1.146712576020248], [0.2406722198580201, -1.3510376021207924, -2.3087770915722]], [[0.2659986436750414, -0.037184043504263374, 1.0538866688806086], [-0.26426515089795866, -0.15337712008674503, -1.2530400922694789], [-0.2406758715911754, -0.06287819503281801, -2.674195019220367]]]" REF_nacs="_JSON [[[0.38969864914452923, -2.746361021129611e-09, 3.1389015416029123e-10], [0.5494053052955015, 3.9471349645033894e-11, -2.8972252121600535e-10], [0.43604959618248357, -1.6352625492098757e-08, 3.9036750087193423e-10]], [[0.3896497165661206, -4.229825744063411e-09, -6.26390286857802e-10], [-0.5494093049488024, -1.6321644922029853e-10, 5.83624033220576e-11], [0.4362012228281974, -2.2869292067039228e-08, -2.535460251068509e-09]], [[-0.04922216374235735, 0.009611360917461958, 0.12728999948656003], [-0.02067786080080843, 0.013603242389726898, -0.03769557628630886], [-0.13065400729416501, -0.0016963867229238376, 0.07635832439336274]], [[-0.04922709568228881, -0.058670816740704464, -0.11338485958013546], [0.02067987151497839, -0.03137239638418641, -0.024957584662132343], [-0.13071643987015805, -0.04150716888423322, -0.0640401610175038]], [[-0.04922702508318693, 0.05867082326007742, 0.11338483061934918], [0.02067986052803775, 0.03137239708509131, 0.024957586756001994], [-0.13071587852429495, 0.041507203929962766, 0.06404005616876128]], [[-0.04922209025422667, -0.009611360476915284, -0.1272899702090885], [-0.020677871739756073, -0.013603242966886824, 0.03769557442380386], [-0.13065343845724803, 0.0016963908893521528, -0.07635821739702035]]]" REF_dip_perm="_JSON [[-1.0429078794332779e-10, 3.8101645143050756e-11, -6.061161658104129e-12], [-5.474678218029959e-10, 3.274896880499363e-11, -3.690869160679765e-11], [-1.2685072602158023e-05, 3.4699749718552376e-11, -2.6132552856979026e-11]]" REF_dip_trans="_JSON [[-0.6561782064852524, 2.4079659522009864e-11, -6.067767145316739e-12], [0.0, 0.0, 0.0], [-1.0935018687349825, 4.012807076285495e-11, -1.0111731080363408e-11]]" pbc="F F F"
C        0.00000000       0.00000000       0.00000000
C        1.48624195       0.00000000       0.00000000
H       -0.56503637       0.92382805       0.00000000
H        2.05127832      -0.78617494       0.48516722
H        2.05127832       0.78617494      -0.48516722
H       -0.56503637      -0.92382805      -0.00000000
6
Properties=species:S:1:pos:R:3 REF_energy="_JSON [[-2121.537935376372, -2116.0353128412817, -2113.0873776766584]]" REF_forces="_JSON [[[-9.53353741878905, -8.137476737671832e-10, -1.1869204739892413e-12], [-8.035920645558022, -1.4736264473101566e-09, 1.874254002646383e-10], [-13.212769395571089, -6.870627046055014e-10, 1.1201626815825113e-11]], [[9.533611868418676, 1.2210833421364456e-10, 5.590503501280728e-10], [8.03597192545369, -1.6338508922407366e-10, -4.395367242975305e-11], [13.212850709354324, 7.96858332958675e-12, 6.914109710182835e-10]], [[-0.36469024682289625, 0.07512601187355272, 2.020160786976026], [-1.0724875796832092, 0.29419933689312516, -1.1767096008436961], [-1.2708434357378207, 0.37751724422337035, -4.233566223373936]], [[0.3646530222856221, 1.6839633622511385, -1.1185195574318145], [1.0724619400037778, -0.7836671657092903, 0.9257642097384997], [1.2708027790925351, -3.2168918561094113, 2.7779189224466774]], [[0.3646530222810316, -1.6839633621067505, 1.1185195571871482], [1.0724619397429909, 0.783667166172634, -0.9257642095680972], [1.2708027791538148, 3.2168918562288904, -2.77791892282338]], [[-0.3646902473737685, -0.07512601132637925, -2.020160787289232], [-1.0724875799602198, -0.29419933571926427, 1.1767096005297593], [-1.270843436293976, -0.37751724366343187, 4.233566223048075]]]" REF_nacs="_JSON [[[0.32000309909838537, -3.301154393455216e-11, 1.1010951360008497e-11], [0.48781221354130005, -2.5154710906182332e-12, -3.836255588411528e-12], [0.465181777441465, 6.501705740546293e-11, -5.4473622474913707e-11]], [[0.31997161092719173, -3.168994730536847e-11, -4.2872116567587707e-11], [-0.48782674248100216, 8.006879221252105e-12, 2.2754256518810992e-12], [0.46513207055566963, -3.2794664367254254e-11, 6.311382534105527e-11]], [[-0.10418430969282955, 0.03812975007465604, -0.19944136861753692], [-0.01813137702545532, 0.00885208819644984, 0.12416631831401606], [-0.19396780340741426, 0.07230638595266826, -0.13790462853118787]], [[-0.104188179558207, 0.13966790647464086, -0.14739471009121177], [0.018138641511312434, 0.10600698637943477, -0.06527437703190359], [-0.1940001147867928, 0.06974219095458851, -0.13923785501736963]], [[-0.10418817960519089, -0.1396679064516529, 0.14739471012484665], [0.018138641512710076, -0.10600698638268152, 0.06527437703311546], [-0.19400011478362372, -0.06974219095327344, 0.13923785498878488]], [[-0.1041843096331435, -0.038129750033198094, 0.19944136861534675], [-0.01813137702703524, -0.008852088198694779, -0.12416631831366946], [-0.1939678034096347, -0.07230638598638361, 0.13790462855083893]]]" REF_dip_perm="_JSON [[-8.080854896357425e-10, -4.752452071910932e-11, 6.92037967627456e-11], [-7.909510959125958e-10, -3.6798348609552606e-11, 5.4159674157222144e-11], [-1.9340837279378884e-05, -3.8026695182657895e-11, 5.693698657844666e-11]]" REF_dip_trans="_JSON [[-0.33664469856352996, 3.03721949521022e-12, 1.888460492347532e-12], [0.0, 0.0, 0.0], [-0.4867863302639131, 4.391748352594967e-12, 2.730729299577512e-12]]" pbc="F F F"
C        0.00000000       0.00000000       0.00000000
C        1.23717612       0.00000000       0.00000000
H       -0.56503637       0.92382805       0.00000000
H        1.80221249       0.53933985       0.75004720
H        1.80221249      -0.53933985      -0.75004720
H       -0.56503637      -0.92382805      -0.00000000
6
Properties=species:S:1:pos:R:3 REF_energy="_JSON [[-2121.721616857972, -2115.566379842265, -2111.886698670125]]" REF_forces="_JSON [[[-11.21041489953722, -8.852854570293515e-11, 1.1202569749468029e-10], [-10.250840537935622, -3.5932500563208186e-10, 2.4330992847059736e-11], [-16.311375175679167, -9.33753051434173e-11, 1.2999618375843866e-10]], [[11.210518164061455, 2.7051442952985735e-11, -7.049802143050778e-11], [10.250882570355525, -8.877800636350429e-11, 2.078901099345693e-10], [16.311434962724164, -4.832775037240186e-13, -6.925285302887925e-11]], [[-0.36569207946061066, 0.054755685342210245, -1.8634868040611174], [-1.1363283391801946, 0.30599431410775757, 1.3856402642371208], [-1.3867897242186713, 0.40823293448553566, 4.482215444692862]], [[0.3656404472829824, -1.4227413535192186, -1.2048750570854663], [1.136307322949884, 0.82615009116326, 1.1537134151598032], [1.3867598307713715, 3.060926481392306, 3.299638089870954]], [[0.36564044722735345, 1.4227413534846527, 1.2048750570459845], [1.1363073230128296, -0.8261500910331313, -1.1537134153858186], [1.3867598307235849, -3.060926481407789, -3.2996380899226283]], [[-0.3656920795745512, -0.05475568524687013, 1.8634868040592663], [-1.1363283391978016, -0.30599431379001757, -1.3856402642435743], [-1.3867897243207135, -0.40823293437612845, -4.482215444702165]]]" REF_nacs="_JSON [[[0.3317040231540973, 4.61559984942786e-12, -2.5256960653665315e-13], [0.4429390702598525, -8.749391331348894e-14, 2.740882153076543e-13], [0.39806323873477195, 3.0875582532617715e-12, -2.545218324182104e-12]], [[0.3316411693033324, -4.352317114717798e-12, 1.3475067554696362e-12], [-0.44294294597018746, 4.4186840069371166e-13, -9.876537995230145e-14], [0.3979903133631637, -3.976249577603365e-12, 3.25642758259896e-12]], [[-0.10284200041636704, 0.041158198678800266, 0.1989706847945174], [-0.017759207868024186, 0.009101536844055168, -0.08600511594413841], [-0.1526992300733017, 0.06478293671116188, 0.14625331054160357]], [[-0.1028406743701247, -0.12048812044050487, -0.16360858045962381], [0.017761145695125522, -0.07005026191950213, -0.050727564332626894], [-0.1527164336394978, -0.06547873238434568, -0.14595171955492114]], [[-0.10284067436981913, 0.12048812044017888, 0.16360858045800056], [0.01776114569556999, 0.07005026191913116, 0.05072756433238028], [-0.15271643364065507, 0.0654787323839426, 0.14595171955351047]], [[-0.10284200041586286, -0.04115819867881388, -0.1989706847944607], [-0.01775920786830891, -0.009101536844038596, 0.0860051159442036], [-0.1526992300721671, -0.06478293670994659, -0.14625331054126645]]]" REF_dip_perm="_JSON [[9.690197101459781e-10, -4.900686438021266e-12, 2.07359475143583e-12], [8.927789448796802e-10, -4.623787973236514e-12, 3.2544938357257497e-12], [1.1448398255675745e-05, -4.1753373768858696e-12, 3.0221489585078674e-12]]" REF_dip_trans="_JSON [[-0.34007374148747754, -2.505707644753497e-13, 1.0956228692044157e-13], [0.0, 0.0, 0.0], [-0.46264279624794896, -3.4084086534748023e-13, 1.4912338626593014e-13]]" pbc="F F F"
C        0.00000000       0.00000000       0.00000000
C        1.21849972       0.00000000       0.00000000
H       -0.56503637       0.92382805       0.00000000
H        1.78353609      -0.61749951       0.68713362
H        1.78353609       0.61749951      -0.68713362
H       -0.56503637      -0.92382805      -0.00000000
6
Properties=species:S:1:pos:R:3 REF_energy="_JSON [[-2122.949438677837, -2115.1649650948216, -2112.0663493291136]]" REF_forces="_JSON [[[5.137856188566666, 2.702103852984157e-09, -3.4021358988007365e-09], [4.087723556601754, -6.884222222395219e-09, -5.706760221493908e-09], [-3.517646956235615, -7.733243181718563e-09, -5.863376135336979e-09]], [[-5.137856101937396, -2.325410538764758e-09, 1.6445917926864205e-09], [-4.087722854641928, -1.2865684260332449e-08, -4.324691809751699e-09], [3.51764692900199, -1.4405995865202047e-08, -1.8995033284604767e-09]], [[0.2931180837125653, 0.03632525757719664, 0.9199153715746299], [-0.16515615443924633, 0.1238931073525795, -1.2444747641804519], [-0.1224038094466778, 0.014948390833412222, -2.3754477747852967]], [[-0.29311813535130443, 0.43011692384706274, -0.813979870409116], [0.16515579479881023, -0.4258090490507585, 1.175905434034833], [0.12240381471368382, -1.0125870486950455, 2.1488701797857197]], [[-0.29311813807711007, -0.4301169220911925, 0.8139798688986082], [0.16515578708899328, 0.4258090605885483, -1.1759054288526969], [0.12240383354472811, 1.0125870628607552, -2.1488701806227013]], [[0.2931181030845024, -0.03632525970905002, -0.9199153683065314], [-0.16515612940898594, -0.1238930991397313, 1.2444747690299027], [-0.1224038115790563, -0.014948382859885466, 2.37544778338519]]]" REF_nacs="_JSON [[[0.41805432131065273, -1.0878062624291682e-10, -2.060232020426251e-12], [0.5327836136895383, 1.3916157033212633e-10, -8.333638309645614e-11], [0.43852725663569164, 1.2210175948994914e-10, -1.2856845084134256e-10]], [[0.41805433626799754, -8.610652728267737e-11, 1.2061457373087617e-10], [-0.5327836461406693, 1.0704168876706103e-10, -1.5431939167273336e-10], [0.43852798599172643, -2.78895007820196e-10, -7.402429679700465e-10]], [[-0.04385943898553859, 0.008878064245208447, -0.1127046985631886], [-0.01875393179075167, 0.013138089422150539, 0.016676800579480386], [-0.12036634261330623, -0.0046236889175879925, -0.06748147010850594]], [[-0.043859608090810735, 0.040675515956886295, -0.10548307729480999], [0.01875394801189787, 0.019052737873571847, -0.00936581459112719], [-0.12036581058391763, 0.03331870774742159, -0.058864187946342676]], [[-0.04385960784013326, -0.040675515714016806, 0.10548307694617197], [0.018753937829357293, -0.01905273837323225, 0.009365816410197158], [-0.1203658105092436, -0.03331870728952697, 0.05886418851157979]], [[-0.04385943871916847, -0.008878064222085758, 0.11270469854197812], [-0.018753921590887932, -0.013138089168692572, -0.016676802160894538], [-0.12036634215364188, 0.004623688659060136, 0.06748147026161248]]]" REF_dip_perm="_JSON [[1.6950141737180907e-10, -6.689492159397651e-11, 2.7933433849752037e-11], [2.453778425528639e-10, 1.9087464774384112e-11, 8.44790150794804e-11], [1.5801949982829094e-10, 4.66459406278374e-12, 6.900393020169796e-11]]" REF_dip_trans="_JSON [[-0.698469271263015, -8.86214339264798e-12, 8.316679060061962e-11], [0.0, 0.0, 0.0], [-1.1665031825835188, -1.4800505278304834e-11, 1.3889562694369497e-10]]" pbc="F F F"
C        0.00000000       0.00000000       0.00000000
C        1.49868476       0.00000000       0.00000000
H       -0.56503637       0.92382805       0.00000000
H        2.06372113       0.83319930       0.39904535
H        2.06372113      -0.83319930      -0.39904535
H       -0.56503637      -0.92382805      -0.00000000
6
Properties=species:S:1:pos:R:3 REF_energy="_JSON [[-2123.6912569798906, -2114.633115561723, -2110.529461947353]]" REF_forces="_JSON [[[3.6303596232065214, -1.0771363040265543e-09, 4.208345423138192e-10], [-0.523495974740998, -1.9918636403557094e-09, 6.430266218168294e-10], [-10.360155384313114, -1.941948949197043e-09, 1.2029491378390593e-09]], [[-3.630359614051851, 1.6870108619767142e-09, -1.3897739307619957e-09], [0.5234959841808502, 2.523886336600396e-09, -3.1299723729694466e-09], [10.360155363460386, 1.807593012371659e-09, -2.5757261411251637e-09]], [[0.18086230235914383, 0.011761332354257586, -0.5658446465988365], [-0.0322017088863236, -0.013788569465515904, 1.0839482544162529], [0.03138562643332871, -0.1798836718376577, 1.4185541411520295]], [[-0.18086230789151547, -0.10261185436455077, -0.5565871877713394], [0.032201703275841737, 0.18793825701264008, 1.067620323797208], [-0.03138561712530126, 0.40568516363770696, 1.371157733068019]], [[-0.18086230486155655, 0.10261185385051315, 0.5565871884954187], [0.032201706308631846, -0.1879382578617048, -1.0676203220168423], [-0.031385614498980266, -0.4056851647015899, -1.3711577319913077]], [[0.18086230124135666, -0.011761332451356181, 0.5658446468437547], [-0.03220171013749582, 0.013788569782456534, -1.083948253709693], [0.03138562604405513, 0.17988367303606745, -1.4185541408559568]]]" REF_nacs="_JSON [[[0.49751753629178425, 8.340843576592006e-12, 8.616591356978679e-11], [0.4489828666577175, -5.5300135372749536e-11, 2.5400325317847967e-11], [0.4232309377370824, 4.036458194988138e-11, 2.1162395137126694e-10]], [[0.4975174679142384, 6.338837756569132e-11, -1.2681123550448497e-10], [-0.4489828563375414, 6.024401920556205e-11, -1.0783115193928676e-10], [0.42323096725587817, 5.6851091656999574e-11, -1.3925112208268226e-10]], [[-0.02732734651634075, 0.010364456297090275, 0.07075876677703165], [-0.010102896424416126, 0.010391243176409713, 0.03094764346781817], [-0.07081824011003642, 0.00042142147130813743, 0.044976016869058985]], [[-0.027327318498032133, -0.0011504980088423496, -0.07150454773586035], [0.010102891260560624, -0.005278727177730777, 0.032215983269293674], [-0.07081822513453002, -0.006817464759976554, -0.04445831193339784]], [[-0.027327318527347263, 0.001150497990401393, 0.07150454767704394], [0.01010289125920864, 0.0052787271451142925, -0.03221598322067896], [-0.07081822519240269, 0.0068174647438905825, 0.044458311849048596]], [[-0.02732734650185052, -0.010364456299095144, -0.07075876665720411], [-0.010102896434859357, -0.010391243148736412, -0.030947643434002654], [-0.07081824014490488, -0.0004214215198265534, -0.04497601684412991]]]" REF_dip_perm="_JSON [[-1.811956931364403e-10, 6.548544594992178e-11, -8.876781836862769e-11], [-2.404228173935578e-10, 6.944738413402242e-11, -4.967308625037146e-11], [-9.347925615665696e-11, 6.33035693251517e-11, -6.18399631541466e-11]]" REF_dip_trans="_JSON [[-0.7833274725692915, 7.804475155609236e-12, -2.3604712921161814e-11], [0.0, 0.0, 0.0], [-1.2319368495627678, 1.2274086272542518e-11, -3.712307769938389e-11]]" pbc="F F F"
C        0.00000000       0.00000000       0.00000000
C        1.42975334       0.00000000       0.00000000
H       -0.56503637       0.92382805       0.00000000
H        1.99478971      -0.91180208       0.14857737
H        1.99478971       0.91180208      -0.14857737
H       -0.56503637      -0.92382805      -0.00000000
6
Properties=species:S:1:pos:R:3 REF_energy="_JSON [[-2118.3549082585328, -2115.2709267762284, -2114.268508023472]]" REF_forces="_JSON [[[-22.666418344978915, 6.369584535962195e-10, -1.9694064637101115e-10], [-19.288311356413423, -1.179387411294154e-10, -4.778279429833251e-10], [-21.08998962823746, -3.632646211202132e-11, -4.976117276293166e-10]], [[22.666450863666846, -2.234727531867937e-10, -3.579946631824497e-10], [19.288292104784844, 2.267242430119528e-10, -7.846350980199207e-11], [21.089963251461853, 2.7211560553778005e-10, 3.1052170509742556e-10]], [[-0.8489863861559349, 0.21852779998773011, 2.4969636911786326], [-1.3288823400303371, 0.34721172997341243, -0.47842482614955373], [-1.4400495961025206, 0.44164485072729165, -3.4647344150182877]], [[0.8489701268727559, 2.480264611727382, -0.36190646708827445], [1.3288919658806788, -0.38564692229902564, 0.44801613603376517], [1.4400627844271896, -3.2701742819378192, 1.2270593492440722]], [[0.8489701269771838, -2.480264611757968, 0.36190646750217687], [1.3288919659415108, 0.3856469222701553, -0.44801613561497616], [1.4400627847277208, 3.2701742818528703, -1.2270593492064876]], [[-0.8489863863826393, -0.21852780037041572, -2.49696369103752], [-1.3288823401640755, -0.34721173005352135, 0.47842482628741884], [-1.4400495962762705, -0.44164485087791816, 3.4647344151683988]]]" REF_nacs="_JSON [[[0.3452435327512073, 1.0075707730226971e-11, 2.2588538832569247e-11], [0.6136244494917917, -5.440060519592425e-12, -8.305910539617657e-12], [1.7433815837272295, 2.295174562697241e-11, 2.667677703030131e-10]], [[0.345370560196413, 9.989350590812525e-12, -3.111616925797659e-11], [-0.6136226031392874, -4.746823457502838e-12, 1.2647565392953436e-11], [1.7433241658416263, -5.1990146618697197e-11, -2.1447437884012526e-10]], [[-0.15825797982745957, 0.06494856837392946, -0.2358822566491438], [-0.013824897675236966, 0.0017157110909999742, 0.5587467691509647], [-0.8645779892193058, 0.36411004582090145, -0.11593982222223527]], [[-0.15818127740725643, 0.21461523389991058, -0.11742128231690373], [0.013823974503757304, 0.5441636767816893, -0.12687188225811655], [-0.8645903291968005, 0.029045082147617782, -0.38100947621900455]], [[-0.1581812774594809, -0.21461523392105283, 0.11742128236709447], [0.013823974498798264, -0.5441636767871506, 0.12687188225704735], [-0.8645903291899464, -0.029045082122869176, 0.38100947628148457]], [[-0.1582579798212144, -0.06494856837223437, 0.23588225660539855], [-0.013824897665481027, -0.0017157110753441866, -0.5587467691542226], [-0.864577989196083, -0.3641100458162603, 0.11593982210646554]]]" REF_dip_perm="_JSON [[-1.0468427523539033e-10, -6.725301584918686e-12, -8.845969075367924e-11], [4.8921504703098564e-11, -1.3163294988331388e-11, -8.950482631249087e-11], [-6.219805740935695e-07, -6.9693053448643474e-12, -8.90926015303301e-11]]" REF_dip_trans="_JSON [[-0.1477975047184703, -1.769410008299023e-12, -4.581611521175069e-12], [0.0, 0.0, 0.0], [-0.30079102216373255, -3.6009780131426393e-12, -9.324199342482134e-12]]" pbc="F F F"
C        0.00000000       0.00000000       0.00000000
C        1.14896848       0.00000000       0.00000000
H       -0.56503637       0.92382805       0.00000000
H        1.71400485       0.21256464       0.89904090
H        1.71400485      -0.21256464      -0.89904090
H       -0.56503637      -0.92382805      -0.00000000
6
Properties=species:S:1:pos:R:3 REF_energy="_JSON [[-2120.499761134493, -2113.309130880559, -2108.0352241267115]]" REF_forces="_JSON [[[-24.702297645603988, -3.6818665507315684e-09, 2.227951415045182e-10], [-24.03708184052728, -1.901576149439923e-08, -4.686408630718765e-09], [-30.450919845521344, -4.309983487906837e-09, -2.376111785322932e-11]], [[24.70234278887157, 6.400079669814598e-09, 5.380603627998796e-09], [24.036972799329277, -2.9466975987997574e-09, 2.042490598927165e-08], [30.45069146034267, 6.3613056333170935e-09, 7.51477386348673e-09]], [[-0.5672472865264641, 0.02619561847631851, -1.6712810749916778], [-1.4963996593314246, 0.41695229762171654, 1.7392429026084533], [-2.000014669809321, 0.6905760336801622, 5.197926476587781]], [[0.5672247138604982, -1.0787548481127922, -1.2766103265752167], [1.496454172321159, 0.7785577391298555, 1.6101808388072678], [2.000128860798487, 2.7571385139435516, 4.460163424393789]], [[0.5672247136082063, 1.0787548456432319, 1.2766103240130966], [1.4964541789666386, -0.7785577305276276, -1.6101808511950804], [2.000128861287382, -2.7571385160653343, -4.460163428481309]], [[-0.5672472842085321, -0.026195618724682672, 1.6712810719504736], [-1.4963996507571085, -0.41695228426136366, -1.7392429059591719], [-2.0000146670991676, -0.6905760336104905, -5.197926479990894]]]" REF_nacs="_JSON [[[0.3432757829904447, -1.9521709520391205e-10, -3.012561897108671e-10], [-0.3310884911852642, -3.4419331952680776e-11, -2.631468233136533e-13], [-0.3499232437057217, -2.8734545216173954e-10, 4.019136820733522e-11]], [[0.34344155549129285, 1.2059699422317838e-11, 7.285362961809849e-10], [0.3310886674460179, -6.345166220442022e-11, -6.626517458639e-11], [-0.34975575017771704, -4.61886452080182e-09, 5.865179717928366e-10]], [[-0.1227517328802966, 0.06414818348995513, 0.20964172201202197], [0.01326602369451657, -0.0073155280620761124, 0.050768780402102295], [0.13491324946988206, -0.08125382137518687, -0.17160762810548655]], [[-0.12275182572800399, -0.08310616768220107, -0.202886011893136], [-0.013266111777861862, 0.037812064362374755, 0.03466387907415661], [0.1348195770475816, 0.04583193487154288, 0.18420267486241018]], [[-0.12275182094320175, 0.08310617111625766, 0.20288600945941251], [-0.013266113678551612, -0.037812065692082245, -0.03466387895174677], [0.13481956028325573, -0.04583194667374463, -0.18420267695414122]], [[-0.12275173656244612, -0.06414818671901576, -0.20964171997161477], [0.013266025533408703, 0.007315529489655712, -0.05076878045798301], [0.13491327288013755, 0.08125383806571668, 0.17160762954271322]]]" REF_dip_perm="_JSON [[4.723304865091484e-10, 5.036220949731698e-10, 6.568739445431367e-10], [7.948026910994512e-10, 5.024978455672767e-10, 4.785554971084448e-10], [-3.7281359465417736e-05, 4.590893268397423e-10, 5.272937907972497e-10]]" REF_dip_trans="_JSON [[-0.22347468780057622, -4.39124236392977e-11, 6.098174197012948e-12], [0.0, 0.0, 0.0], [0.27298777052760953, 5.364156086644876e-11, -7.449427727928227e-12]]" pbc="F F F"
C        0.00000000       0.00000000       0.00000000
C        1.12423704       0.00000000       0.00000000
H       -0.56503637       0.92382805       0.00000000
H        1.68927341      -0.71499337       0.58501516
H        1.68927341       0.71499337      -0.58501516
H       -0.56503637      -0.92382805      -0.00000000
6
Properties=species:S:1:pos:R:3 REF_energy="_JSON [[-2121.6744051032197, -2116.823240020612, -2115.0495977978358]]" REF_forces="_JSON [[[-2.3206197705135216, 6.061703551199013e-10, 3.349206509398252e-11], [0.2974299764227905, -1.4016225902354395e-09, 4.526790939254585e-10], [-3.646469664178558, 9.941547127839895e-10, 1.1041986042503699e-10]], [[2.3206199540099335, -1.4177142806770011e-09, 4.410825820390466e-10], [-0.29742986749331446, -1.8185671299271892e-09, -1.8251903889149329e-09], [3.6464697105986823, -1.3665601449602091e-09, 5.566966506592398e-10]], [[-0.15836769933635955, 0.07537827728452891, 1.8982192370028135], [-0.7751872872479595, 0.25016896778466896, -0.8556516924238263], [-0.8506591580409891, 0.27037502027471483, -3.403969865602887]], [[0.15836760768643965, 1.7081872541426926, -0.8312726621509853], [0.7751872333491536, -0.6356156875022444, 0.6250735910139651], [0.8506591350322057, -2.8714088839115903, 1.8480055307186376]], [[0.15836760751781845, -1.7081872538177665, 0.8312726617915245], [0.775187231851887, 0.6356156889884551, -0.6250735894080693], [0.8506591349028484, 2.87140888423285, -1.8480055311865373]], [[-0.1583676993640025, -0.07537827679871584, -1.8982192371179218], [-0.7751872868826365, -0.25016896605064126, 0.8556516921909616], [-0.8506591583118343, -0.2703750202234938, 3.4039698654035186]]]" REF_nacs="_JSON [[[-0.2798505736202561, -1.273293384217742e-10, -4.169708281221043e-12], [0.6127064618565715, -2.234364241463013e-11, -8.920452287254456e-12], [-0.6524722720228112, 2.885184023813279e-11, -9.884089827140333e-11]], [[-0.2798503180552161, 2.347853334661377e-11, -5.980025293736281e-11], [-0.6127064753606658, 3.738561082328934e-12, 3.8780777888166613e-11], [-0.6524723362728475, -1.6104385225789116e-11, 1.625859007636103e-11]], [[0.08406443227335662, -0.021315694440208102, 0.18886308617591208], [-0.021303413074942434, 0.011468473092692283, 0.21811232761618227], [0.2948045586984123, -0.06187038395489694, 0.10622013724965237]], [[0.08406441476618508, -0.1563287479508258, 0.10809693189110449], [0.021303419848109774, 0.19760455186358727, -0.09304278255762838], [0.2948042547584848, -0.06433256795342802, 0.10474724024704672]], [[0.08406441482379622, 0.15632874802666732, -0.10809693192057157], [0.021303419842585727, -0.19760455186652393, 0.09304278253626332], [0.29480425477459854, 0.0643325679930089, -0.10474724027809758]], [[0.08406443223830372, 0.021315694458424492, -0.1888630861046573], [-0.0213034130726536, -0.011468473071143168, -0.2181123276246596], [0.2948045586272433, 0.061870383897076234, -0.10622013714851102]]]" REF_dip_perm="_JSON [[-5.571280389202985e-10, 1.3866575450017775e-11, -6.384903848134424e-11], [-3.657141678502976e-10, 2.0248772771804677e-11, -8.142064030678265e-11], [-8.449150673954588e-10, 2.2532872814777245e-11, -8.13019695361606e-11]]" REF_dip_trans="_JSON [[0.3849295710392116, 1.0582056112042997e-11, 1.025481049081515e-11], [0.0, 0.0, 0.0], [0.6841005277563472, 1.8806543929353928e-11, 1.822494732391289e-11]]" pbc="F F F"
C        0.00000000       0.00000000       0.00000000
C        1.33872713       0.00000000       0.00000000
H       -0.56503637       0.92382805       0.00000000
H        1.90376350       0.43688862       0.81399423
H        1.90376350      -0.43688862      -0.81399423
H       -0.56503637      -0.92382805      -0.00000000
6
Properties=species:S:1:pos:R:3 REF_energy="_JSON [[-2120.604878718705, -2116.54410181318, -2116.4157876108375]]" REF_forces="_JSON [[[1.6367465541537451, -1.9094243635540342e-10, -2.76962857321209e-10], [7.542527221715631, -4.21797448099278e-10, -4.957290140564488e-10], [7.365261439099489, 1.4088879759995252e-09, -1.7165337325982547e-10]], [[-1.6367464530898275, 2.0294908815802456e-10, -4.0035793396318324e-10], [-7.54252716168011, 2.7440595167766325e-10, -1.3610761708458684e-10], [-7.36526130119368, 1.574016926174765e-11, -2.0937804774036466e-09]], [[0.18139070595114776, 0.06330836907128509, -0.0875422634220365], [-0.35253441697237176, 0.24276436792356193, 0.02528123201863039], [-0.36044659923963557, 0.2631857905389765, 0.12749491814032834]], [[-0.18139075691777834, -0.08864259785245661, 0.0617581619294318], [0.3525343864381936, 0.02100599546049732, 0.24317144760662243], [0.36044653059194676, 0.12284455332145869, 0.2653881173772753]], [[-0.18139075663271653, 0.08864259769570672, -0.06175816161038975], [0.35253438680324967, -0.02100599564422497, -0.24317144747175315], [0.36044653010759514, -0.1228445535560405, -0.26538811562518455]], [[0.18139070653460723, -0.06330836892579715, 0.08754226377953196], [-0.3525344163027068, -0.2427643675929427, -0.02528123152140209], [-0.3604465993663292, -0.26318579172895923, -0.12749491762694432]]]" REF_nacs="_JSON [[[-0.012157751721472604, 1.1798912734725853e-11, 4.422289124886995e-14], [-0.04898740965028234, -2.926181495371954e-14, 4.020482066269042e-12], [9.342430547457123, 2.4364043384143943e-10, 4.3582596421272635e-10]], [[-0.012157753439869278, -1.3556731677187737e-11, 1.1830212907024396e-11], [0.04898740939548981, -6.0267286913371274e-12, -2.6282627721456245e-13], [9.342430975901216, -5.4370875151687395e-11, -8.721915895793707e-10]], [[0.0035117299424022854, -0.0002072403459941224, -0.17312713215347766], [0.001383769335776994, -0.0009477690507851458, 0.6083638374243524], [-4.671166218572308, -0.07535444346512175, 0.0034126618639772313]], [[0.003511729576391002, 0.1730966750918309, 0.0032532982605582286], [-0.0013837692577270985, 0.6082863407699741, 0.009756253512629962], [-4.671162863684655, -0.004739068644097595, 0.07528394690538018]], [[0.0035117295763809862, -0.1730966750843251, -0.0032532982645477808], [-0.0013837692541559849, -0.6082863407699212, -0.009756253514779316], [-4.671162863823398, 0.00473906859173591, -0.07528394630771025]], [[0.00351172994159267, 0.00020724034309034279, 0.1731271321469171], [0.0013837693440593047, 0.0009477690568094209, -0.6083638374259758], [-4.6711662179912175, 0.07535444332825797, -0.003412662025526195]]]" REF_dip_perm="_JSON [[-6.43924256941925e-10, 6.561036255057656e-12, -2.6013882086356988e-11], [1.759887528324804e-08, 6.608504563306471e-12, -2.595975155940659e-11], [-1.4907963510809752e-08, 7.214350076482132e-12, -2.633033747468242e-11]]" REF_dip_trans="_JSON [[0.02136082088727144, 2.0659282298227032e-14, 1.0185725453457059e-13], [0.0, 0.0, 0.0], [-1.0786103404784546, -1.0427768199094303e-12, -5.143442288863582e-12]]" pbc="F F F"
C        0.00000000       0.00000000       0.00000000
C        1.52356381       0.00000000       0.00000000
H       -0.56503637       0.92382805       0.00000000
H        2.08860018      -0.01625432       0.92368505
H        2.08860018       0.01625432      -0.92368505
H       -0.56503637      -0.92382805      -0.00000000
6
Properties=species:S:1:pos:R:3 REF_energy="_JSON [[-2123.504337887581, -2114.9235111195535, -2109.906551415721]]" REF_forces="_JSON [[[-2.7010540703541293, -4.79008598898613e-10, -1.2245622725229521e-10], [-4.1765274688372065, -2.2132144388522943e-09, -1.859048147434523e-10], [-15.201299707837311, -1.85205474908143e-10, 8.381442121798366e-12]], [[2.7009879214272607, 6.303104055632858e-10, 1.6597652117808768e-09], [4.176660439707297, 7.257273272501176e-11, 1.6399180283825724e-09], [15.201262299396635, 2.06261875134269e-10, 1.7202511707818664e-09]], [[0.013766999859360207, -0.03014738106553389, 0.9096211555238105], [-0.7055201358790515, 0.1567146173892189, -1.842106454415795], [-0.6716991342037061, 0.017115472902715232, -3.482251444372419]], [[-0.013733924238597501, 0.30650825748801186, -0.8569225461868896], [0.7054536518834895, -0.5316418475973428, 1.7706886683949825], [0.6717178392507458, -1.2643190938436568, 3.2446013902671464]], [[-0.013733924667845468, -0.30650825751240085, 0.8569225450689636], [0.7054536505988068, 0.5316418486781216, -1.7706886694677086], [0.6717178391386097, 1.26431909358595, -3.2446013915440175]], [[0.013766997973222027, 0.030147380938405948, -0.9096211559435329], [-0.7055201374745086, -0.15671461632825925, 1.8421064540344698], [-0.6716991357460287, -0.017115472666728155, 3.482251443920984]]]" REF_nacs="_JSON [[[0.4294929196752355, 5.2513080404642457e-11, -9.246627174602571e-11], [0.5090910218357505, -3.809517472959667e-11, -2.3434171642751112e-11], [0.3417301795156947, 5.720133700589965e-11, -3.848028837359687e-11]], [[0.4294472334548874, 1.1427848822798658e-11, 9.071586379842467e-11], [-0.509089103044813, 2.8167077859450415e-11, 4.260831353310015e-11], [0.3420679204410353, 3.9184956703793065e-11, 6.569122099695504e-11]], [[-0.055085067162335605, 0.022322291902094712, -0.15890679759962792], [-0.026566203451982334, 0.01650758469760615, -0.0025299371996183044], [-0.05442391083289161, 0.018184890895098678, -0.11595014959151156]], [[-0.05506130340820133, 0.03767805188914535, -0.1559697575218087], [0.02656524406421891, 0.014421079785769954, 0.008428073315257825], [-0.054451498895350586, 0.025719609514856332, -0.11452937616442103]], [[-0.055061303426414326, -0.03767805191488947, 0.1559697575631175], [0.026565244053819742, -0.014421079790701534, -0.008428073343904276], [-0.054451498905420746, -0.025719609553571148, 0.11452937615005496]], [[-0.055085067160897144, -0.022322291918611487, 0.15890679754345924], [-0.026566203456629172, -0.01650758468274617, 0.0025299372090903677], [-0.05442391083678085, -0.018184890936944396, 0.11595014956655056]]]" REF_dip_perm="_JSON [[9.600881731991616e-10, -4.913802681090017e-11, 5.2475381991726926e-11], [9.189281532834132e-10, -3.252411892381504e-11, 3.712729565794351e-11], [-1.0058076490388096e-05, -3.526187442149887e-11, 4.201986251692222e-11]]" REF_dip_trans="_JSON [[-0.6155550130232891, -9.522037904847579e-12, -6.304733493973044e-13], [0.0, 0.0, 0.0], [-0.8435251797633003, -1.3048472560583013e-11, -8.638742872208528e-13]]" pbc="F F F"
C        0.00000000       0.00000000       0.00000000
C        1.30937832       0.00000000       0.00000000
H       -0.56503637       0.92382805       0.00000000
H        1.87441469       0.85912317       0.33965517
H        1.87441469      -0.85912317      -0.33965517
H       -0.56503637      -0.92382805      -0.00000000
6
Properties=species:S:1:pos:R:3 REF_energy="_JSON [[-2120.2867754391696, -2117.128878308438, -2116.8022094288094]]" REF_forces="_JSON [[[-6.821882732386469, -2.447984645682759e-09, 5.592946501336268e-09], [-1.4771460185352423, -2.0327381860725855e-09, 5.15935914720956e-09], [-2.148054937066415, -2.640140239294635e-09, 5.409260371764977e-09]], [[6.821790093225143, 1.353407191448056e-09, -7.27907574814129e-10], [1.4771869431500726, 7.889463364169437e-10, 1.0693638244340832e-09], [2.1481112723743174, 1.620531838496039e-09, -2.0494162286080218e-10]], [[-0.34306609948580125, 0.11338297993122076, -1.1675322506162369], [-0.8626500149564088, 0.26807793322225876, 0.2185465378582219], [-0.8889868459677834, 0.3035092524757743, 1.5693804207921307]], [[0.3431124193375228, -1.1728536991507978, -0.025993484791402025], [0.8626295526714883, 0.1851981193113198, 0.2920473761827507], [0.8889586786943912, 1.5221656809112147, 0.4878071219760942]], [[0.34311241789668623, 1.172853698696448, 0.025993483074592705], [0.8626295517286853, -0.1851981193973314, -0.2920473791761603], [0.888958677274232, -1.522165681193671, -0.48780712387294267]], [[-0.3430660985869764, -0.11338297838268996, 1.167532247467854], [-0.862650014060693, -0.2680779318932272, -0.21854654109383875], [-0.8889868453111338, -0.3035092511741918, -1.5693804240994385]]]" REF_nacs="_JSON [[[-0.1365684636946566, 1.1786831694471043e-10, 3.634295905306739e-11], [-0.4960598481177601, -1.6430320645953857e-11, 3.876040613038738e-11], [4.175733435252455, 6.4926484451812794e-09, -1.2058180950114482e-09]], [[-0.1367312354786751, -2.6218484674280927e-11, -9.571499154698735e-11], [0.4960709387952228, 9.776539473943152e-11, -8.269150298750437e-12], [4.175743718110713, -4.974098672266156e-09, 4.2837181116879983e-10]], [[0.05471133374065542, -0.013991395223506613, -0.22230033967606602], [0.014639564721823359, -0.007029407281865976, 0.8487462061352301], [-2.084902445004153, 0.49980142750951684, 0.04790343315132557]], [[0.05464290196630536, 0.2190609119585903, 0.040288797508099265], [-0.014645110153528559, 0.843554740517501, 0.09392752756135869], [-2.084943669414435, 0.011800523086905688, -0.5020276839481771]], [[0.054642901961725235, -0.2190609120022354, -0.04028879747699191], [-0.014645110112301121, -0.8435547405352832, -0.09392752758615246], [-2.0849436714207568, -0.01180052331588917, 0.502027683705916]], [[0.05471133376551155, 0.013991395182288776, 0.22230033970372404], [0.014639564629586998, 0.007029407218271212, -0.8487462061409239], [-2.084902443748317, -0.49980142880055695, -0.047903432131556976]]]" REF_dip_perm="_JSON [[-3.5946833781755886e-10, 9.782635385944316e-13, 2.8930684711645995e-10], [5.321447187893434e-09, -2.888488195807258e-11, 2.842269053564991e-10], [-1.4153050854186059e-05, -2.166262049688231e-11, 2.79542532831945e-10]]" REF_dip_trans="_JSON [[0.14180821989817, -3.1125559622535324e-12, 5.244581225023103e-14], [0.0, 0.0, 0.0], [-0.6568973159802318, 1.4418232476906131e-11, -2.4310945470817093e-13]]" pbc="F F F"
C        0.00000000       0.00000000       0.00000000
C        1.30619404       0.00000000       0.00000000
H       -0.56503637       0.92382805       0.00000000
H        1.87123041      -0.10985310       0.91727344
H        1.87123041       0.10985310      -0.91727344
H       -0.56503637      -0.92382805      -0.00000000
6
Properties=species:S:1:pos:R:3 REF_energy="_JSON [[-2122.8457543173263, -2114.5896053718116, -2111.6324297647225]]" REF_forces="_JSON [[[6.441081225636764, -7.460970701939341e-07, -9.126870874895303e-07], [4.047266978029704, -7.21878471900689e-07, -1.5898337184009394e-06], [-3.304440878388245, -7.919430378527677e-07, -1.3012620367567217e-06]], [[-6.441080581291884, 6.493885873563962e-07, 4.7077900488357704e-07], [-4.047266825166054, 5.519189249379534e-07, 6.377737710803046e-07], [3.3044411019365802, 6.056626289162586e-07, 5.683296233150396e-07]], [[0.33425028861005374, 0.06459098507171675, 0.6532230829387581], [0.10630776158163653, 0.0748456575170037, -0.945299669564683], [0.14585212572400327, -0.03859321416839004, -1.5239860653006132]], [[-0.33425028753629416, 0.23989260425393755, -0.6110022036192816], [-0.10630748254817433, -0.18518978193257019, 0.9299994142825949], [-0.14585187108339256, -0.45180635354354365, 1.4559859129541308]], [[-0.3342499117427783, -0.2398925157246465, 0.6110021262479991], [-0.10630719935766123, 0.18518991277438468, -0.9299994743440012], [-0.14585162007904706, 0.4518065050952213, -1.4559859555614683]], [[0.33424926632152013, -0.064590976892803, -0.6532225636594928], [0.10630676746187318, -0.0748456183989841, 0.9453006816860233], [0.14585114189058374, 0.038593248896488484, 1.5239868408403154]]]" REF_nacs="_JSON [[[0.4576189493528824, -4.551996761302735e-09, 6.8219615424462015e-09], [0.4869465630378801, -5.388873883145952e-10, -3.498884912447259e-08], [0.4926268831897932, -1.0643937281512597e-08, -6.772765669073988e-09]], [[0.4576190836101852, 6.406055856320271e-09, -4.147905698868419e-09], [-0.4869465662916369, -1.4673230469655731e-09, 7.946958283265501e-09], [0.49262714072985025, 3.2470647395923214e-08, 1.0417984154099195e-08]], [[-0.03533602374990525, 0.006095150751447749, -0.07280017233306148], [-0.010082901692821267, 0.010287786795448641, -0.004102578246231385], [-0.1369402834153159, -0.014091728796274888, -0.04114823498972383]], [[-0.03533616717005125, 0.01394328544926459, -0.07171192516322362], [0.01008290323041507, 0.008783335019204822, 0.006747055776714897], [-0.1369398778744662, 0.02475654857330447, -0.03576140844979293]], [[-0.035336165811238954, -0.013943288674116615, 0.07171192718013226], [0.010082902544480354, -0.008783334123689765, -0.006747058324795527], [-0.13693986359507107, -0.02475656470609067, 0.035761391840884]], [[-0.03533602950084054, -0.006095148981655076, 0.07280016555853562], [-0.010082901090579629, -0.010287785684753135, 0.0041026078362028495], [-0.1369403216503808, 0.014091723327907162, 0.04114824677554618]]]" REF_dip_perm="_JSON [[-6.319114438456241e-10, -4.249662754275461e-09, -2.6498974885566367e-09], [-1.4491783036294926e-09, -3.907599462815801e-09, -1.162952732662517e-09], [2.6344911078092144e-10, -3.638195994070335e-09, -1.5361410771186587e-09]]" REF_dip_trans="_JSON [[-0.758886597582952, -3.7284565279953195e-10, 1.307048929593485e-10], [0.0, 0.0, 0.0], [-1.34241372615648, -6.595361004748853e-10, 2.3120720723829553e-10]]" pbc="F F F"
C        0.00000000       0.00000000       0.00000000
C        1.55362072       0.00000000       0.00000000
H       -0.56503637       0.92382805       0.00000000
H        2.11865709       0.88897236       0.25136909
H        2.11865709      -0.88897236      -0.25136909
H       -0.56503637      -0.92382805      -0.00000000
6
Properties=species:S:1:pos:R:3 REF_energy="_JSON [[-2122.653911324716, -2116.217411980784, -2113.0507438039954]]" REF_forces="_JSON [[[-1.051334062437911, 7.063763416355755e-10, -3.1072936637321195e-09], [-0.2442785729995695, 2.0439708069836886e-08, 1.3179938918938342e-09], [-6.842421144474879, 1.6815287149133671e-09, -5.234432409852574e-09]], [[1.0514791752015766, 1.8048625616725817e-09, -2.4930433360706844e-09], [0.24431676825156057, 1.148722384496862e-08, -1.9340984777280233e-08], [6.8425124765167755, 1.916375959620307e-09, -2.8632659128691655e-12]], [[-0.0447239845031985, 0.03556059299892083, -1.539859086329223], [-0.7406652521958791, 0.2268127146832187, 1.317268784047861], [-0.8313286134459514, 0.21489488325856385, 3.7346002157166995]], [[0.04465142557029934, -1.1035751312802737, -1.0745083349770732], [0.740646160494644, 0.7606331918843438, 1.0990812138526151], [0.8312830481520959, 2.46216760653033, 2.816207494636943]], [[0.04465142911098459, 1.1035751249531174, 1.0745083431182612], [0.7406461555136816, -0.760633210152861, -1.099081194111555], [0.8312829486727905, -2.4621675992332044, -2.816207455045484]], [[-0.04472398294174234, -0.03556058918318758, 1.5398590837890602], [-0.7406652590644635, -0.22681272834117014, -1.3172687857662375], [-0.8313287154224874, -0.21489489415352125, -3.7346002500708058]]]" REF_nacs="_JSON [[[0.334731314611428, -1.0217258488431898e-10, -1.2634291925544328e-10], [0.5277932404531565, -1.1331733655403928e-11, -1.1478514222555561e-10], [0.39406052087443344, -4.6195338784142777e-11, -7.08947467677796e-11]], [[0.33465596592287333, -8.933690346580398e-11, 1.3251729768179603e-10], [-0.5277920993196118, 2.7981157776135467e-11, 5.863159368208618e-11], [0.39406372149829483, -1.076474000670495e-10, 5.391272931718882e-10]], [[-0.07328135964042395, 0.021491691881926282, 0.174295162813484], [-0.022003081623055643, 0.012609938603822807, -0.08163775369045045], [-0.1342748204306384, 0.030554256419494052, 0.11625637745747623]], [[-0.07328057776120876, -0.1067215090337294, -0.13947659714325727], [0.022002511070963127, -0.06616763318628416, -0.04945492573867151], [-0.13428994916159956, -0.05959914620544855, -0.10436797498735885]], [[-0.07328057772661543, 0.10672150917518995, 0.1394765970791674], [0.022002511063478107, 0.066167633164736, 0.04945492572013368], [-0.13428994917453946, 0.059599146291086966, 0.10436797447794972]], [[-0.07328135956912497, -0.021491691825910642, -0.17429516277940674], [-0.022003081640893526, -0.012609938598922066, 0.08163775376514132], [-0.1342748204877535, -0.03055425634730198, -0.11625637743220664]]]" REF_dip_perm="_JSON [[2.4000642872470856e-10, 2.1444016445736453e-10, 2.0125105337156447e-10], [2.781684502247425e-10, 1.9360615741149223e-10, 1.6908919258964831e-10], [-2.875788341407356e-05, 1.90120984253224e-10, 1.7924907610957003e-10]]" REF_dip_trans="_JSON [[-0.48980112480059596, -1.1153439332731546e-11, -3.4609609512084317e-12], [0.0, 0.0, 0.0], [-0.7342554939729591, -1.6720046607815467e-11, -5.1882101464083e-12]]" pbc="F F F"
C        0.00000000       0.00000000       0.00000000
C        1.34199417       0.00000000       0.00000000
H       -0.56503637       0.92382805       0.00000000
H        1.90703054      -0.65946861       0.64696168
H        1.90703054       0.65946861      -0.64696168
H       -0.56503637      -0.92382805      -0.00000000
6
Properties=species:S:1:pos:R:3 REF_energy="_JSON [[-2117.628449695434, -2113.5702543341013, -2111.343433960589]]" REF_forces="_JSON [[[-31.83262147635418, 1.7050708639237284e-10, -1.6604467214886598e-09], [-29.750728052780296, -4.96760198117472e-09, -1.946738997244306e-08], [-32.50732196944344, 1.0523112599877843e-09, -2.2103366321177947e-09]], [[31.832583418630875, -6.55308611425438e-10, 1.5605344838949074e-09], [29.750783408901167, -1.8830059744716234e-08, 3.6738688861431683e-09], [32.50733368810655, -8.570435384173677e-10, 2.5645020607379746e-09]], [[-0.946321217074755, 0.20148502622119202, 2.7205897526091736], [-1.5354300107350545, 0.40141847914415907, -0.8469164820465529], [-1.8261172813438704, 0.6076826634929519, -4.485394522329607]], [[0.9463402465393684, 2.5800444707273167, -0.8860676964519976], [1.535402333418255, -0.6204862794339121, 0.70246566609146], [1.826111422618325, -3.883681310210891, 2.324814208709907]], [[0.9463402460246542, -2.580044470482825, 0.8860676960952776], [1.5354023091248916, 0.6204862858771742, -0.7024656501709463], [1.826111422333503, 3.8836813102583227, -2.3248142095127493]], [[-0.9463212177635689, -0.201485025980889, -2.720589752152921], [-1.5354299879300155, -0.40141846179020335, 0.8469164819198488], [-1.826117282272044, -0.6076826637352424, 4.485394522778645]]]" REF_nacs="_JSON [[[-0.3948085947556031, -1.1152483620920902e-11, 2.6276061786033217e-11], [-0.4185257902916982, 2.5863336299726867e-12, 5.227481246949412e-12], [0.8350878417164415, -1.099959395628048e-10, -1.1321665267661336e-10]], [[-0.3948461112297363, -2.5341070456495777e-11, -5.83874782336912e-11], [0.41852213646830144, -1.679011222427584e-11, 6.035714680385302e-13], [0.8351364795801386, 9.661906140553426e-11, 2.402284037218843e-10]], [[0.1819275735494294, -0.08618885018766148, 0.22549281695069762], [0.007498111656451637, 0.001174390459421201, -0.22381902242639592], [-0.4069789926444177, 0.2019744271658137, -0.1540220809243157]], [[0.18192057594897026, -0.1733356939635764, 0.16801352155384974], [-0.007496284778555761, -0.2052578897354785, 0.08922342593824942], [-0.40697489986927216, 0.062051090825388795, -0.24631021867610503]], [[0.18192057591592728, 0.1733356939899358, -0.1680135215203889], [-0.0074962847744127455, 0.20525788973980977, -0.08922342594058928], [-0.40697489982032636, -0.06205109085751622, 0.24631021854386578]], [[0.18192757352641273, 0.08618885020219914, -0.22549281694704668], [0.007498111664971694, -0.0011743904495497175, 0.22381902242289237], [-0.4069789926244698, -0.20197442712329486, 0.15402208092614403]]]" REF_dip_perm="_JSON [[-1.0012898319817951e-09, -9.601714509329317e-12, 4.512195809984914e-11], [-7.981338004502452e-10, 3.189329009050842e-11, 4.656890872410029e-11], [1.956943465857712e-05, 2.4412867654631616e-11, 4.6314911636102244e-11]]" REF_dip_trans="_JSON [[0.11891608150386118, -3.4123008682774862e-12, -2.9910599862700725e-12], [0.0, 0.0, 0.0], [-0.17411280846544896, 4.996316419035823e-12, 4.37958333583106e-12]]" pbc="F F F"
C        0.00000000       0.00000000       0.00000000
C        1.09409736       0.00000000       0.00000000
H       -0.56503637       0.92382805       0.00000000
H        1.65913373       0.36376352       0.84919631
H        1.65913373      -0.36376352      -0.84919631
H       -0.56503637      -0.92382805      -0.00000000
6
Properties=species:S:1:pos:R:3 REF_energy="_JSON [[-2121.827508606116, -2111.1562326862067, -2102.6839575793074]]" REF_forces="_JSON [[[-22.85762098019281, 2.280234424800365e-08, -3.236896430586779e-08], [-21.26172149290524, 3.074248828027396e-08, -9.422028270745468e-10], [-43.572363420949515, -3.3623142757130428e-09, -2.1816489549239314e-09]], [[22.857620542911583, -6.397491252815612e-09, -1.6128435132278856e-08], [21.26172130227207, -3.735980929273166e-08, 3.4871694232022502e-09], [43.572363267203606, -2.847495604714249e-09, 1.4454374605218736e-08]], [[-0.3522219263987185, -0.08844915043510991, -0.1975448544636841], [-1.5863159104433318, 0.32389348926217654, 2.2487967963834574], [-1.0737896986405486, -0.16248625275827827, 4.25290163328386]], [[0.35222220167139084, 0.07382478097105476, -0.2034622992513918], [1.5863160034531036, -0.15922830589736042, 2.2664159696658692], [1.0737897748263057, 0.4718406237490811, 4.2297683810625255]], [[0.35222238152116986, -0.07382460118845915, 0.20346231158227546], [1.586316001079425, 0.15922831971253792, -2.266415974390102], [1.0737897945309383, -0.4718405921331395, -4.229768390738039]], [[-0.3522222195136253, 0.08844895424734767, 0.1975448906302663], [-1.5863159034585697, -0.32389349646039844, -2.2487967942041593], [-1.0737897169719857, 0.1624862273512813, -4.252901635881224]]]" REF_nacs="_JSON [[[-0.45956013357039144, -1.242449360703969e-10, 1.1102018502989887e-09], [0.6976879395512551, 9.644581882598852e-10, -2.8409580646269914e-10], [-0.30392778072931187, 4.799036279520174e-10, 1.143701912509688e-09]], [[-0.4595600934568348, 1.3598301847868387e-10, -1.352210111387923e-09], [-0.6976879291674746, -2.448087092774645e-10, 2.8549289204139264e-10], [-0.3039277513994566, 3.5890242692256163e-10, -2.441467991994572e-10]], [[0.057121706149289256, -0.030954975427755688, -0.24340864303537976], [-0.0488857643925189, 0.02923323709618787, 0.008606385324784558], [0.00515640281987338, -0.01800496398428876, -0.20695034961995412]], [[0.057121929172843075, -0.013142770974377478, 0.24501685147748978], [0.048885757919752436, -0.028528692663882197, 0.010712919625601744], [0.005156375587415174, -0.002882619892433993, 0.20771209594499992]], [[0.05712192554707223, 0.013142768583758294, -0.24501685163416131], [0.048885750635481076, 0.028528685371653012, -0.010712917610754847], [0.005156377031156695, 0.0028826211881352363, -0.20771209691855091]], [[0.05712170804174812, 0.030954977357810082, 0.24340864341514856], [-0.048885754432821095, -0.029233230523609856, -0.00860638734102747], [0.005156400227142887, 0.018004961468155216, 0.20695034967787232]]]" REF_dip_perm="_JSON [[9.599424371650645e-10, 3.3958577888000706e-11, -6.569988611437915e-11], [7.231005623236102e-11, -1.2071315704274225e-10, -2.4529456481909405e-10], [2.956775937498535e-10, -2.1096331907247327e-10, -3.374621966688759e-11]]" REF_dip_trans="_JSON [[0.5264802467391267, 2.0079714399458132e-10, -7.28809154495887e-12], [0.0, 0.0, 0.0], [0.6191860524136986, 2.361547056467537e-10, -8.571473600613046e-12]]" pbc="F F F"
C        0.00000000       0.00000000       0.00000000
C        1.13538361       0.00000000       0.00000000
H       -0.56503637       0.92382805       0.00000000
H        1.70041998      -0.92137395       0.06729267
H        1.70041998       0.92137395      -0.06729267
H       -0.56503637      -0.92382805      -0.00000000
6
Properties=species:S:1:pos:R:3 REF_energy="_JSON [[-2121.181861056664, -2116.8264770870937, -2116.0791386832707]]" REF_forces="_JSON [[[1.1746032517535627, 1.988493650019133e-10, 1.6248149678854895e-10], [5.491030415169352, -4.5138980840084324e-11, 1.3847362514772027e-10], [3.50612649203838, 6.411440444175846e-11, 1.4189866275308652e-10]], [[-1.174602484010711, -4.3460098083430615e-10, -2.356490113377283e-10], [-5.491030563785502, -4.1325149406696714e-10, -3.865646619634133e-11], [-3.5061266118123458, -4.380190099446061e-10, -1.1838442203364375e-10]], [[0.051075979475387806, 0.0697728541794782, 1.4284937738405254], [-0.5058350311985161, 0.23694402942125192, -0.4998737964006981], [-0.5235692226455857, 0.24372932520843504, -2.25066253125387]], [[-0.05107636348309888, 1.3773579963771696, -0.38515925318567473], [0.5058351052860909, -0.3993987375380354, 0.38274929913344397], [0.523569282352766, -2.0583508314980725, 0.9423787061595411]], [[-0.05107636298327628, -1.3773579960871183, 0.38515925327076134], [0.5058351058771773, 0.39939873786851215, -0.38274929920028494], [0.5235692829109937, 2.0583508318411807, -0.9423787061564248]], [[0.05107597924836386, -0.0697728542340792, -1.4284937738520749], [-0.505835031348195, -0.2369440292925939, 0.4998737963678358], [-0.5235692228419975, -0.24372932517778906, 2.250662531226606]]]" REF_nacs="_JSON [[[0.20245529600899928, 8.125409359943525e-12, -4.425150059186823e-12], [0.635975919874691, -8.00768276783605e-13, -8.548949449644327e-13], [1.4851173740299148, 1.694047721977105e-11, -6.975925662576675e-12]], [[0.2024553904555325, -2.2327868486008928e-11, 4.781414539109671e-12], [-0.6359759080881291, -2.246379622428144e-12, 2.7700229979010943e-12], [1.4851174548346133, 7.995999995265586e-12, -1.660060413338584e-11]], [[-0.05820687176306207, 0.007885645490496859, -0.17822519604437442], [-0.019818393346684893, 0.012123830705255231, 0.39411133761932754], [-0.7268615872642201, 0.043911830364863604, -0.06484701510826796]], [[-0.05820735484497074, 0.16660319028116172, -0.06379521119449424], [0.01981838744632328, 0.37775180400640834, -0.11302350733994382], [-0.7268615310410563, 0.047650219544483494, -0.06215174433792621]], [[-0.05820735485383677, -0.16660319026730586, 0.06379521119566041], [0.01981838744550994, -0.37775180400411607, 0.11302350733869698], [-0.7268615310890194, -0.04765021956383826, 0.06215174436427183]], [[-0.058206871761761945, -0.007885645491806438, 0.17822519604241913], [-0.0198183933474285, -0.01212383070450174, -0.3941113376199814], [-0.7268615872733588, -0.04391183037103337, 0.06484701510537536]]]" REF_dip_perm="_JSON [[5.301876920457519e-10, -5.975385592321184e-12, 6.4400753467569495e-12], [3.7023198490731196e-10, -4.732673610140593e-12, 4.850303409090506e-12], [6.937243417362955e-10, -4.685413496226203e-12, 4.882573530926324e-12]]" REF_dip_trans="_JSON [[-0.33228470116107517, -2.192971538753871e-13, 2.2579642476553293e-13], [0.0, 0.0, 0.0], [-0.9106796569464934, -6.010393646311966e-13, 6.187746647584343e-13]]" pbc="F F F"
C        0.00000000       0.00000000       0.00000000
C        1.44953885       0.00000000       0.00000000
H       -0.56503637       0.92382805       0.00000000
H        2.01457522       0.29189930       0.87650046
H        2.01457522      -0.29189930      -0.87650046
H       -0.56503637      -0.92382805      -0.00000000
6
Properties=species:S:1:pos:R:3 REF_energy="_JSON [[-2121.8155579096024, -2116.0988865303366, -2114.494654233532]]" REF_forces="_JSON [[[4.182488494870393, -1.9272001551331305e-07, 9.271273407962535e-08], [6.517256369595639, -1.9308638445246166e-08, -5.746247421389212e-09], [2.4045404691027468, -1.4271403010124626e-08, 7.439241255641026e-09]], [[-4.182482559311265, -1.1944492957392565e-07, 1.7699114505241533e-08], [-6.517213272634968, 8.722043307190378e-09, -1.2926445101035057e-08], [-2.4046894696504095, -4.1946795017400274e-09, -1.8502111677158757e-08]], [[0.2301527704822661, 0.0658770934056406, -1.3585504029172832], [-0.3313456303453277, 0.2145711730348708, 0.8639380890868545], [-0.34290981528446324, 0.1841895823049107, 2.646715476682553]], [[-0.2301587746096478, -1.1350519128380856, -0.749319739777985], [0.3313240754225736, 0.5703370705215822, 0.6834161756499303], [0.3429838462886428, 2.0266639790578904, 1.7122929014229673]], [[-0.2301557512925111, 1.1350515440810889, 0.7493187344424858], [0.33132408118770046, -0.5703370816111469, -0.6834161626249573], [0.34298431620582087, -2.0266640552489434, -1.7122930342086335]], [[0.2301558198591093, -0.06587641248324036, 1.358551297840909], [-0.3313456232256957, -0.2145711513583828, -0.8639380834389119], [-0.34290934666410655, -0.18418948764829113, -2.6467153328339945]]]" REF_nacs="_JSON [[[0.2898810816427414, -6.556520165607045e-11, -1.5326496788853946e-11], [0.6175779690842017, -5.134034959401577e-11, 1.3497102244634058e-11], [0.6853902461334112, -2.6434267319092355e-10, -2.379312118290744e-10]], [[0.289801745797195, -8.841540453321252e-12, 1.448238665080568e-10], [-0.6175744268111681, -1.329864211786401e-11, -3.084958763045414e-11], [0.6854731314759096, -4.0766184990116157e-10, 5.196327050168633e-10]], [[-0.05791204262615619, 0.006648847404295106, 0.14847645610524549], [-0.020696014315296638, 0.013284815809768914, -0.16144363869821537], [-0.2995006300616125, -0.006568583330568625, 0.07369359110608527]], [[-0.05790421328396497, -0.11588056756680652, -0.09307985054497614], [0.020694242906967468, -0.13811365223232033, -0.08465684901441822], [-0.29950866947941823, -0.06332918025603258, -0.03816221977604907]], [[-0.05790421322153258, 0.11588056764631827, 0.09307985040995444], [0.020694242987571658, 0.13811365224569636, 0.0846568490287739], [-0.29950866974922197, 0.0633291804902182, 0.038162219317722644]], [[-0.057912042653780395, -0.00664884743175944, -0.1484764561238464], [-0.020696014289634915, -0.013284815758511698, 0.16144363870120246], [-0.2995006298463027, 0.0065685837572600336, -0.07369359094141549]]]" REF_dip_perm="_JSON [[2.0056401206796322e-10, 2.0904793119576675e-11, 2.8518459929485236e-11], [-2.215187718278018e-09, 2.7623224291459345e-11, 2.7186016189167633e-11], [1.764301248214606e-05, 2.9026454105481323e-11, 2.7995892150079428e-11]]" REF_dip_trans="_JSON [[-0.5129859056008275, -1.770797251648288e-11, 7.43663111170465e-12], [0.0, 0.0, 0.0], [-1.0329783047982528, -3.5657791348022446e-11, 1.4974812441388645e-11]]" pbc="F F F"
C        0.00000000       0.00000000       0.00000000
C        1.51222319       0.00000000       0.00000000
H       -0.56503637       0.92382805       0.00000000
H        2.07725956      -0.54572046       0.74541763
H        2.07725956       0.54572046      -0.74541763
H       -0.56503637      -0.92382805      -0.00000000
6
Properties=species:S:1:pos:R:3 REF_energy="_JSON [[-2122.3160718990107, -2114.411645356237, -2108.9678190071572]]" REF_forces="_JSON [[[-13.10078101394439, 3.649018822052036e-11, 1.7380617890913965e-10], [-13.264171749702024, 3.053787941922253e-11, 2.6837806138585354e-10], [-22.226047570511888, 1.4779131804565574e-11, 1.750409446618703e-10]], [[13.100781019337694, -1.1562190503930064e-11, -1.7972032912366746e-10], [13.264171774461802, -2.7414467534299948e-11, -2.801904516428186e-10], [22.22604758731024, -1.0337022617910233e-11, -1.8840219795498647e-10]], [[-0.30174579635449517, -0.007865609161303522, 1.281659220857167], [-1.2004551875960479, 0.31064915142020416, -1.8833316975423122], [-1.4737865734155984, 0.3864677775745642, -4.739211886847147]], [[0.3017457935597017, 0.6620760675412307, -1.0974367861034302], [1.2004551751052062, -0.7177438397414209, 1.768695826808534], [1.4737865649206008, -2.143300272206414, 4.244496493669503]], [[0.30174579369482246, -0.6620760676147283, 1.0974367861092047], [1.2004551752486738, 0.7177438396801514, -1.7686958268002242], [1.4737865650417257, 2.143300272138434, -4.244496493656966]], [[-0.30174579629554393, 0.00786560920935045, -1.2816592208568944], [-1.2004551875193057, -0.3106491513619265, 1.8833316975456187], [-1.473786573345438, -0.38646777751018946, 4.739211886847898]]]" REF_nacs="_JSON [[[-0.3657697980935383, 2.53548008828969e-12, -4.324612338206715e-12], [0.4137176014042725, 7.000970809085306e-13, 1.7151822349076818e-12], [-0.3219002684383637, 3.3889153202613737e-12, -3.000651981344697e-12]], [[-0.36576974856053224, 2.1394675386963663e-12, 5.572643064302135e-12], [-0.41371740937267143, -2.122724954796372e-12, -2.05890048904649e-12], [-0.32190021816087167, -1.7639612840115374e-13, 2.095132350115471e-12]], [[0.09045323677909399, -0.04273490203536374, 0.19743025594546804], [-0.020752920118684345, 0.012513347660557263, 0.032646006173898984], [0.0875035125912046, -0.04915469687387701, 0.15684749839916295]], [[0.09045328123449481, -0.0665661285971319, 0.19071952594485972], [0.02075282411140439, 0.027709688020169345, -0.021319407581803725], [0.08750352849204468, -0.039913088436985704, 0.15944989749357552]], [[0.09045328123511842, 0.06656612859599353, -0.1907195259421253], [0.020752824111449554, -0.027709688018859008, 0.021319407582132723], [0.08750352849114516, 0.03991308843898806, -0.1594498974894939]], [[0.09045323678170332, 0.04273490203381737, -0.19743025595018482], [-0.020752920118112514, -0.012513347660444579, -0.0326460061738833], [0.08750351259126128, 0.049154696870246664, -0.15684749840292125]]]" REF_dip_perm="_JSON [[-4.040635642513137e-10, 5.398062702961697e-13, 1.35320071545974e-12], [-3.213895940512948e-10, -3.104802109274444e-12, 5.821529979181386e-13], [-4.752660266245357e-10, -1.862985362731879e-12, 6.183163538076961e-13]]" REF_dip_trans="_JSON [[0.39005479149712874, -1.4708621381677697e-12, -1.296916678290921e-14], [0.0, 0.0, 0.0], [0.4908790698912359, -1.8510584746510804e-12, -1.6376694155241084e-14]]" pbc="F F F"
C        0.00000000       0.00000000       0.00000000
C        1.19876064       0.00000000       0.00000000
H       -0.56503637       0.92382805       0.00000000
H        1.76379701       0.78808089       0.48206512
H        1.76379701      -0.78808089      -0.48206512
H       -0.56503637      -0.92382805      -0.00000000
6
Properties=species:S:1:pos:R:3 REF_energy="_JSON [[-2122.9637948608756, -2114.667949945428, -2109.2320709537507]]" REF_forces="_JSON [[[-8.397361075969735, 9.297634342936901e-10, 9.082641646546677e-10], [-9.10486328226959, 9.527935922127752e-10, 1.8348338833314235e-09], [-19.392606952457253, 1.0074423291616215e-09, 9.310995297318898e-10]], [[8.397242510344169, -3.332447076953565e-10, -1.1025300505640935e-09], [9.10509914763788, -5.514333717594587e-10, -2.057896941084522e-09], [19.392822044961086, -2.9270286711749166e-10, -1.2151707947759854e-09]], [[-0.16693687295063012, -0.023168509240298178, -1.078680794010049], [-1.0182454696425287, 0.24731820628581352, 1.9291847523817687], [-1.147330653123062, 0.21489558924197383, 4.313994093912298]], [[0.16699615559173717, -0.4624909900751686, -0.9748090283359117], [1.018127536721534, 0.6430940619987613, 1.835636053962325], [1.1472231067771512, 1.7398707200454677, 3.953634579148842]], [[0.1669961559179037, 0.4624909901139444, 0.974809028799528], [1.0181275371233924, -0.6430940618743919, -1.8356360534902039], [1.1472231069730023, -1.7398707200997947, -3.95363457861578]], [[-0.1669368729328751, 0.023168508604864073, 1.0786807937406178], [-1.0182454695716228, -0.24731820681241093, -1.9291847526308161], [-1.1473306531295258, -0.21489558990216223, -4.313994094161324]]]" REF_nacs="_JSON [[[0.39166687666114547, 1.9357305825585824e-12, 2.2272490423132834e-11], [0.4602443074815246, 3.707705207623951e-12, 1.336770100436332e-11], [0.3218314926027241, 1.7179030417805627e-11, 1.3502262423863564e-11]], [[0.3914801158589585, 1.1307868953077718e-11, -2.7785202508215837e-11], [-0.46023836157301384, 6.6590149853514735e-12, -1.9833320663127683e-11], [0.3221402577995301, -4.350479181880264e-12, 1.3493296802975802e-12]], [[-0.0745237677325534, 0.033378986495981665, 0.18579260278202], [-0.024513413749406042, 0.014989677077094652, -0.01820094921106596], [-0.06702923746040888, 0.034467956415690025, 0.14392554814933536]], [[-0.07450169678965289, -0.05338563572823701, -0.18103326729961158], [0.02451044079912702, -0.021544392862201653, -0.009570552209024457], [-0.06705287790298005, -0.03363131847488533, -0.14411492214302724]], [[-0.0745016968097388, 0.05338563572895889, 0.18103326729975047], [0.024510440796931154, 0.02154439285625185, 0.00957055221600212], [-0.06705287788746256, 0.03363131850961246, 0.14411492212073546]], [[-0.07452376771032322, -0.03337898650308684, -0.1857926027707495], [-0.02451341375293813, -0.014989677081512021, 0.018200949210553128], [-0.06702923747290206, -0.03446795645792219, -0.1439255481373288]]]" REF_dip_perm="_JSON [[7.842888772110078e-10, -2.6315763871272694e-12, -1.7069853479475065e-12], [5.387444791906041e-10, 2.478969939994019e-11, -8.194320808618845e-12], [4.100387416493004e-05, 1.4062902707380197e-11, -6.224386016293036e-12]]" REF_dip_trans="_JSON [[-0.48752913578520435, -4.469486246986907e-12, -2.888507363776074e-12], [0.0, 0.0, 0.0], [-0.6293074291245853, -5.769252301135197e-12, -3.728528961771902e-12]]" pbc="F F F"
C        0.00000000       0.00000000       0.00000000
C        1.24044972       0.00000000       0.00000000
H       -0.56503637       0.92382805       0.00000000
H        1.80548609      -0.82599503       0.41375170
H        1.80548609       0.82599503      -0.41375170
H       -0.56503637      -0.92382805      -0.00000000
6
Properties=species:S:1:pos:R:3 REF_energy="_JSON [[-2122.257046321016, -2116.2357725913903, -2114.088001294279]]" REF_forces="_JSON [[[3.2496754493493687, -5.551354830555641e-10, -2.3264874339444106e-09], [4.872530106797156, 1.3784223132653351e-08, -5.769995097659607e-09], [-0.290789355951432, -8.596358722876439e-10, -2.585343426046178e-09]], [[-3.249675475024371, -5.0617639063936025e-09, -2.887140029155528e-09], [-4.872529882179664, 2.163018372273973e-09, 1.1006223551855563e-08], [0.29078939131720244, -4.571722546306895e-09, -2.0933699270529127e-09]], [[0.1527646226963086, 0.05284957408651351, 1.4276913146029278], [-0.4476328962517694, 0.20830047881949398, -1.035798814281692], [-0.4731846245322043, 0.17331874288831647, -3.014154207996078]], [[-0.15276461139316955, 1.114654391664008, -0.8936672530691216], [0.4476327823636531, -0.6473943537768126, 0.8349543415505857], [0.4731846052417116, -2.1669584892396414, 2.102250154008392]], [[-0.15276461068040106, -1.1146543868731784, 0.8936672568709917], [0.4476327898373461, 0.6473943499528313, -0.8349543482295049], [0.4731846060523203, 2.166958493701519, -2.1022501507483513]], [[0.15276462505196586, -0.052849573260444226, -1.4276913131913662], [-0.44763290056725685, -0.20830049094341566, 1.0357988157246774], [-0.47318462212758655, -0.17331874191892874, 3.0141542094148286]]]" REF_nacs="_JSON [[[-0.3133710016387318, 6.120477662199989e-12, 5.678587247837353e-12], [0.5941838144060658, -4.961974145200234e-11, -3.551033780725083e-11], [-0.5187941553782286, 7.289712852424936e-11, 8.78147265851824e-12]], [[-0.3133715210676897, -1.0111147246354202e-10, -3.6533424494909096e-11], [-0.594183713961419, -9.269414400058579e-11, 9.526756587208872e-12], [-0.5187952892205031, -7.944437173245385e-11, -3.450439863452529e-10]], [[0.06171608408491804, -0.010798596153062745, 0.15520912483541102], [-0.021707125707923304, 0.013331020731732007, 0.12128618609149487], [0.20581359656455506, -0.009003231446468862, 0.08750772438130819]], [[0.06171608478344472, -0.11035870707708391, 0.10966966367103892], [0.021707075517917066, 0.1004746697933026, -0.06923073584786382], [0.20581468384614146, -0.06031477033062601, 0.06403788174170522]], [[0.061716084814002724, 0.1103587071767063, -0.10966966366075409], [0.021707069694257737, -0.10047466996113126, 0.06923073639801922], [0.20581468395727437, 0.06031477038646212, -0.06403788142179065]], [[0.06171608405530206, 0.010798596137886696, -0.15520912482092777], [-0.0217071198853311, -0.013331020421593745, -0.12128618661566558], [0.20581359647392378, 0.009003231391236004, -0.0875077243683904]]]" REF_dip_perm="_JSON [[-1.3087928639269674e-10, 7.970511899112371e-12, -5.9258353407281235e-12], [1.589980132000867e-10, 5.1090889667803166e-12, -6.181706177735988e-12], [-4.348971451796008e-10, 5.1255363191998615e-12, -5.916050207010165e-12]]" REF_dip_trans="_JSON [[0.5302174247901907, 6.339665222490457e-12, -9.342463364727536e-13], [0.0, 0.0, 0.0], [0.9397439585133014, 1.1236409715506224e-11, -1.6558380006595834e-12]]" pbc="F F F"
C        0.00000000       0.00000000       0.00000000
C        1.45609672       0.00000000       0.00000000
H       -0.56503637       0.92382805       0.00000000
H        2.02113309       0.60414438       0.69890474
H        2.02113309      -0.60414438      -0.69890474
H       -0.56503637      -0.92382805      -0.00000000
6
Properties=species:S:1:pos:R:3 REF_energy="_JSON [[-2120.9680971157, -2117.063481456519, -2116.502383765152]]" REF_forces="_JSON [[[-0.9273159457175424, 3.0912163275865887e-12, 7.191801705946598e-13], [3.881232956835193, 6.04685959802522e-12, 1.548829029575523e-12], [2.438965748581831, 6.987790273948264e-12, 2.0253945963659067e-12]], [[0.9273405175045552, -1.76683103510646e-12, -3.0153142111035705e-12], [-3.8811187829182208, -1.055146666092065e-12, -6.174061654748631e-12], [-2.43887903093713, -1.8642400873334053e-12, -7.288242686311366e-12]], [[-0.06693202709819501, 0.07630879602728158, -1.3982057678762905], [-0.6174825033052576, 0.2444808240446877, 0.39215664730878963], [-0.6379549486965832, 0.2625403097898952, 2.0695145834382207]], [[0.06691974120465466, -1.3769450404532866, -0.25477987326904294], [0.6174254163494197, 0.32376495995021387, 0.32961052833468635], [0.6379115898765392, 1.9497260298168906, 0.7417697906452047]], [[0.0669197412057623, 1.376945040452541, 0.25477987326975055], [0.6174254163493837, -0.3237649599513102, -0.3296105283314889], [0.6379115898754645, -1.9497260298184538, -0.7417697906418468]], [[-0.06693202709996496, -0.07630879602828637, 1.3982057678776993], [-0.6174825033089908, -0.24448082404831864, -0.3921566473073066], [-0.6379549487003164, -0.26254030979364024, -2.069514583436796]]]" REF_nacs="_JSON [[[0.1774977785324093, 1.611205457109695e-14, -6.626610847592784e-14], [-0.6139514579360738, -3.3574454476825714e-14, -3.1380558524476424e-15], [-2.0714069841148026, -6.20187493717384e-13, -2.156545827852546e-14]], [[0.1776874692151319, -3.242610515784519e-14, 9.64338007117388e-15], [0.6139416234471671, 1.6220014409213782e-14, 2.0432773002691408e-14], [-2.0713773197656833, 9.781451494694613e-14, -8.16431074120831e-13]], [[-0.05809280198639259, 0.009861331566341539, 0.19309885569328264], [0.018899137500422568, -0.010939088953031938, 0.5228375022901245], [1.0259358820491478, -0.12209545830225313, -0.06097933508747881]], [[-0.05804850010450179, -0.1853641032328807, -0.05497027479632578], [-0.018894220263326232, 0.5107265184553684, 0.11237772149607353], [1.025995944824395, 0.030577814498741113, 0.13310592884696887]], [[-0.058048500104472316, 0.18536410323290622, 0.05497027479633826], [-0.018894220263333112, -0.5107265184553477, -0.1123777214960809], [1.0259959448243514, -0.030577814498622246, -0.13310592884640307]], [[-0.05809280198642604, -0.009861331566337438, -0.1930988556932354], [0.018899137500424837, 0.010939088953049436, -0.5228375022901397], [1.0259358820491309, 0.12209545830265263, 0.060979335087768316]]]" REF_dip_perm="_JSON [[-4.941284333234068e-10, -2.884740697787614e-14, 3.571990195723304e-14], [-3.0131966021276087e-10, -2.7612814574738118e-14, 2.526230053908409e-14], [-1.860112280916819e-05, -2.115046243419773e-14, 2.479386328662868e-14]]" REF_dip_trans="_JSON [[-0.26317669222027607, 7.468653794342433e-15, 5.081915854736252e-15], [0.0, 0.0, 0.0], [0.831052695164739, -2.361768988097875e-14, -1.602419132909479e-14]]" pbc="F F F"
C        0.00000000       0.00000000       0.00000000
C        1.40308550       0.00000000       0.00000000
H       -0.56503637       0.92382805       0.00000000
H        1.96812187      -0.21731134       0.89790537
H        1.96812187       0.21731134      -0.89790537
H       -0.56503637      -0.92382805      -0.00000000
6
Properties=species:S:1:pos:R:3 REF_energy="_JSON [[-2122.7884044164834, -2112.65096854256, -2105.3935335195947]]" REF_forces="_JSON [[[-14.857230134139082, -1.959224115498958e-09, 8.986148144388196e-10], [-15.99780000628302, -5.054476613933997e-09, -1.4716847973815409e-09], [-33.04034106047243, -5.064798430103888e-10, 1.1967011239559543e-09]], [[14.85729137369097, 1.7926947454303743e-09, 1.3604259056103742e-09], [15.997758634324184, 4.463280293661486e-09, 3.811275645299517e-09], [33.040304865984524, 1.2712650638212088e-09, 1.6616661977205187e-09]], [[-0.20349104636801482, -0.08580882162819159, 0.47011238476990336], [-1.1533797462543873, 0.20108540603957797, -2.424507580405416], [-0.9131157058464088, -0.10483112979393129, -3.7709407887726885]], [[0.2034604270597571, -0.012410359403173187, -0.4776931448617295], [1.1534004334093184, -0.1747070133096143, 2.4265570492101363], [0.9131338028213192, -0.684685055037541, 3.709793715564349]], [[0.20346042656053984, 0.012410359015737839, 0.4776931438459333], [1.1534004320519815, 0.17470701243147913, -2.426557050237431], [0.9131338033436593, 0.6846850537117772, -3.7097937169461632]], [[-0.2034910468065119, 0.08580882218166735, -0.47011238601310124], [-1.1533797472468075, -0.20108540457049326, 2.424507579093161], [-0.9131157058315067, 0.10483113035555951, 3.770940787295918]]]" REF_nacs="_JSON [[[-0.4724953091258138, -3.496398748324548e-11, 2.124114990750748e-10], [0.5945601916425095, -1.6970351998773752e-10, -3.7780074993884637e-11], [-0.33069563983807654, -6.836605189742035e-11, 1.3707305694265304e-10]], [[-0.4725168223022295, -2.4655993060588413e-11, -2.175616889662175e-10], [-0.594555257976664, 1.6958129969314492e-10, 1.7780884450018822e-11], [-0.33058543711143634, -4.629081872632219e-11, -1.3083103851055125e-10]], [[0.057044599825561856, -0.031091468395045865, 0.19531897785134797], [-0.03929060883788862, 0.024115603922285372, -0.033422493648820446], [0.02058947050603844, -0.02104888318324739, 0.15774137878490424]], [[0.057048817595634606, 0.0006352862274493596, 0.19780306219249597], [0.039288142070651774, 0.018681046398953457, 0.03673902378644561], [0.020584269011397413, -0.0035186507986314447, 0.1590970194133046]], [[0.057048817658867865, -0.0006352862120086001, -0.19780306233618883], [0.039288142051194776, -0.01868104646249106, -0.036739023783296576], [0.020584269026651662, 0.003518650836973856, -0.1590970195212327]], [[0.057044599753693484, 0.031091468398059412, -0.1953189776727462], [-0.0392906088564444, -0.024115603858626548, 0.03342249366567019], [0.020589470490753957, 0.021048883226313684, -0.15774137865918247]]]" REF_dip_perm="_JSON [[-1.2148972191014613e-10, -6.452775201156851e-12, 2.0791119012980826e-11], [7.961351348397689e-11, 1.4378317124033504e-11, 2.3790366594701983e-11], [1.816953595390594e-05, 1.61891914448589e-12, 3.829734781740991e-11]]" REF_dip_trans="_JSON [[0.580302883580195, 3.151994052768894e-11, -1.0308196322031996e-11], [0.0, 0.0, 0.0], [0.7185207218313974, 3.902747244251428e-11, -1.2763231650468975e-11]]" pbc="F F F"
C        0.00000000       0.00000000       0.00000000
C        1.18800596       0.00000000       0.00000000
H       -0.56503637       0.92382805       0.00000000
H        1.75304233       0.91279236       0.14236704
H        1.75304233      -0.91279236      -0.14236704
H       -0.56503637      -0.92382805      -0.00000000
6
Properties=species:S:1:pos:R:3 REF_energy="_JSON [[-2117.668489617286, -2112.9149600761893, -2109.9172305241664]]" REF_forces="_JSON [[[-34.51589152150189, 1.6519613649217016e-10, -2.3486552365961567e-09], [-32.8208264021596, -7.852911148784776e-10, -3.2049953827419756e-09], [-36.008325227441496, -3.49474746874035e-11, -2.6645540509796374e-09]], [[34.515857947592885, -1.798740378968129e-10, 1.7329700794553659e-09], [32.820911712839106, 1.7060567636382017e-10, 2.5653327575930874e-09], [36.0083447712442, -2.5110497827223683e-10, 2.230556597725446e-09]], [[-0.9232236943787795, 0.16651229406180268, -2.5812716410511207], [-1.6029326090796099, 0.42701226404713305, 1.062398858356874], [-2.0038573570131955, 0.7002330356052195, 4.812889030340842]], [[0.9232404810483087, -2.333734176403187, -1.1152327105083304], [1.6028899533404741, 0.7186729823033049, 0.8914210024091158], [2.003847584640538, 3.858027495682551, 2.9612919794867136]], [[0.923240481296559, 2.333734176582403, 1.1152327105615574], [1.6028899535507033, -0.7186729820592351, -0.8914210023867575], [2.0038475851347917, -3.8580274953934253, -2.961291979705216]], [[-0.9232236940575459, -0.16651229422606176, 2.581271641613714], [-1.602932608489629, -0.427012263677213, -1.062398857739691], [-2.003857356563211, -0.7002330356080991, -4.812889029688374]]]" REF_nacs="_JSON [[[-0.383381039391343, 2.7291466179490134e-11, -5.3166969637375113e-11], [-0.34712533421241715, 3.351655311368547e-12, 6.6231983085189515e-12], [0.6321326310128843, -1.1989079475883955e-11, 1.175766034563748e-10]], [[-0.3834196442660583, -1.094683055010335e-11, 5.4522774397251e-11], [0.34711878370945365, 1.7007976898361443e-12, -9.893350024003247e-12], [0.6321707131469515, 3.076648993573606e-11, -1.140124732680723e-10]], [[0.17519428059426642, -0.08745701885318254, -0.22103467125290707], [0.006321601385569309, 0.0007396834411167047, 0.1444162168615693], [-0.30380352643268227, 0.16078094841417678, 0.16434654912505312]], [[0.17518732968803508, 0.1501836230644485, 0.18425059631865995], [-0.0063183261646617165, 0.12565051776845693, 0.0711729765453736], [-0.30379961639802155, -0.0649116178960346, -0.22056368865132933]], [[0.17518732968209397, -0.15018362307404584, -0.1842505963608424], [-0.006318326161993896, -0.12565051777336947, -0.07117297654353756], [-0.3037996163893269, 0.06491161787665584, 0.22056368870293586]], [[0.17519428062047107, 0.0874570188447982, 0.22103467129679405], [0.006321601384988898, -0.000739683441253054, -0.1444162168601312], [-0.30380352645036446, -0.1607809484123543, -0.1643465491824753]]]" REF_dip_perm="_JSON [[-1.9222582897425698e-09, -2.617835561055244e-12, -1.265113692564681e-10], [-1.597454308606711e-09, -1.498666096922226e-11, -1.045031461644409e-10], [2.9544857998198643e-05, -2.0724705020299373e-11, -1.0604170229583889e-10]]" REF_dip_trans="_JSON [[0.10800450563152794, -1.086707487356404e-12, 3.526658667032208e-12], [0.0, 0.0, 0.0], [-0.14527028295087957, 1.4617117540123186e-12, -4.743527825245051e-12]]" pbc="F F F"
C        0.00000000       0.00000000       0.00000000
C        1.08045926       0.00000000       0.00000000
H       -0.56503637       0.92382805       0.00000000
H        1.64549563      -0.45110473       0.80620270
H        1.64549563       0.45110473      -0.80620270
H       -0.56503637      -0.92382805      -0.00000000
6
Properties=species:S:1:pos:R:3 REF_energy="_JSON [[-2122.633423055837, -2114.7407594510137, -2111.991810539946]]" REF_forces="_JSON [[[6.358775811365706, -1.0688296334842874e-08, -3.4393301462942375e-09], [4.950753976632512, -1.6079050617052916e-09, -5.034686994569322e-09], [-1.9599157861823098, -4.764826522707409e-09, -3.8839409566167745e-09]], [[-6.358846517944348, -8.574637925291224e-09, 2.183282786111142e-11], [-4.950691493638522, 1.1363754083765666e-09, -3.9993094248258625e-09], [1.9597891654310944, -3.9722345436928893e-10, -3.756443583044328e-09]], [[0.36078543447722566, 0.0648503693178722, -0.786047925802897], [0.033268635541284355, 0.11293269715770687, 1.0437904214033846], [0.07332463636716914, 0.010131626196184898, 1.8676017846941046]], [[-0.3607500887228446, -0.353239097822189, -0.7051472044538343], [-0.03329987825587145, 0.2843285417356142, 1.0104887258705038], [-0.07326132882915967, 0.6866899427368216, 1.736906116668942]], [[-0.3607500826360613, 0.3532391073226894, 0.7051472030954021], [-0.03329987847161443, -0.2843285414667205, -1.010488722397843], [-0.073261326414003, -0.6866899396972376, -1.736906114562936]], [[0.36078544345985186, -0.06485035955555732, 0.7860479305787162], [0.03326863819154884, -0.11293269695499183, -1.0437904158418618], [0.07332463962750868, -0.010131624073671406, -1.8676017791598047]]]" REF_nacs="_JSON [[[0.43203998676635574, 8.667641159547985e-11, 1.5922064391762137e-10], [0.5172927113130328, -3.0329274073886905e-10, 1.7183990302259086e-09], [0.5038255805440401, 2.5996166074729466e-10, 2.4845220233245384e-10]], [[0.43201439258645036, 1.5769120523636176e-10, -1.4378719151912244e-10], [-0.5172913506027761, -9.092403006230784e-10, -1.573357598429895e-09], [0.5039831728966929, -6.788289278426792e-11, 6.375062905658478e-11]], [[-0.04010783328612253, 0.005776626599720669, 0.08924985998447638], [-0.013873861499904798, 0.011485616160567699, -0.011207431912673845], [-0.15372896849979176, -0.015991264301543347, 0.04981943347410304]], [[-0.040118973708679125, -0.027895596458692003, -0.0849724887505371], [0.013873124341573272, -0.01483167661894835, -0.0061445108906801405], [-0.15377212085814418, -0.03337538485191564, -0.04020175741998639]], [[-0.040118978800247215, 0.02789559674215281, 0.0849724892732312], [0.013873181034116623, 0.014831676055122952, 0.006144504828299135], [-0.1537721206502078, 0.03337538492982641, 0.040201757253749824]], [[-0.040107838824527516, -0.0057766270944724545, -0.08924986039854901], [-0.013873804814995297, -0.011485614384209305, 0.011207437830013118], [-0.15372896854329512, 0.015991264050018873, -0.04981943355081156]]]" REF_dip_perm="_JSON [[-1.3948812212115501e-10, -7.394021787090583e-12, -1.2567650997542533e-10], [-8.564906723894679e-10, 3.397731537809892e-11, -8.506404115921359e-11], [-4.249246365606611e-06, 2.8847406977876148e-11, -9.281719817318666e-11]]" REF_dip_trans="_JSON [[-0.7286101044881335, -9.959280946949281e-12, -4.3649608941861035e-11], [0.0, 0.0, 0.0], [-1.3050968371978915, -1.7839199045348367e-11, -7.818581908770727e-11]]" pbc="F F F"
C        0.00000000       0.00000000       0.00000000
C        1.56352811       0.00000000       0.00000000
H       -0.56503637       0.92382805       0.00000000
H        2.12856448      -0.85725533       0.34434222
H        2.12856448       0.85725533      -0.34434222
H       -0.56503637      -0.92382805      -0.00000000
6
Properties=species:S:1:pos:R:3 REF_energy="_JSON [[-2119.9346285388065, -2117.051296742085, -2116.8741794631355]]" REF_forces="_JSON [[[-9.077242276134454, -1.0442786062555387e-10, -6.6558830812249185e-09], [-3.344541727078574, -7.743224169164384e-11, -5.9037780159221745e-09], [-3.512772024055473, -6.113265331207752e-09, -6.5495913329440564e-09]], [[9.077242184006472, 7.763972009501523e-11, 4.900588154137233e-09], [3.344542830776676, 5.462512671731753e-11, 2.235760488340489e-09], [3.5127719121332053, 1.4469549495462618e-09, 4.529522941936012e-09]], [[-0.424808047573356, 0.12946700059883245, 0.1269928886734794], [-0.9276405567196755, 0.27654366824567367, -0.019908065836690962], [-0.9522368775456893, 0.3157099429501205, -0.16421288152606564]], [[0.42480809322406593, 0.12835855083681272, 0.12811326387693073], [0.927640004901966, -0.016974630143137683, 0.2767383546594351], [0.952236932080113, -0.1608560244722373, 0.3174335316888333]], [[0.4248080940515961, -0.12835855084318032, -0.12811326422718905], [0.9276400048335695, 0.01697463014972768, -0.2767383530265253], [0.9522369327366905, 0.16085602453912298, -0.3174335317493031]], [[-0.42480804757534246, -0.12946700056549193, -0.12699288656798385], [-0.9276405567149139, -0.27654366822966603, 0.01990806787228676], [-0.9522368753480592, -0.3157099383502222, 0.16421288360708636]]]" REF_nacs="_JSON [[[-0.014859068661252542, 7.756158336920158e-11, -4.832797928791245e-12], [-0.05637856309011106, -3.261653632280244e-11, -3.2188905418026544e-12], [8.283871315226051, 1.2112348329498278e-10, 5.672842165740638e-09]], [[-0.014859085288715735, -1.823533169462243e-11, 1.0676703485620695e-11], [0.05637856199962248, 1.397485058337277e-10, -3.7867087152245616e-13], [8.283872012022952, -9.544018485216983e-11, -4.07178718160797e-09]], [[0.006252841283794385, -0.0017283600165329844, 0.23336403577389464], [0.001620201510230132, -0.0007187113317809076, -1.0928915708229474], [-4.14192066422559, 1.1099084182101664, -0.005000174828164059]], [[0.006252657589022899, -0.23333252549348926, 0.004202659109793235], [-0.0016202009020658016, -1.0928377543212002, 0.010869792630719364], [-4.141900533414479, -0.0067622415019400585, -1.1098917086075748]], [[0.006252657584769352, 0.23333252546819905, -0.004202659116596362], [-0.0016202009071311294, 1.092837754295256, -0.010869792627807654], [-4.141900532522472, 0.006762241493525505, 1.1098917096537233]], [[0.0062528412922839794, 0.0017283599898166506, -0.23336403577256237], [0.0016202014002069604, 0.0007187112505951967, 1.0928915708236147], [-4.141920664175418, -1.1099084182278067, 0.005000172180908031]]]" REF_dip_perm="_JSON [[6.571029583110038e-10, -4.4133035011332167e-13, -2.5493396250295426e-10], [-2.17250787972097e-09, -2.5476740703541455e-12, -2.5491314306951177e-10], [3.0821089268221597e-09, -1.411890698334042e-12, -2.512281033501959e-10]]" REF_dip_trans="_JSON [[0.013278727090089131, -1.7555834491787547e-14, -4.647423983785184e-13], [0.0, 0.0, 0.0], [-0.6192731602743297, 8.182031400530184e-13, 2.1673284260628517e-11]]" pbc="F F F"
C        0.00000000       0.00000000       0.00000000
C        1.28184927       0.00000000       0.00000000
H       -0.56503637       0.92382805       0.00000000
H        1.84688564       0.00979580       0.92377611
H        1.84688564      -0.00979580      -0.92377611
H       -0.56503637      -0.92382805      -0.00000000
6
Properties=species:S:1:pos:R:3 REF_energy="_JSON [[-2120.038551271058, -2117.05423448332, -2116.792540951241]]" REF_forces="_JSON [[[-8.588740505767511, 1.332915835801031e-10, 6.388379585343654e-11], [-3.109693669585273, 7.753333330915406e-11, 5.201631990260694e-10], [-3.5583229166499746, 1.154661291332734e-10, 4.680724830394082e-10]], [[8.588764509126248, 3.131570079777124e-10, -8.508253322439819e-10], [3.1096842170356127, 2.2203934352897668e-10, -2.08840652109253e-09], [3.5583070395184286, 3.420799960524152e-11, -1.4976259410199352e-09]], [[-0.4121901730026906, 0.12697243782374204, -0.9402286610913247], [-0.9198281817747465, 0.2753538121060451, 0.1583580642943914], [-0.9465214798177205, 0.31386964041855087, 1.2355540843774384]], [[0.41217817136662954, -0.9475621921962064, 0.04698387220300119], [0.9198329080720944, 0.13449326110034956, 0.28777923104814385], [0.9465294182472432, 1.2046041069297582, 0.4172177521524617]], [[0.41217817119636446, 0.9475621922849763, -0.046983872306174165], [0.9198329078021646, -0.1344932610673001, -0.2877792304713523], [0.9465294182063678, -1.204604106854934, -0.41721775209313405]], [[-0.41219017291756954, -0.12697243835819524, 0.9402286619810449], [-0.9198281815495744, -0.2753538124388338, -0.15835806330287575], [-0.9465214795041127, -0.3138696406435086, -1.2355540834071708]]]" REF_nacs="_JSON [[[-0.11046946475410944, -1.3809131270904094e-10, -3.500400468137583e-11], [-0.4013320460822103, 1.438114504776218e-11, 5.605429596805214e-12], [5.482210740504422, 1.7331081424970955e-11, 9.088662199251472e-10]], [[-0.11041352561657297, 1.5641984589278145e-11, 5.297836977367887e-11], [0.4013258445272029, -4.382097855128101e-12, 5.456672069356887e-12], [5.48221331765777, 2.0029233390791896e-10, -1.0634372396192125e-09]], [[0.04586388242017651, -0.012644023409797995, -0.22954640862335945], [0.011620003842584251, -0.005252086333358682, 0.9710053265726302], [-2.7395751440513183, 0.7258653996099194, 0.03790670599077413]], [[0.04588917948405884, 0.2276555685408739, 0.032011536731897765], [-0.011616903005068515, 0.9679757154489788, 0.07684420666969553], [-2.7395515098814407, 0.02360347831045443, -0.7264446320387071]], [[0.04588917947120397, -0.22765556848533486, -0.03201153673961503], [-0.011616903004097479, -0.9679757154484118, -0.07684420668009376], [-2.7395515096657848, -0.023603478398760196, 0.726444632342318]], [[0.04586388241243166, 0.01264402344916713, 0.22954640861358955], [0.011620003840980064, 0.0052520863227826595, -0.9710053265733235], [-2.7395751439776004, -0.7258653997348284, -0.037906706139912254]]]" REF_dip_perm="_JSON [[5.166966991750362e-10, -7.244330060639279e-12, -1.3691900403435514e-11], [-3.431875408655531e-09, 1.3316317824133488e-12, -1.0483209321283181e-11], [3.775812449125013e-06, 9.901306156566352e-13, -4.400187258064465e-12]]" REF_dip_trans="_JSON [[0.1021089931296484, 3.8523786280278234e-13, 8.944135168007163e-13], [0.0, 0.0, 0.0], [-0.6184846015622357, -2.3334953249095984e-12, -5.417571975127285e-12]]" pbc="F F F"
C        0.00000000       0.00000000       0.00000000
C        1.28483345       0.00000000       0.00000000
H       -0.56503637       0.92382805       0.00000000
H        1.84986982      -0.07807877       0.92052266
H        1.84986982       0.07807877      -0.92052266
H       -0.56503637      -0.92382805      -0.00000000
6
Properties=species:S:1:pos:R:3 REF_energy="_JSON [[-2122.7105795803395, -2114.5891384244273, -2111.762831080373]]" REF_forces="_JSON [[[6.5518394757967044, -1.8886052419675124e-09, 5.145480497788752e-09], [4.51919240185809, -4.4205361364341487e-10, 1.889372295751625e-09], [-2.5538222169161062, -4.566569260908988e-09, 8.016293505294824e-09]], [[-6.551839954985168, -1.0448297568645649e-08, -2.1476400399792035e-09], [-4.519192185148906, -9.97989177992843e-09, -4.1610978377861106e-09], [2.5538221779606816, -1.1985922984921246e-08, -7.465111742410584e-09]], [[0.35297250791363155, 0.06921353018557655, 0.6889864036643095], [0.10158033436021313, 0.09052339176946601, -0.9598549878669242], [0.14029101061661572, -0.017120626391283103, -1.6039483468614626]], [[-0.3529722582424165, 0.27527243915927135, -0.635387983576761], [-0.10158043284315077, -0.20538291116717394, 0.9419840399839632], [-0.1402909814396829, -0.503629362024505, 1.5229251483745059]], [[-0.3529722640092337, -0.27527242899266796, 0.6353879855492085], [-0.10158043826232444, 0.20538292015477838, -0.9419840359056636], [-0.14029123297981758, 0.5036293714580967, -1.5229251302503921]], [[0.35297249352694926, -0.06921352801583837, -0.6889864086346689], [0.10158032003492563, -0.09052339033506955, 0.9598549860602974], [0.14029124275658772, 0.01712063350969359, 1.603948328186027]]]" REF_nacs="_JSON [[[0.44899274876807976, -3.2873102562673455e-11, 9.27579711107998e-11], [0.49681310339249746, 5.968443984942673e-11, -1.8235095833634885e-10], [0.5062807313389178, -2.9598140614726115e-10, 1.3195186767566465e-12]], [[0.44899290784670853, 2.702033195402789e-10, -1.1540227047377655e-10], [-0.49681310719461697, -2.4526741801302465e-11, -1.6119780782657447e-10], [0.50628096918612, 1.0459350869443051e-10, 4.950448540943786e-11]], [[-0.037035571952279314, 0.005619770371572506, -0.07655208845415751], [-0.010956031728339904, 0.01055299880388735, 0.0012033108499620794], [-0.14866344372228338, -0.016427309579415156, -0.04265237981508602]], [[-0.037035630344166535, 0.017904162793157243, -0.07464078364953596], [0.010956033728334045, 0.010419731656259965, 0.0020598263449979923], [-0.1486630393758304, 0.028609832275384082, -0.03564506818484198]], [[-0.03703562495767569, -0.017904162610132713, 0.07464078313286461], [0.01095603369993662, -0.010419731635451812, -0.002059826189924572], [-0.1486630390952051, -0.028609832327483264, 0.03564506806294973]], [[-0.03703557791376091, -0.005619770816878928, 0.07655208901732878], [-0.010956031742138968, -0.010552998859853271, -0.0012033106614868902], [-0.14866344415035965, 0.01642730980899689, 0.04265237989945095]]]" REF_dip_perm="_JSON [[4.733089998809442e-11, 3.266152718453529e-11, 1.6830221800552324e-11], [5.469681554003768e-10, 2.159599830986643e-11, 5.484879740416766e-11], [-4.845306745064316e-10, 2.499997567770906e-11, 3.7574913476956456e-11]]" REF_dip_trans="_JSON [[-0.7497362980958547, 1.4188461192028698e-11, -4.4103135031320394e-12], [0.0, 0.0, 0.0], [-1.3452332035014525, 2.5458018144662872e-11, -7.913347122391663e-12]]" pbc="F F F"
C        0.00000000       0.00000000       0.00000000
C        1.56671242       0.00000000       0.00000000
H       -0.56503637       0.92382805       0.00000000
H        2.13174879       0.88015700       0.28068117
H        2.13174879      -0.88015700      -0.28068117
H       -0.56503637      -0.92382805      -0.00000000
6
Properties=species:S:1:pos:R:3 REF_energy="_JSON [[-2118.056004516634, -2112.799173179631, -2109.2874545598397]]" REF_forces="_JSON [[[-34.066878980647104, -9.54705949745149e-09, -1.1630429438078625e-09], [-32.567665955566014, -8.732909867968424e-09, -1.6971920320218498e-09], [-36.16801332886419, -9.370340232543887e-09, -1.3957698713278502e-09]], [[34.06687807458525, 1.860897682465882e-09, 5.870376017726748e-09], [32.56766597575314, 2.4724879925128832e-09, 6.730841281150757e-09], [36.168013351621745, 2.0243888238662976e-09, 5.941539256829072e-09]], [[-0.8692171659674749, 0.13580681643268608, 2.4265124400292715], [-1.612464647919051, 0.4362281964160027, -1.2087244469623768], [-2.071102756344794, 0.7394777931219682, -4.965048429629417]], [[0.8692176188012329, 2.0980986826703623, -1.2265349782860555], [1.612464637813108, -0.7669217964361603, 1.0310871440462717], [2.071102744906218, -3.7313374247887268, 3.357924047350545]], [[0.8692176161812734, -2.098098685271476, 1.2265349734848339], [1.6124646353744678, 0.7669217935076839, -1.0310871492313747], [2.0711027422057726, 3.731337422129316, -3.357924052053982]], [[-0.8692171629535145, -0.13580680614507473, -2.426512439935241], [-1.6124646454559697, -0.43622818722762435, 1.2087244471139433], [-2.07110275352542, -0.7394777831163137, 4.96504842978662]]]" REF_nacs="_JSON [[[-0.36960781029681516, 2.3594699408682658e-11, -3.926868205585365e-11], [0.3234508048697621, -1.746857808488279e-11, 2.0895761821427476e-10], [-0.5379380619910755, 6.8318255239761655e-12, -3.4332445015650156e-11]], [[-0.36960788595993177, -1.9764826969660837e-11, 3.424427120196044e-11], [-0.32345078477479433, 1.559360665887717e-10, -1.3146220322124682e-10], [-0.5379380400107676, 7.595254959418061e-13, 4.195670494116231e-11]], [[0.165500302631633, -0.08430420362611973, 0.21820375206908427], [-0.006828161593227251, 0.0004265487587436187, 0.11196769530997189], [0.2540953669986914, -0.13862067219268126, 0.16816952291701867]], [[0.1655003552996492, -0.13538094925836763, 0.1907670910557423], [0.0068281515945119355, 0.09358903784175655, -0.06146575361924143], [0.25409431518026293, -0.06367510229552206, 0.208427691816692]], [[0.16550035528959023, 0.135380949273212, -0.19076709107377407], [0.006828149774200231, -0.09358903849653305, 0.06146575467432957], [0.25409431515762587, 0.06367510229637584, -0.2084276918352302]], [[0.16550030263774912, 0.08430420361241506, -0.2182037520435125], [-0.00682815978125967, -0.00042654824243099125, -0.11196769644255183], [0.2540953670161921, 0.13862067218806506, -0.16816952290417628]]]" REF_dip_perm="_JSON [[-3.0467158899699734e-09, 3.231592458939041e-11, -6.502117258415486e-11], [-2.748581603073909e-09, 2.5674525321244847e-11, -5.667674366041587e-11], [-3.6596400105160716e-09, 2.7400456353624997e-11, -5.705773929241293e-11]]" REF_dip_trans="_JSON [[0.1151782081139425, 1.0371367751144313e-12, -2.2453108638273364e-12], [0.0, 0.0, 0.0], [0.1494773380851144, 1.345885197450816e-12, -2.914030771290292e-12]]" pbc="F F F"
C        0.00000000       0.00000000       0.00000000
C        1.08160524       0.00000000       0.00000000
H       -0.56503637       0.92382805       0.00000000
H        1.64664161       0.51007863       0.77024546
H        1.64664161      -0.51007863      -0.77024546
H       -0.56503637      -0.92382805      -0.00000000
