           6
  t=         0.00000    2    2
C       0.003451251     -0.059316072     -0.019221288
C       1.342141651      0.066462070      0.020724220
H      -0.372665732     -1.028556522      0.162426648
H       1.722678201      0.918517788      0.010284268
H       1.929943822     -0.862823120     -0.171374188
H      -0.613847343      0.887775709     -0.019231797
           6
  t=         0.50000    2    2
C       0.004387951     -0.059240976     -0.019141441
C       1.341089693      0.066239718      0.020613180
H      -0.373377510     -1.029119516      0.162808442
H       1.724479208      0.920833951      0.011872806
H       1.930245656     -0.862693170     -0.171628074
H      -0.613865027      0.887647253     -0.020576548
           6
  t=         1.00000    2    2
C       0.004994112     -0.059019476     -0.018904055
C       1.340140477      0.065581115      0.020285427
H      -0.375501618     -1.030770884      0.165048952
H       1.729839454      0.928765954      0.016618983
H       1.931154002     -0.862287622     -0.173506631
H      -0.613921779      0.886169450     -0.024607901
           6
  t=         1.50000    2    2
C       0.005260087     -0.058660764     -0.018513533
C       1.339316830      0.064509835      0.019753150
H      -0.379002491     -1.033412083      0.169167286
H       1.738596454      0.941963116      0.024491886
H       1.932666798     -0.861558651     -0.177078757
H      -0.614045668      0.883375241     -0.031337913
           6
  t=         2.00000    2    2
C       0.005182384     -0.058178999     -0.017975168
C       1.338646676      0.063067350      0.019032170
H      -0.383824324     -1.036891242      0.175202902
H       1.750459809      0.959814265      0.035464919
H       1.934778992     -0.860433897     -0.182449595
H      -0.614288162      0.879326122     -0.040799735
           6
  t=         2.50000    2    2
C       0.004764773     -0.057592608     -0.017293707
C       1.338162623      0.061315828      0.018138579
H      -0.389899657     -1.041009782      0.183235373
H       1.765007016      0.981430136      0.049545730
H       1.937485803     -0.858824866     -0.189765804
H      -0.614722918      0.874103083     -0.053069133
           6
  t=         3.00000    2    2
C       0.004020889     -0.056923655     -0.016472210
C       1.337898579      0.059337545      0.017086492
H      -0.397158015     -1.045528285      0.193403189
H       1.781695527      1.005667110      0.066795260
H       1.940785644     -0.856636375     -0.199221173
H      -0.615442772      0.867797667     -0.068283483
           6
  t=         3.50000    2    2
C       0.002978812     -0.056197802     -0.015511548
C       1.337880635      0.057226896      0.015886900
H      -0.405530335     -1.050170866      0.205902801
H       1.799914757      1.031240251      0.087320728
H       1.944681156     -0.853776917     -0.211044219
H      -0.616554322      0.860508440     -0.086638491
           6
  t=         4.00000    2    2
C       0.001682378     -0.055444901     -0.014410919
C       1.338117856      0.055076903      0.014546756
H      -0.414957022     -1.054628738      0.220984944
H       1.819081987      1.056902446      0.111269136
H       1.949183990     -0.850162473     -0.225482947
H      -0.618176464      0.852336957     -0.108376327
           6
  t=         4.50000    2    2
C       0.000190650     -0.054699022     -0.013168472
C       1.338595939      0.052968482      0.013067328
H      -0.425397967     -1.058570074      0.238928401
H       1.838728737      1.081587124      0.138808893
H       1.954321031     -0.845715602     -0.242766654
H      -0.620441035      0.843382359     -0.133752051
           6
  t=         5.00000    2    2
C      -0.001421221     -0.053997033     -0.011781964
C       1.339272309      0.050964726      0.011442975
H      -0.436835432     -1.061657028      0.259995720
H       1.858546450      1.104482353      0.170099135
H       1.960134846     -0.840365221     -0.263056081
H      -0.623487983      0.833735140     -0.162986101
           6
  t=         5.50000    2    2
C      -0.003066717     -0.053376635     -0.010250706
C       1.340079460      0.049109614      0.009662883
H      -0.449267412     -1.063556304      0.284370496
H       1.878392097      1.125038128      0.205233314
H       1.966676640     -0.834038316     -0.286388388
H      -0.627453993      0.823464172     -0.196197717
           6
  t=         6.00000    2    2
C      -0.004657047     -0.052874527     -0.008577417
C       1.340936269      0.047433102      0.007714813
H      -0.462699574     -1.063938550      0.312131800
H       1.898250539      1.142886499      0.244208954
H       1.973999167     -0.826643808     -0.312669667
H      -0.632462415      0.812597359     -0.233379195
           6
  t=         6.50000    2    2
C      -0.006121243     -0.052523084     -0.006767557
C       1.341773110      0.045960272      0.005589057
H      -0.477123124     -1.062483538      0.343151046
H       1.918148784      1.157710495      0.286822736
H       1.982135455     -0.818059793     -0.341601833
H      -0.638598040      0.801096420     -0.274315938
           6
  t=         7.00000    2    2
C      -0.007402324     -0.052348218     -0.004829101
C       1.342534125      0.044718905      0.003281439
H      -0.492508397     -1.058882019      0.377143136
H       1.938079996      1.169125701      0.332697268
H       1.991095385     -0.808129678     -0.372745030
H      -0.645906969      0.788857664     -0.318640553
           6
  t=         7.50000    2    2
C      -0.008449421     -0.052366606     -0.002773710
C       1.343173610      0.043742764      0.000797519
H      -0.508798108     -1.052855507      0.413706795
H       1.957943637      1.176630063      0.381285403
H       2.000856293     -0.796675757     -0.405566914
H      -0.654384832      0.775723345     -0.365864251
           6
  t=         8.00000    2    2
C      -0.009227089     -0.052583496     -0.000616345
C       1.343668122      0.043072147     -0.001844275
H      -0.525917593     -1.044148906      0.452377215
H       1.977519520      1.179579090      0.431896650
H       2.011358837     -0.783486688     -0.439510310
H      -0.663969782      0.761453885     -0.415430227
           6
  t=         8.50000    2    2
C      -0.009731720     -0.052995094      0.001627175
C       1.344035437      0.042753054     -0.004612253
H      -0.543771950     -1.032452770      0.492717616
H       1.996448721      1.177159457      0.483785636
H       2.022477705     -0.768270555     -0.474102976
H      -0.674527280      0.745667942     -0.466817671
           6
  t=         9.00000    2    2
C      -0.009987827     -0.053591342      0.003942532
C       1.344333968      0.042833308     -0.007466687
H      -0.562235801     -1.017314670      0.534417968
H       2.014220497      1.168408382      0.536285436
H       2.033948897     -0.750614536     -0.509058316
H      -0.685811911      0.727773311     -0.519639023
           6
  t=         9.50000    2    2
C      -0.010048344     -0.054363241      0.006317687
C       1.344671438      0.043356521     -0.010371502
H      -0.581132875     -0.997865057      0.577430264
H       2.030141333      1.152163872      0.589047733
H       2.045186374     -0.729816365     -0.544414186
H      -0.697373234      0.706733296     -0.573746492
           6
  t=        10.00000    2    2
C      -0.009886888     -0.055291658      0.008710255
C       1.345067887      0.044330115     -0.013284181
H      -0.600381976     -0.973583182      0.621487530
H       2.043675878      1.127907006      0.641524375
H       2.055642263     -0.705446411     -0.579976565
H      -0.708762374      0.681800019     -0.628520544
           6
  t=        10.50000    3    3
C      -0.009449744     -0.056353665      0.011059011
C       1.345526110      0.045744929     -0.016145418
H      -0.619915305     -0.944428368      0.666053750
H       2.054228109      1.095656805      0.692836198
H       2.064815156     -0.677525259     -0.615322700
H      -0.719623071      0.652770315     -0.682945889
           6
  t=        11.00000    3    3
C      -0.009093271     -0.057406412      0.013063960
C       1.345999385      0.047264180     -0.018582921
H      -0.636294424     -0.914011364      0.704129311
H       2.061636488      1.060635758      0.735596937
H       2.072129553     -0.649070451     -0.644956705
H      -0.727853746      0.623360848     -0.728994005
           6
  t=        11.50000    3    3
C      -0.009081610     -0.058541075      0.015008792
C       1.346543929      0.048956666     -0.020870570
H      -0.650455041     -0.879433451      0.739148118
H       2.067819478      1.019676678      0.773885613
H       2.079534226     -0.616740530     -0.671550298
H      -0.733908342      0.590765248     -0.771623002
           6
  t=        12.00000    3    3
C      -0.009411375     -0.059741888      0.016895339
C       1.347169921      0.050837398     -0.022966505
H      -0.662392155     -0.841147300      0.770994858
H       2.072505899      0.972916351      0.807184246
H       2.087183297     -0.580942079     -0.695088800
H      -0.737836467      0.555339277     -0.810734875
           6
  t=        12.50000    3    3
C      -0.010077247     -0.061009292      0.018701472
C       1.347877999      0.052886837     -0.024862794
H      -0.672058191     -0.799154886      0.799379712
H       2.075709081      0.920700773      0.835301961
H       2.094806866     -0.541729101     -0.715369034
H      -0.739500094      0.517030997     -0.845882942
           6
  t=        13.00000    3    3
C      -0.011077908     -0.062354153      0.020377807
C       1.348671890      0.055050091     -0.026567624
H      -0.679259143     -0.753435807      0.823561345
H       2.077599103      0.863884780      0.858063572
H       2.101744109     -0.499225892     -0.731811626
H      -0.738662599      0.475872988     -0.876044061
           6
  t=        13.50000    3    3
C      -0.012426549     -0.063790532      0.021857497
C       1.349585637      0.057267179     -0.028071030
H      -0.683683332     -0.704438656      0.842352956
H       2.078241082      0.803959169      0.875034180
H       2.107218797     -0.454196162     -0.743619433
H      -0.735173026      0.432469039     -0.899715878
           6
  t=        14.00000    3    3
C      -0.014146709     -0.065319663      0.023078840
C       1.350691971      0.059524923     -0.029307349
H      -0.685199117     -0.653339307      0.854752128
H       2.077351368      0.742689222      0.885552561
H       2.110942932     -0.408295609     -0.750478045
H      -0.729177508      0.388057176     -0.915596384
           6
  t=        14.50000    3    3
C      -0.016247672     -0.066916437      0.023997097
C       1.352059135      0.061854170     -0.030175749
H      -0.684071107     -0.601711248      0.860636789
H       2.074454135      0.681618937      0.889231705
H       2.113328771     -0.363501577     -0.753011441
H      -0.721050424      0.343977458     -0.923220866
           6
  t=        15.00000    3    3
C      -0.018702620     -0.068533903      0.024570972
C       1.353725656      0.064285682     -0.030582523
H      -0.680882709     -0.551253510      0.860720519
H       2.069132603      0.622128884      0.886181292
H       2.115051081     -0.321634984     -0.752413771
H      -0.711244961      0.301443279     -0.922842980
           6
  t=        15.50000    3    3
C      -0.021455188     -0.070117976      0.024758442
C       1.355710029      0.066831547     -0.030461467
H      -0.676377097     -0.503728929      0.856169721
H       2.061119716      0.565616310      0.876842199
H       2.116731198     -0.284306090     -0.749933889
H      -0.700264241      0.261641964     -0.915109255
           6
  t=        16.00000    3    3
C      -0.024441545     -0.071626001      0.024541061
C       1.358025577      0.069483936     -0.029790459
H      -0.671317513     -0.460684141      0.848371822
H       2.050335015      0.513330812      0.861911801
H       2.118896927     -0.252716132     -0.746642420
H      -0.688711707      0.225656851     -0.901077705
           6
  t=        16.50000    3    3
C      -0.027603007     -0.073035964      0.023939687
C       1.360680225      0.072212831     -0.028600675
H      -0.666380898     -0.423410031      0.838680243
H       2.036992822      0.466471203      0.842330512
H       2.121969243     -0.227715121     -0.743292329
H      -0.677339421      0.194525373     -0.882166230
           6
  t=        17.00000    3    3
C      -0.030887228     -0.074343389      0.023013172
C       1.363660163      0.074968614     -0.026983403
H      -0.662158521     -0.393021333      0.828326450
H       2.021755383      0.426295444      0.819366491
H       2.126329187     -0.209935175     -0.740303207
H      -0.667058568      0.169274334     -0.860068367
           6
  t=        17.50000    3    3
C      -0.034252406     -0.075553678      0.021844364
C       1.366929998      0.077696407     -0.025076206
H      -0.659162271     -0.370389716      0.818358075
H       2.005660669      0.393953732      0.794554730
H       2.132329606     -0.199790787     -0.737851067
H      -0.658824451      0.150757958     -0.836538766
           6
  t=        18.00000    3    3
C      -0.037648837     -0.076671506      0.020514752
C       1.370430970      0.080348573     -0.023016671
H      -0.657769640     -0.355942767      0.809490486
H       1.989757040      0.370137275      0.769304708
H       2.140191582     -0.197337878     -0.735956236
H      -0.653421108      0.139391883     -0.813013517
           6
  t=        18.50000    3    3
C      -0.041019738     -0.077696049      0.019086640
C       1.374097158      0.082887629     -0.020913378
H      -0.658224998     -0.349851205      0.802083729
H       1.974873384      0.355211197      0.744635478
H       2.150001698     -0.202466256     -0.734522037
H      -0.651410756      0.135308336     -0.790416962
           6
  t=        19.00000    3    3
C      -0.044288778     -0.078621221      0.017603837
C       1.377843273      0.085276550     -0.018852854
H      -0.660639066     -0.352135303      0.796244626
H       1.961641646      0.349387866      0.721311637
H       2.161708024     -0.214983075     -0.733392951
H      -0.653155940      0.138491026     -0.769267035
           6
  t=        19.50000    3    3
C      -0.047354816     -0.079438599      0.016098229
C       1.381557322      0.087472062     -0.016912938
H      -0.664991073     -0.362698208      0.791921126
H       1.950562144      0.352810465      0.699984050
H       2.175107701     -0.234618634     -0.732360709
H      -0.658845608      0.148845503     -0.749823256
           6
  t=        20.00000    3    3
C      -0.050091168     -0.080139391      0.014594857
C       1.385101911      0.089420646     -0.015171158
H      -0.671141888     -0.381335196      0.788983129
H       1.942040190      0.365574531      0.681245402
H       2.189819522     -0.260995843     -0.731137794
H      -0.668515349      0.166227346     -0.732210322
           6
  t=        20.50000    3    3
C      -0.052335270     -0.080714600      0.013116032
C       1.388305804      0.091056667     -0.013707918
H      -0.678823490     -0.407600414      0.787281535
H       1.936364004      0.387579314      0.665656721
H       2.205227021     -0.293476366     -0.729362418
H      -0.682001613      0.190328015     -0.716509708
           6
  t=        21.00000    2    2
C      -0.053920791     -0.081155386      0.011683053
C       1.391002552      0.092305461     -0.012594360
H      -0.687682320     -0.440887454      0.786625383
H       1.933672891      0.418570586      0.653596853
H       2.220542080     -0.331205275     -0.726591371
H      -0.699007751      0.220724733     -0.702758623
           6
  t=        21.50000    2    2
C      -0.054632076     -0.081485999      0.010239941
C       1.392991013      0.093161184     -0.011868540
H      -0.697775583     -0.482166226      0.786949504
H       1.933821840      0.459989470      0.645379580
H       2.236323525     -0.375557568     -0.722677399
H      -0.720063305      0.258679865     -0.690232409
           6
  t=        22.00000    2    2
C      -0.054242797     -0.081692548      0.008919290
C       1.393842558      0.093485955     -0.011659887
H      -0.707748847     -0.527354800      0.787955298
H       1.936703501      0.508565941      0.642355856
H       2.251554298     -0.422592711     -0.718055395
H      -0.742987738      0.300918412     -0.679586282
           6
  t=        22.50000    2    2
C      -0.052755240     -0.081758304      0.007738392
C       1.393661722      0.093201795     -0.011923186
H      -0.717200787     -0.576690902      0.788921810
H       1.941871473      0.564556287      0.643184704
H       2.265016665     -0.471800050     -0.711697990
H      -0.767736602      0.347640993     -0.670530461
           6
  t=        23.00000    2    2
C      -0.050103071     -0.081674860      0.006750634
C       1.392447390      0.092283300     -0.012608370
H      -0.725815032     -0.629396844      0.789036895
H       1.949027170      0.627234117      0.647163949
H       2.275920483     -0.522311914     -0.703372831
H      -0.794314674      0.398131165     -0.663015717
           6
  t=        23.50000    2    2
C      -0.046464900     -0.081440085      0.005930752
C       1.390247984      0.090823035     -0.013652938
H      -0.733566191     -0.683230416      0.787974519
H       1.958488104      0.694071793      0.654007010
H       2.284558525     -0.572459066     -0.693517004
H      -0.821806359      0.449876748     -0.656436047
           6
  t=        24.00000    3    3
C      -0.042080616     -0.081056480      0.005236500
C       1.387244263      0.088902145     -0.015008520
H      -0.740614532     -0.736728145      0.785259655
H       1.970468559      0.762795075      0.662439198
H       2.290760946     -0.620507145     -0.681439886
H      -0.849391227      0.501017059     -0.649805327
           6
  t=        24.50000    3    3
C      -0.037102462     -0.080475815      0.004626047
C       1.383572937      0.086614119     -0.016434488
H      -0.745940066     -0.789232328      0.781200886
H       1.982616447      0.830934410      0.670213899
H       2.294116850     -0.665470608     -0.667638286
H      -0.875141232      0.550689728     -0.643057527
           6
  t=        25.00000    3    3
C      -0.031981026     -0.079730033      0.004109423
C       1.379661947      0.084061020     -0.017930631
H      -0.748737776     -0.838577077      0.773127103
H       1.993958449      0.895682119      0.674696736
H       2.293191096     -0.705192599     -0.649784853
H      -0.897183053      0.596544158     -0.633336536
           6
  t=        25.50000    3    3
C      -0.026912425     -0.078804169      0.003669675
C       1.375752687      0.081372992     -0.019307867
H      -0.748156757     -0.883670996      0.760847655
H       2.002495047      0.954599713      0.674360378
H       2.287216722     -0.738856418     -0.628384594
H      -0.914140627      0.637381668     -0.620470384
           6
  t=        26.00000    3    3
C      -0.022026893     -0.077711567      0.003297325
C       1.371978890      0.078586488     -0.020500703
H      -0.743944658     -0.923790504      0.744749818
H       2.007859575      1.006842373      0.669405143
H       2.275866060     -0.765928812     -0.604197655
H      -0.925613672      0.672514909     -0.604953999
           6
  t=        26.50000    3    3
C      -0.017447804     -0.076479998      0.002989071
C       1.368448615      0.075695201     -0.021517124
H      -0.736106977     -0.958380106      0.725375178
H       2.010283179      1.052254960      0.660635715
H       2.259024068     -0.785958260     -0.577861503
H      -0.931530300      0.701498020     -0.587361684
           6
  t=        27.00000    3    3
C      -0.013296915     -0.075142600      0.002744553
C       1.365272401      0.072696717     -0.022389031
H      -0.724772977     -0.987027631      0.703307784
H       2.010030340      1.090800454      0.648883636
H       2.236737896     -0.798618875     -0.549889642
H      -0.931939206      0.724053626     -0.568211113
           6
  t=        27.50000    3    3
C      -0.009689482     -0.073730839      0.002565446
C       1.362558528      0.069600242     -0.023151178
H      -0.710162266     -1.009387987      0.679148451
H       2.007326459      1.122334586      0.634871539
H       2.209193007     -0.803616480     -0.520731660
H      -0.926948518      0.739951955     -0.547981982
           6
  t=        28.00000    3    3
C      -0.006741212     -0.072272830      0.002455453
C       1.360409809      0.066415143     -0.023838189
H      -0.692506670     -1.025107799      0.653542421
H       2.002402155      1.146605129      0.619287619
H       2.176638529     -0.800572415     -0.490838948
H      -0.916652522      0.748936599     -0.527187900
           6
  t=        28.50000    3    3
C      -0.004548104     -0.070797769      0.002419360
C       1.358911042      0.063154587     -0.024478940
H      -0.672085366     -1.033838807      0.627080350
H       1.995501950      1.163287904      0.602704968
H       2.139411697     -0.789091935     -0.460618556
H      -0.901220343      0.750779737     -0.506298519
           6
  t=        29.00000    3    3
C      -0.003175436     -0.069338466      0.002460978
C       1.358091822      0.059855236     -0.025080027
H      -0.649193223     -1.035226106      0.600305109
H       1.986945419      1.172062792      0.585632589
H       2.098171360     -0.769064270     -0.430628318
H      -0.880910327      0.745289881     -0.485774688
           6
  t=        29.50000    3    3
C      -0.002651776     -0.067936421      0.002583687
C       1.357869954      0.056636438     -0.025599622
H      -0.624095788     -1.028918088      0.573717001
H       1.977140964      1.172704024      0.568572790
H       2.054448834     -0.741431938     -0.401927249
H      -0.856076846      0.732356127     -0.466098678
           6
  t=        30.00000    3    3
C      -0.002939856     -0.066640888      0.002792938
C       1.358032177      0.053714008     -0.025952960
H      -0.597092684     -1.014802175      0.547814782
H       1.966564874      1.165312903      0.552074210
H       2.010738266     -0.708595981     -0.376094579
H      -0.827293620      0.712180962     -0.447813646
