           6
  t=         0.00000    2    2
C      -0.007132293     -0.059316072     -0.019221288
C       1.352725195      0.066462070      0.020724220
H      -0.383249276     -1.028556522      0.162426648
H       1.733261745      0.918517788      0.010284268
H       1.940527366     -0.862823120     -0.171374188
H      -0.624430887      0.887775709     -0.019231797
           6
  t=         0.50000    2    2
C      -0.005560537     -0.059231190     -0.019141068
C       1.351043304      0.066229454      0.020611846
H      -0.383919689     -1.029107959      0.162548632
H       1.734982329      0.920536061      0.011883889
H       1.940771690     -0.862672091     -0.171360480
H      -0.624413045      0.887918194     -0.020583977
           6
  t=         1.00000    2    2
C      -0.004151877     -0.058980969     -0.018902443
C       1.349305555      0.065541244      0.020280489
H      -0.385922992     -1.030720383      0.164553911
H       1.740113149      0.928121756      0.016661606
H       1.941513538     -0.862206295     -0.172985390
H      -0.624361099      0.886698072     -0.024637091
           6
  t=         1.50000    2    2
C      -0.002927523     -0.058575870     -0.018509456
C       1.347544228      0.064422833      0.019742860
H      -0.389227243     -1.033290473      0.168450527
H       1.748509101      0.940927760      0.024577182
H       1.942760168     -0.861385000     -0.176314015
H      -0.624301038      0.884140453     -0.031397161
           6
  t=         2.00000    2    2
C      -0.001904728     -0.058031481     -0.017967119
C       1.345798069      0.062917105      0.019015279
H      -0.393781758     -1.036660481      0.174272928
H       1.759905681      0.958355651      0.035601457
H       1.944517147     -0.860141789     -0.181453784
H      -0.624280704      0.880294360     -0.040896757
           6
  t=         2.50000    2    2
C      -0.001096504     -0.057367872     -0.017280123
C       1.344113374      0.061087820      0.018114350
H      -0.399522558     -1.040627877      0.182089782
H       1.773904524      0.979530224      0.049733448
H       1.946789929     -0.858394018     -0.188546222
H      -0.624367792      0.875229238     -0.053204011
           6
  t=         3.00000    2    2
C      -0.000509154     -0.056608998     -0.016451864
C       1.342541303      0.059019446      0.017054831
H      -0.406380469     -1.044950406      0.192021251
H       1.789980147      1.003316294      0.067017088
H       1.949584820     -0.856050838     -0.197770694
H      -0.624646775      0.869026098     -0.068439017
           6
  t=         3.50000    2    2
C      -0.000138517     -0.055782392     -0.015483917
C       1.341129685      0.056808578      0.015848410
H      -0.414289384     -1.049351404      0.204254824
H       1.807536119      1.028436832      0.087551386
H       1.952911096     -0.853021418     -0.209349178
H      -0.625216123      0.861771544     -0.086786826
           6
  t=         4.00000    2    2
C       0.000031507     -0.054919726     -0.014376611
C       1.339913901      0.054550292      0.014502964
H      -0.423195677     -1.053523854      0.219048508
H       1.826001847      1.053652994      0.111489259
H       1.956786368     -0.849218979     -0.223538289
H      -0.626189892      0.853555154     -0.108491669
           6
  t=         4.50000    2    2
C       0.000031871     -0.054056580     -0.013129109
C       1.338907236      0.052327219      0.013020445
H      -0.433065260     -1.057141930      0.236694910
H       1.844915706      1.077907977      0.139011977
H       1.961239902     -0.844563405     -0.240581444
H      -0.627696945      0.844467120     -0.133817260
           6
  t=         5.00000    2    2
C      -0.000090751     -0.053231280     -0.011740063
C       1.338095987      0.050204148      0.011395756
H      -0.443886781     -1.059876605      0.257479048
H       1.863971627      1.100398200      0.170299331
H       1.966314627     -0.838981674     -0.260661210
H      -0.629878357      0.834593660     -0.163001139
           6
  t=         5.50000    2    2
C      -0.000277496     -0.052483045     -0.010209418
C       1.337441172      0.048226575      0.009618296
H      -0.455664388     -1.061407122      0.281610383
H       1.883028121      1.120584428      0.205468603
H       1.972061964     -0.832402230     -0.283838454
H      -0.632876841      0.824006903     -0.196183544
           6
  t=         6.00000    2    2
C      -0.000468699     -0.051850410     -0.008540244
C       1.336891710      0.046425810      0.007675756
H      -0.468408242     -1.061418694      0.309184915
H       1.902072361      1.138112601      0.244532880
H       1.978534757     -0.824737247     -0.310032978
H      -0.636824497      0.812744378     -0.233370475
           6
  t=         6.50000    2    2
C      -0.000626314     -0.051367850     -0.006738291
C       1.336411557      0.044828223      0.005558440
H      -0.482111069     -1.059610645      0.340076480
H       1.921134288      1.152684898      0.287289249
H       1.985766245     -0.815871828     -0.338946009
H      -0.641815641      0.800784912     -0.274347617
           6
  t=         7.00000    2    2
C      -0.000725500     -0.051063636     -0.004811575
C       1.335977363      0.043463072      0.003261900
H      -0.496743354     -1.055694184      0.374005138
H       1.940210611      1.163934238      0.333362463
H       1.993768737     -0.805657645     -0.370137820
H      -0.647906585      0.788046704     -0.318750970
           6
  t=         7.50000    2    2
C      -0.000747365     -0.050956998     -0.002771608
C       1.335575767      0.042366206      0.000791619
H      -0.512249431     -1.049408892      0.410572697
H       1.959204637      1.171366058      0.382202073
H       2.002527768     -0.793923313     -0.403074153
H      -0.655107756      0.774394493     -0.366094336
           6
  t=         8.00000    2    2
C      -0.000679155     -0.051055824     -0.000633405
C       1.335205825      0.041580234     -0.001833939
H      -0.528553036     -1.040525860      0.449313945
H       1.977899651      1.174345119      0.433106345
H       2.011994945     -0.780472932     -0.437188956
H      -0.663370985      0.759624994     -0.415817885
           6
  t=         8.50000    2    2
C      -0.000532145     -0.051358856      0.001586567
C       1.334899228      0.041153626     -0.004582834
H      -0.545558910     -1.028775579      0.489779897
H       1.995945009      1.172072714      0.485300841
H       2.022063335     -0.765039982     -0.471983454
H      -0.672577273      0.743408320     -0.467381362
           6
  t=         9.00000    2    2
C      -0.000347277     -0.051859511      0.003872953
C       1.334727516      0.041135541     -0.007414656
H      -0.563136147     -1.013734694      0.531645989
H       2.012855199      1.163613535      0.538090933
H       2.032489828     -0.747231719     -0.507145346
H      -0.682493487      0.725199487     -0.520376414
           6
  t=         9.50000    2    2
C      -0.000195651     -0.052555283      0.006213218
C       1.334809808      0.041571694     -0.010294521
H      -0.581091584     -0.994529770      0.574888717
H       2.027988049      1.147836136      0.591157485
H       2.042702917     -0.726356825     -0.542723329
H      -0.692671284      0.703990603     -0.574678008
           6
  t=        10.00000    2    2
C      -0.000069815     -0.053435500      0.008567275
C       1.335181212      0.042475082     -0.013184158
H      -0.599311202     -0.970518691      0.619306545
H       2.040826293      1.124156811      0.644053942
H       2.052104437     -0.701921965     -0.578588318
H      -0.702616383      0.678947904     -0.629745512
           6
  t=        10.50000    3    3
C       0.000082110     -0.054480716      0.010873894
C       1.335846999      0.043845516     -0.016020372
H      -0.617710919     -0.941702508      0.664333169
H       2.050728277      1.092579473      0.695835289
H       2.060211181     -0.674027810     -0.614298643
H      -0.711968974      0.649939712     -0.684532669
           6
  t=        11.00000    3    3
C      -0.000024758     -0.055527644      0.012834426
C       1.336715830      0.045339164     -0.018416695
H      -0.632971552     -0.911911958      0.702656506
H       2.057434030      1.058393282      0.738714220
H       2.066567238     -0.645890324     -0.644134209
H      -0.718849459      0.620874898     -0.730706627
           6
  t=        11.50000    3    3
C      -0.000665506     -0.056656447      0.014750742
C       1.337868189      0.047018422     -0.020660913
H      -0.646095683     -0.878248378      0.738013059
H       2.062797314      1.018376036      0.777082688
H       2.073127902     -0.614073552     -0.671020825
H      -0.723745466      0.588852754     -0.773637858
           6
  t=        12.00000    3    3
C      -0.001819726     -0.057854112      0.016627257
C       1.339292983      0.048898809     -0.022715118
H      -0.657094005     -0.841107248      0.770326381
H       2.066605824      0.972642454      0.810491587
H       2.080080877     -0.578951925     -0.694977406
H      -0.726732701      0.554188482     -0.813286197
           6
  t=        12.50000    3    3
C      -0.003463293     -0.059124227      0.018440675
C       1.340966239      0.050961121     -0.024575280
H      -0.665910237     -0.800413639      0.799310374
H       2.068924752      0.921503321      0.838790886
H       2.087145345     -0.540524832     -0.715790143
H      -0.727653627      0.516767366     -0.849199764
           6
  t=        13.00000    3    3
C      -0.005572961     -0.060480927      0.020136856
C       1.342862901      0.053149644     -0.026253089
H      -0.672333827     -0.756076424      0.824181395
H       2.069977990      0.865799956      0.861812027
H       2.093632493     -0.498871770     -0.732823305
H      -0.726232317      0.476568720     -0.880277688
           6
  t=        13.50000    3    3
C      -0.008139276     -0.061942567      0.021642397
C       1.344987622      0.055404070     -0.027740272
H      -0.676042820     -0.708479284      0.843665737
H       2.069877890      0.807026207      0.879086566
H       2.098750898     -0.454737119     -0.745198949
H      -0.722279747      0.434164106     -0.904879669
           6
  t=        14.00000    3    3
C      -0.011158183     -0.063514820      0.022891820
C       1.347380976      0.057712631     -0.028970406
H      -0.676940387     -0.658735724      0.856698998
H       2.068396476      0.746930801      0.889923614
H       2.102252700     -0.409761869     -0.752567604
H      -0.715948671      0.390767086     -0.921611160
           6
  t=        14.50000    3    3
C      -0.014609732     -0.065175800      0.023839494
C       1.350078939      0.060108009     -0.029839037
H      -0.675328279     -0.608333380      0.863111465
H       2.065099425      0.686984597      0.893890974
H       2.104602207     -0.365870830     -0.755542687
H      -0.707633754      0.347669064     -0.929957764
           6
  t=        15.00000    3    3
C      -0.018433017     -0.066879245      0.024444148
C       1.353085002      0.062621334     -0.030248397
H      -0.671827581     -0.558894433      0.863588726
H       2.059609037      0.628483320      0.891058633
H       2.106516886     -0.324818469     -0.755314922
H      -0.697820998      0.306028764     -0.930157504
           6
  t=        15.50000    3    3
C      -0.022540737     -0.068569158      0.024661740
C       1.356389386      0.065265266     -0.030126488
H      -0.667194833     -0.512148323      0.859251928
H       2.051652368      0.572767461      0.881796879
H       2.108619016     -0.288189934     -0.753111876
H      -0.687026922      0.267002214     -0.922807385
           6
  t=        16.00000    3    3
C      -0.026834389     -0.070198045      0.024471516
C       1.359975550      0.068030894     -0.029446720
H      -0.662211958     -0.469634250      0.851488653
H       2.041134598      0.521051778      0.866783946
H       2.111426739     -0.257176970     -0.750020123
H      -0.675869543      0.231645825     -0.908956175
           6
  t=        16.50000    3    3
C      -0.031222170     -0.071738328      0.023893108
C       1.363822344      0.070885446     -0.028238745
H      -0.657565144     -0.432628336      0.841673192
H       2.028251882      0.474513053      0.847008385
H       2.115340345     -0.232618974     -0.746847364
H      -0.665101030      0.200960231     -0.890039627
           6
  t=        17.00000    3    3
C      -0.035621399     -0.073180588      0.022985672
C       1.367886476      0.073774735     -0.026596496
H      -0.653838788     -0.402202871      0.831065122
H       2.013658110      0.434379113      0.823840171
H       2.120707322     -0.215108630     -0.744077827
H      -0.655607681      0.175916034     -0.867788676
           6
  t=        17.50000    3    3
C      -0.039969199     -0.074526070      0.021831214
C       1.372110534      0.076639207     -0.024660341
H      -0.651530840     -0.379224246      0.820757221
H       1.998380504      0.401795942      0.798887959
H       2.127848321     -0.205038421     -0.741919986
H      -0.648304545      0.157350578     -0.844000851
           6
  t=        18.00000    3    3
C      -0.044207854     -0.075776768      0.020510437
C       1.376427146      0.079427982     -0.022570212
H      -0.651011055     -0.364182829      0.811543971
H       1.983457097      0.377501989      0.773603454
H       2.136968186     -0.202493325     -0.740403872
H      -0.643949703      0.145730795     -0.820186562
           6
  t=        18.50000    3    3
C      -0.048272523     -0.076929753      0.019085908
C       1.380761972      0.082101139     -0.020436115
H      -0.652501478     -0.357240553      0.803843497
H       1.969690662      0.361829460      0.749016075
H       2.148115888     -0.207323711     -0.739425845
H      -0.643059645      0.141177568     -0.797331726
           6
  t=        19.00000    3    3
C      -0.052084424     -0.077977416      0.017601805
C       1.385028574      0.084620618     -0.018345003
H      -0.656093809     -0.358413232      0.797790936
H       1.957678023      0.354959323      0.725867393
H       2.161202816     -0.219307236     -0.738805512
H      -0.645959677      0.143666231     -0.775983721
           6
  t=        19.50000    3    3
C      -0.055545871     -0.078910325      0.016090618
C       1.389120639      0.086943130     -0.016375273
H      -0.661753091     -0.367606532      0.793339514
H       1.947884640      0.357011940      0.704774907
H       2.175994538     -0.238156454     -0.738301493
H      -0.652812974      0.153098065     -0.756407681
           6
  t=        20.00000    3    3
C      -0.058531819     -0.079718466      0.014578088
C       1.392904267      0.089015402     -0.014606081
H      -0.669320092     -0.384585727      0.790357343
H       1.940679124      0.368030004      0.686320460
H       2.192068490     -0.263452690     -0.737604312
H      -0.663619308      0.169292466     -0.738726556
           6
  t=        20.50000    3    3
C      -0.060891805     -0.080392233      0.013087110
C       1.396222708      0.090773640     -0.013117858
H      -0.678518341     -0.408919964      0.788678331
H       1.936315703      0.387902671      0.671032192
H       2.208794612     -0.294562473     -0.736328314
H      -0.678204400      0.191941613     -0.723002440
           6
  t=        21.00000    2    2
C      -0.062474580     -0.080922316      0.011639147
C       1.398926988      0.092145692     -0.011982007
H      -0.688991908     -0.440059577      0.788099249
H       1.934909401      0.416408841      0.659265736
H       2.225383526     -0.330679133     -0.734011703
H      -0.696276947      0.220659098     -0.709254501
           6
  t=        21.50000    2    2
C      -0.063079897     -0.081339170      0.010177709
C       1.400829734      0.093135717     -0.011232786
H      -0.700888738     -0.478909001      0.788540933
H       1.936373814      0.454901204      0.651336676
H       2.242530416     -0.373160417     -0.730553718
H      -0.718451146      0.256667723     -0.696738552
           6
  t=        22.00000    2    2
C      -0.062488555     -0.081625007      0.008835968
C       1.401501274      0.093598738     -0.010998196
H      -0.712719594     -0.521624434      0.789689935
H       1.940524827      0.500402124      0.648594067
H       2.259232471     -0.418313034     -0.726407652
H      -0.742521467      0.296923596     -0.686098567
           6
  t=        22.50000    2    2
C      -0.060717640     -0.081770587      0.007625543
C       1.400984175      0.093474793     -0.011245874
H      -0.723952001     -0.567994762      0.790950352
H       1.946925003      0.552865178      0.650130039
H       2.274698239     -0.465564646     -0.720957502
H      -0.768095054      0.341294052     -0.676970816
           6
  t=        23.00000    2    2
C      -0.057700726     -0.081753967      0.006606297
C       1.399365586      0.092721407     -0.011915987
H      -0.734341122     -0.618030816      0.791408105
H       1.955094021      0.612147519      0.654769600
H       2.287621638     -0.514400689     -0.713522466
H      -0.795460339      0.389662879     -0.669373318
           6
  t=        23.50000    2    2
C      -0.053589032     -0.081573770      0.005775494
C       1.396672500      0.091403321     -0.012960571
H      -0.743636910     -0.669704554      0.790582725
H       1.965232850      0.676131913      0.662289286
H       2.298149685     -0.563349733     -0.704464024
H      -0.823735096      0.439859980     -0.662779560
           6
  t=        24.00000    2    2
C      -0.048647177     -0.081228687      0.005091723
C       1.393079501      0.089596435     -0.014339906
H      -0.751869781     -0.721382269      0.788042831
H       1.977636153      0.742469120      0.671599577
H       2.306112707     -0.610580194     -0.693179881
H      -0.851941076      0.489849310     -0.656250803
           6
  t=        24.50000    2    2
C      -0.042732880     -0.080616892      0.004437588
C       1.388538781      0.087380344     -0.015668044
H      -0.758092656     -0.774251675      0.785435200
H       1.988979927      0.809941760      0.680270654
H       2.311293639     -0.656682699     -0.681206907
H      -0.878610002      0.540464858     -0.650667099
           6
  t=        25.00000    3    3
C      -0.035880474     -0.079720742      0.003806006
C       1.383116429      0.084790518     -0.016847260
H      -0.762496086     -0.827613853      0.782447408
H       1.999390597      0.877100873      0.687372079
H       2.313382636     -0.700560138     -0.668476317
H      -0.903746293      0.590726657     -0.645934447
           6
  t=        25.50000    3    3
C      -0.029504561     -0.078702084      0.003300190
C       1.377970146      0.082276443     -0.017748637
H      -0.763642397     -0.872505393      0.777047142
H       2.006790972      0.932891850      0.690058725
H       2.311079267     -0.734878633     -0.654776286
H      -0.922348844      0.631964617     -0.640153197
           6
  t=        26.00000    3    3
C      -0.023271863     -0.077513793      0.002864136
C       1.372945698      0.079658883     -0.018470078
H      -0.760836499     -0.912760310      0.767560622
H       2.010713090      0.982166959      0.687681231
H       2.302921142     -0.762762334     -0.637775343
H      -0.935315847      0.667858837     -0.631497792
           6
  t=        26.50000    3    3
C      -0.017294234     -0.076182695      0.002494761
C       1.368158151      0.076949018     -0.019003646
H      -0.754092985     -0.947895341      0.754450481
H       2.011225955      1.024696036      0.680885326
H       2.288800792     -0.783911877     -0.618116034
H      -0.942632500      0.698043279     -0.620491885
           6
  t=        27.00000    3    3
C      -0.011685894     -0.074739511      0.002190465
C       1.363722346      0.074152406     -0.019372535
H      -0.743574652     -0.977536697      0.738241800
H       2.008529955      1.060437531      0.670451320
H       2.268778169     -0.798112256     -0.596334285
H      -0.944403758      0.722270528     -0.607609501
           6
  t=        27.50000    3    3
C      -0.006557538     -0.073212814      0.001950409
C       1.359750629      0.071278776     -0.019608961
H      -0.729561310     -1.001376904      0.719475899
H       2.002858642      1.089322048      0.657103867
H       2.243058124     -0.805166200     -0.572883826
H      -0.940807865      0.740329766     -0.593268996
           6
  t=        28.00000    3    3
C      -0.002023174     -0.071629540      0.001775596
C       1.356356217      0.068339075     -0.019749477
H      -0.712379476     -1.019114997      0.698669043
H       1.994474306      1.111201827      0.641486706
H       2.211915937     -0.804813374     -0.548130896
H      -0.932046467      0.751998013     -0.577840552
           6
  t=        28.50000    3    3
C       0.001798974     -0.070015668      0.001669027
C       1.353648553      0.065338446     -0.019833786
H      -0.692349326     -1.030414111      0.676320057
H       1.983696958      1.125850338      0.624197693
H       2.175647450     -0.796654479     -0.522374052
H      -0.918310624      0.757013852     -0.561684952
           6
  t=        29.00000    3    3
C       0.004805146     -0.068399205      0.001633987
C       1.351719024      0.062276064     -0.019900558
H      -0.669794802     -1.034903839      0.652882935
H       1.970916797      1.132986427      0.605767939
H       2.134558405     -0.780165647     -0.495840048
H      -0.899824863      0.755107760     -0.545138924
           6
  t=        29.50000    3    3
C       0.006926033     -0.066814048      0.001671192
C       1.350602623      0.059169331     -0.019967157
H      -0.645039455     -1.032195777      0.628747885
H       1.956617995      1.132336901      0.586656909
H       2.089197140     -0.755028621     -0.468866955
H      -0.876889270      0.746042809     -0.528515693
           6
  t=        30.00000    3    3
C       0.008141986     -0.065302749      0.001778483
C       1.350197303      0.056129011     -0.019989428
H      -0.618380066     -1.021955086      0.604270314
H       1.941386220      1.123762449      0.567312827
H       2.041112022     -0.722133399     -0.442427329
H      -0.849890995      0.729700659     -0.512146731
