6
Properties=species:S:1:pos:R:3 REF_energy="_JSON [[-2102.9449915073897]]" REF_forces="_JSON [[[1.1603207679583831,1.877733369278531e-08,-5.849264786305893e-13]],[[-1.1603209123937959,-1.8567462366806908e-08,5.863470126645673e-13]],[[-3.1898571388481938,1.348315705317963,4.773834728890818e-13]],[[3.1898572082224708,1.3483156981166573,2.7914184325010625e-13]],[[3.189857211172251,-1.3483156918039918,-4.816209313489282e-13]],[[-3.189857136111974,-1.3483157118408111,-2.7632491882418957e-13]]]"
C       -0.65867623      -0.00000000       0.00000000
C        0.65867623       0.00000000       0.00000000
H       -1.22717751       0.91632134      -0.00000000
H        1.22717751       0.91632134      -0.00000000
H        1.22717751      -0.91632134       0.00000000
H       -1.22717751      -0.91632134      -0.00000000
6
Properties=species:S:1:pos:R:3 REF_energy="_JSON [[-2100.2910731918487]]" REF_forces="_JSON [[[-54.233732274977505,2.5108258204596224e-05,-1.2539052074900944e-05]],[[54.23373093665496,-2.7408433706764007e-05,1.906421470584295e-05]],[[-0.9586042850946953,-0.4436871072770289,-4.579728712280358]],[[0.9586056831835253,-0.4444854480136306,4.5796497998999675]],[[0.9586058890347244,0.4444864301391808,-4.579653538947938]],[[-0.9586059488008345,0.44368842532672603,4.579725926165718]]]"
C        0.00000000       0.00000000       0.00000000
C        1.10000000       0.00000000       0.00000000
H       -0.56503637       0.92382805       0.00000000
H        1.66503637       0.92382804       0.00016124
H        1.66503637      -0.92382804      -0.00016124
H       -0.56503637      -0.92382805      -0.00000000
6
Properties=species:S:1:pos:R:3 REF_energy="_JSON [[-2103.7577039055664]]" REF_forces="_JSON [[[-38.49133336645981,2.49958329121874e-10,7.375894884489762e-10]],[[38.49134836853493,-1.1400275331520555e-09,-1.3587238703766068e-09]],[[-2.199749524525094,0.7621466603239607,-5.508362994695544]],[[2.199742023380937,-1.1687835507075932,5.4367246737733455]],[[2.199742022949958,1.1687835514827345,-5.436724673000061]],[[-2.1997495238789297,-0.762146660208801,5.5083629945426145]]]"
C        0.00000000       0.00000000       0.00000000
C        1.10000000       0.00000000       0.00000000
H       -0.56503637       0.92382805       0.00000000
H        1.66503637       0.86805924       0.31611931
H        1.66503637      -0.86805924      -0.31611931
H       -0.56503637      -0.92382805      -0.00000000
6
Properties=species:S:1:pos:R:3 REF_energy="_JSON [[-2107.270544722917]]" REF_forces="_JSON [[[-34.45799482153078,-2.7786631523415438e-09,3.6066232000945206e-09]],[[34.457823072439496,1.7822326937162766e-09,-2.2593863577444393e-09]],[[-2.1730279791179687,0.7956244834608758,-5.316078118811923]],[[2.173113854323249,-2.8084821153460884,4.583198736214095]],[[2.1731138541997073,2.8084821155686686,-4.583198735760798]],[[-2.1730279803154757,-0.7956244826880381,5.316078117011071]]]"
C        0.00000000       0.00000000       0.00000000
C        1.10000000       0.00000000       0.00000000
H       -0.56503637       0.92382805       0.00000000
H        1.66503637       0.70758969       0.59394873
H        1.66503637      -0.70758969      -0.59394873
H       -0.56503637      -0.92382805      -0.00000000
6
Properties=species:S:1:pos:R:3 REF_energy="_JSON [[-2110.5402409215853]]" REF_forces="_JSON [[[-32.032537450687464,-7.170418940069637e-11,-1.1951574795538506e-09]],[[32.032537369152884,-4.715606841602904e-10,3.7360867722446083e-10]],[[-1.9060155800798122,0.6526098742794972,-4.760954029129812]],[[1.906015620760848,-3.797316241210123,2.944991048830406]],[[1.9060156208167285,3.7973162415623904,-2.9449910483066515]],[[-1.9060155799642153,-0.6526098740888653,4.7609540294280865]]]"
C        0.00000000       0.00000000       0.00000000
C        1.10000000       0.00000000       0.00000000
H       -0.56503637       0.92382805       0.00000000
H        1.66503637       0.46177438       0.80013917
H        1.66503637      -0.46177438      -0.80013917
H       -0.56503637      -0.92382805      -0.00000000
6
Properties=species:S:1:pos:R:3 REF_energy="_JSON [[-2113.2473961369715]]" REF_forces="_JSON [[[-29.670404546679677,2.9699301563569504e-10,3.942650854850217e-10]],[[29.67040453711605,-6.277168803718281e-10,2.385008886868059e-10]],[[-1.5975130390851713,0.48573756636716625,-3.2677833139736165]],[[1.5975130442212948,-3.1339733732277297,1.0452557942498497]],[[1.5975130437481913,3.1339733735570467,-1.0452557945157275]],[[-1.5975130393197794,-0.4857375663661156,3.2677833136064733]]]"
C        0.00000000       0.00000000       0.00000000
C        1.10000000       0.00000000       0.00000000
H       -0.56503637       0.92382805       0.00000000
H        1.66503637       0.16026227       0.90982101
H        1.66503637      -0.16026227      -0.90982101
H       -0.56503637      -0.92382805      -0.00000000
6
Properties=species:S:1:pos:R:3 REF_energy="_JSON [[-2113.2452875266686]]" REF_forces="_JSON [[[-29.673307151642074,-2.531470884279746e-10,-1.232777100392904e-11]],[[29.673307001627553,2.5343151687679004e-10,1.9191419853265894e-10]],[[-1.5977619252453026,0.4858853566246989,3.2711266400168]],[[1.5977620003787532,3.136875063331732,1.0470764661994745]],[[1.5977620001028736,-3.136875063409616,-1.0470764662955205]],[[-1.5977619252218385,-0.48588535654712517,-3.2711266401002996]]]"
C        0.00000000       0.00000000       0.00000000
C        1.10000000       0.00000000       0.00000000
H       -0.56503637       0.92382805       0.00000000
H        1.66503637      -0.16057984       0.90976501
H        1.66503637       0.16057984      -0.90976501
H       -0.56503637      -0.92382805      -0.00000000
6
Properties=species:S:1:pos:R:3 REF_energy="_JSON [[-2110.5371701166723]]" REF_forces="_JSON [[[-32.034696047553055,-7.462665794433458e-10,-1.1393809838755054e-09]],[[32.034695909325904,-5.313253201406288e-10,1.7379311801731358e-09]],[[-1.906333676984813,0.652778772406808,4.761719340595406]],[[1.9063337453797413,3.796866227076327,2.9468454873448646]],[[1.9063337461131382,-3.796866226455874,-2.9468454882453115]],[[-1.9063336762815442,-0.6527787717504104,-4.7617193402931735]]]"
C        0.00000000       0.00000000       0.00000000
C        1.10000000       0.00000000       0.00000000
H       -0.56503637       0.92382805       0.00000000
H        1.66503637      -0.46205365       0.79997793
H        1.66503637       0.46205365      -0.79997793
H       -0.56503637      -0.92382805      -0.00000000
6
Properties=species:S:1:pos:R:3 REF_energy="_JSON [[-2107.267115816164]]" REF_forces="_JSON [[[-34.46103994837086,2.0569158032482997e-10,-2.3785768261597347e-10]],[[34.46103993991738,-2.6835938976445687e-10,8.065927085990443e-10]],[[-2.173236871343775,0.7956652401701718,5.316513541466221]],[[2.1732368757966123,2.807074113687852,4.584619355038629]],[[2.1732368759048297,-2.8070741135715505,-4.584619355327554]],[[-2.173236871903144,-0.7956652402234039,-5.316513541746008]]]"
C        0.00000000       0.00000000       0.00000000
C        1.10000000       0.00000000       0.00000000
H       -0.56503637       0.92382805       0.00000000
H        1.66503637      -0.70779698       0.59370170
H        1.66503637       0.70779698      -0.59370170
H       -0.56503637      -0.92382805      -0.00000000
6
Properties=species:S:1:pos:R:3 REF_energy="_JSON [[-2103.754151187007]]" REF_forces="_JSON [[[-38.49726634187326,-1.3454683229486988e-09,-2.3451814096007156e-09]],[[38.49729677205476,3.6628436856489104e-10,1.2981536435734422e-09]],[[-2.199549384344985,0.7619144093754914,5.508319075444701]],[[2.199534168529905,1.1671008647765078,5.437016266434594]],[[2.1995341697929285,-1.167100864444424,-5.437016266303263]],[[-2.199549384159773,-0.7619144087278819,-5.508319074529286]]]"
C        0.00000000       0.00000000       0.00000000
C        1.10000000       0.00000000       0.00000000
H       -0.56503637       0.92382805       0.00000000
H        1.66503637      -0.86816954       0.31581628
H        1.66503637       0.86816954      -0.31581628
H       -0.56503637      -0.92382805      -0.00000000
6
Properties=species:S:1:pos:R:3 REF_energy="_JSON [[-2100.2910731918487]]" REF_forces="_JSON [[[-54.235507053570316,-1.9148116990086577e-05,9.897912667266969e-06]],[[54.235263723340964,2.1956338042488747e-05,-1.1207094374127189e-05]],[[-0.9584979482275607,-0.4437989763747154,-4.579688281808164]],[[0.9586195652299473,0.4443436155056144,-4.57954527448411]],[[0.9586201006836844,-0.4443452662936097,4.579546467208867]],[[-0.9584983874563408,0.4437978189417831,4.57968839826502]]]"
C        0.00000000       0.00000000       0.00000000
C        1.10000000       0.00000000       0.00000000
H       -0.56503637       0.92382805       0.00000000
H        1.66503637      -0.92382804      -0.00016124
H        1.66503637       0.92382804       0.00016124
H       -0.56503637      -0.92382805      -0.00000000
6
Properties=species:S:1:pos:R:3 REF_energy="_JSON [[-2108.4080173941065]]" REF_forces="_JSON [[[-21.71208531330887,-3.640833815587772e-10,-6.409534113613038e-09]],[[21.712085459136095,1.1585792057894604e-09,3.855637117382375e-09]],[[-0.04491273502023618,-0.37223992502665976,-0.002903487515739884]],[[0.04491266251427065,-0.37224054483603586,0.0028384857866225084]],[[0.04491266230974015,0.3722405441253346,-0.002838486112549613]],[[-0.044912735630858985,0.3722399249418925,0.002903490395563774]]]"
C        0.00000000       0.00000000       0.00000000
C        1.31111111       0.00000000       0.00000000
H       -0.56503637       0.92382805       0.00000000
H        1.87614748       0.92382804       0.00016124
H        1.87614748      -0.92382804      -0.00016124
H       -0.56503637      -0.92382805      -0.00000000
6
Properties=species:S:1:pos:R:3 REF_energy="_JSON [[-2109.762940332725]]" REF_forces="_JSON [[[-15.597294275568757,-8.16490992446318e-09,-3.332971134474537e-09]],[[15.597326630859623,3.890915543676018e-09,-3.19854432526543e-10]],[[-0.6235493436110356,-0.011943305190490978,-3.3687355098923804]],[[0.6235331611133542,-1.1639944932217396,3.161340640857997]],[[0.623533171469666,1.1639944956152468,-3.1613406377194404]],[[-0.6235493442630057,0.011943307070668978,3.3687355104069763]]]"
C        0.00000000       0.00000000       0.00000000
C        1.31111111       0.00000000       0.00000000
H       -0.56503637       0.92382805       0.00000000
H        1.87614748       0.86805924       0.31611931
H        1.87614748      -0.86805924      -0.31611931
H       -0.56503637      -0.92382805      -0.00000000
6
Properties=species:S:1:pos:R:3 REF_energy="_JSON [[-2112.1885725348084]]" REF_forces="_JSON [[[-9.898925056473246,4.2798461860542494e-11,-4.743450540326314e-10]],[[9.898957121309087,1.0582055509590384e-09,1.4756349657667883e-09]],[[-0.9348264417649997,0.22272086039775213,-3.9437654821630983]],[[0.9348104100586015,-2.364995290548629,3.163799086598579]],[[0.9348104089989675,2.364995289540762,-3.1637990877707396]],[[-0.9348264421272373,-0.22272086049055762,3.943765482333876]]]"
C        0.00000000       0.00000000       0.00000000
C        1.31111111       0.00000000       0.00000000
H       -0.56503637       0.92382805       0.00000000
H        1.87614748       0.70758969       0.59394873
H        1.87614748      -0.70758969      -0.59394873
H       -0.56503637      -0.92382805      -0.00000000
6
Properties=species:S:1:pos:R:3 REF_energy="_JSON [[-2114.669099626488]]" REF_forces="_JSON [[[-5.837759959420183,-1.9499195164147694e-09,-1.3216240800014842e-09]],[[5.837759825438445,1.3206746467343772e-09,2.194291252005475e-09]],[[-0.9505260164195035,0.29019092828228543,-3.6295678838100693]],[[0.9505260786978796,-2.998563072378622,2.065573339813525]],[[0.9505260822616859,2.9985630709134634,-2.065573341266533]],[[-0.9505260105588843,-0.29019092618802045,3.6295678843903674]]]"
C        0.00000000       0.00000000       0.00000000
C        1.31111111       0.00000000       0.00000000
H       -0.56503637       0.92382805       0.00000000
H        1.87614748       0.46177438       0.80013917
H        1.87614748      -0.46177438      -0.80013917
H       -0.56503637      -0.92382805      -0.00000000
6
Properties=species:S:1:pos:R:3 REF_energy="_JSON [[-2116.6340316343963]]" REF_forces="_JSON [[[-2.272950027061627,-4.171360303311821e-10,-1.3917579348345105e-09]],[[2.272950050528843,7.249427464286041e-10,5.384524459001973e-10]],[[-0.8808745595340602,0.2999315256968819,-2.0910929309769317]],[[0.8808745478316784,-2.0073568649646845,0.6581390154654461]],[[0.8808745479641416,2.0073568647060522,-0.6581390152416984]],[[-0.8808745597283844,-0.29993152574597914,2.0910929316068008]]]"
C        0.00000000       0.00000000       0.00000000
C        1.31111111       0.00000000       0.00000000
H       -0.56503637       0.92382805       0.00000000
H        1.87614748       0.16026227       0.90982101
H        1.87614748      -0.16026227      -0.90982101
H       -0.56503637      -0.92382805      -0.00000000
6
Properties=species:S:1:pos:R:3 REF_energy="_JSON [[-2116.6326819496494]]" REF_forces="_JSON [[[-2.2761516136819013,-4.675408310157116e-10,1.3123487894936303e-09]],[[2.2762025739810356,6.079089023903124e-10,-7.120475455229163e-10]],[[-0.8808995074379253,0.2999662131098386,2.0941682454604393]],[[0.8808740273092845,2.0101619782787252,0.6592679152405146]],[[0.8808740272502571,-2.010161978465886,-0.659267915233115]],[[-0.8808995074214137,-0.29996621306316174,-2.0941682460680067]]]"
C        0.00000000       0.00000000       0.00000000
C        1.31111111       0.00000000       0.00000000
H       -0.56503637       0.92382805       0.00000000
H        1.87614748      -0.16057984       0.90976501
H        1.87614748       0.16057984      -0.90976501
H       -0.56503637      -0.92382805      -0.00000000
6
Properties=species:S:1:pos:R:3 REF_energy="_JSON [[-2114.666758630948]]" REF_forces="_JSON [[[-5.841410066730554,-1.7958759721900836e-09,5.192444226832268e-10]],[[5.841409871382132,1.4172812546530623e-09,-1.9421173807288882e-09]],[[-0.9505860725864469,0.29016728025519706,3.6302588291897466]],[[0.9505861691139252,2.9984519846927196,2.066945081916614]],[[0.9505861653327784,-2.998451986373635,-2.0669450802425686]],[[-0.9505860665113873,-0.29016727819655574,-3.6302588294410674]]]"
C        0.00000000       0.00000000       0.00000000
C        1.31111111       0.00000000       0.00000000
H       -0.56503637       0.92382805       0.00000000
H        1.87614748      -0.46205365       0.79997793
H        1.87614748       0.46205365      -0.79997793
H       -0.56503637      -0.92382805      -0.00000000
6
Properties=species:S:1:pos:R:3 REF_energy="_JSON [[-2112.1860290865566]]" REF_forces="_JSON [[[-9.903612236974608,8.630481036982134e-10,3.6107311493119366e-10]],[[9.903632334961303,-5.055083097050761e-10,1.5173344815462069e-10]],[[-0.9345902048930399,0.22243628868098528,3.9436736818156746]],[[0.934580156377753,2.363943403582184,3.1645115278735982]],[[0.9345801561116542,-2.3639434032562456,-3.164511528215894]],[[-0.9345902055840652,-0.22243628936430637,-3.9436736819861804]]]"
C        0.00000000       0.00000000       0.00000000
C        1.31111111       0.00000000       0.00000000
H       -0.56503637       0.92382805       0.00000000
H        1.87614748      -0.70779698       0.59370170
H        1.87614748       0.70779698      -0.59370170
H       -0.56503637      -0.92382805      -0.00000000
6
Properties=species:S:1:pos:R:3 REF_energy="_JSON [[-2109.7607677756646]]" REF_forces="_JSON [[[-15.603814684858982,-2.683282131842054e-09,3.0953567156886977e-09]],[[15.603819704800317,3.2870331229028926e-09,-9.625373015410723e-10]],[[-0.6230412073403602,-0.012269998723702605,3.3674254685467813]],[[0.6230387047376834,1.1627332252037292,3.160317892498363]],[[0.6230386902075299,-1.1627332259801717,-3.1603178942322527]],[[-0.6230412075458377,0.01226999889631985,-3.3674254689454823]]]"
C        0.00000000       0.00000000       0.00000000
C        1.31111111       0.00000000       0.00000000
H       -0.56503637       0.92382805       0.00000000
H        1.87614748      -0.86816954       0.31581628
H        1.87614748       0.86816954      -0.31581628
H       -0.56503637      -0.92382805      -0.00000000
6
Properties=species:S:1:pos:R:3 REF_energy="_JSON [[-2108.4080173941065]]" REF_forces="_JSON [[[-21.712131401469534,4.6539619082084234e-10,3.826657503835047e-09]],[[21.71239339846989,-1.113031963432969e-09,-3.2828841934833973e-09]],[[-0.044891087956987916,-0.3720687518859346,-0.00290521552467452]],[[0.0447600893754852,0.3722329348751571,-0.0028402518948002636]],[[0.044760089504816795,-0.3722329341429439,0.002840252858343635]],[[-0.04489108792351035,0.3720687518005056,0.002905214017357871]]]"
C        0.00000000       0.00000000       0.00000000
C        1.31111111       0.00000000       0.00000000
H       -0.56503637       0.92382805       0.00000000
H        1.87614748      -0.92382804      -0.00016124
H        1.87614748       0.92382804       0.00016124
H       -0.56503637      -0.92382805      -0.00000000
6
Properties=species:S:1:pos:R:3 REF_energy="_JSON [[-2111.0645733092947]]" REF_forces="_JSON [[[-6.131165473445426,-4.638102862777395e-10,-3.3863344202107814e-09]],[[6.131164489187415,2.835414148120759e-10,1.7977663518393128e-09]],[[0.26025975396994916,-0.13879065732291807,-0.0013574649234009226]],[[-0.2602592606964337,-0.13885157861225156,0.0013334824458849823]],[[-0.2602592615749452,0.13885157825546213,-0.0013334826862166779]],[[0.26025975255824013,0.13879065786018047,0.0013574667523006732]]]"
C        0.00000000       0.00000000       0.00000000
C        1.52222222       0.00000000       0.00000000
H       -0.56503637       0.92382805       0.00000000
H        2.08725859       0.92382804       0.00016124
H        2.08725859      -0.92382804      -0.00016124
H       -0.56503637      -0.92382805      -0.00000000
6
Properties=species:S:1:pos:R:3 REF_energy="_JSON [[-2111.763771505874]]" REF_forces="_JSON [[[-3.7305976433715142,2.6250817770238665e-09,2.312865910024739e-09]],[[3.7305976039687283,-4.19905257076798e-09,-2.632222689628322e-09]],[[0.02010447890825153,-0.023949648580364587,-1.950005500651657]],[[-0.020104462208592466,-0.689764790109697,1.8240941929338663]],[[-0.020104288292743938,0.6897647983747042,-1.824094209143449]],[[0.020104310996131938,0.023949641888964233,1.950005517180576]]]"
C        0.00000000       0.00000000       0.00000000
C        1.52222222       0.00000000       0.00000000
H       -0.56503637       0.92382805       0.00000000
H        2.08725859       0.86805924       0.31611931
H        2.08725859      -0.86805924      -0.31611931
H       -0.56503637      -0.92382805      -0.00000000
6
Properties=species:S:1:pos:R:3 REF_energy="_JSON [[-2113.2991423970907]]" REF_forces="_JSON [[[0.15923973218741033,-8.864085504564406e-10,5.583656287537779e-10]],[[-0.15923895297831345,2.709512857604201e-11,-3.0147065610271015e-10]],[[-0.23616283494989943,0.11911007105947567,-2.638164884549426]],[[0.23616244763795838,-1.604902273835408,2.0972338564843107]],[[0.23616243451746313,1.6049022707366576,-2.097233858459309]],[[-0.2361628264133972,-0.11911006710136025,2.6381648862676372]]]"
C        0.00000000       0.00000000       0.00000000
C        1.52222222       0.00000000       0.00000000
H       -0.56503637       0.92382805       0.00000000
H        2.08725859       0.70758969       0.59394873
H        2.08725859      -0.70758969      -0.59394873
H       -0.56503637      -0.92382805      -0.00000000
6
Properties=species:S:1:pos:R:3 REF_energy="_JSON [[-2114.982587310726]]" REF_forces="_JSON [[[3.7573923804566114,-6.317536713957685e-09,1.0060444406588069e-09]],[[-3.7573922405442737,1.0897517245798983e-08,-9.98271068305656e-10]],[[-0.33680599968557823,0.20555082093260663,-2.4458263390150226]],[[0.3368059237368481,-2.0156168969357893,1.4005734804877654]],[[0.3368059346904483,2.0156168924688314,-1.4005734810899024]],[[-0.3368059986530262,-0.20555082104594136,2.4458263396100275]]]"
C        0.00000000       0.00000000       0.00000000
C        1.52222222       0.00000000       0.00000000
H       -0.56503637       0.92382805       0.00000000
H        2.08725859       0.46177438       0.80013917
H        2.08725859      -0.46177438      -0.80013917
H       -0.56503637      -0.92382805      -0.00000000
6
Properties=species:S:1:pos:R:3 REF_energy="_JSON [[-2116.2296696217327]]" REF_forces="_JSON [[[6.759211123900703,1.376369158555997e-10,-2.912930317046425e-10]],[[-6.759060969274835,-3.835066696788679e-10,1.70169147488252e-10]],[[-0.36010737171349216,0.2548217399216476,-1.1809261153723063]],[[0.36003229428757294,-1.118896232216672,0.45552441379849357]],[[0.3600322945980167,1.1188962323093345,-0.4555244139176519]],[[-0.3601073717974716,-0.25482173976837225,1.1809261156124011]]]"
C        0.00000000       0.00000000       0.00000000
C        1.52222222       0.00000000       0.00000000
H       -0.56503637       0.92382805       0.00000000
H        2.08725859       0.16026227       0.90982101
H        2.08725859      -0.16026227      -0.90982101
H       -0.56503637      -0.92382805      -0.00000000
6
Properties=species:S:1:pos:R:3 REF_energy="_JSON [[-2116.2289074308105]]" REF_forces="_JSON [[[6.756724220827035,8.562039415714451e-11,-7.048172172867585e-11]],[[-6.756852603583307,-5.849840681133703e-10,-1.8865295509184282e-10]],[[-0.36003795298803554,0.2545224711906909,1.1829867836326662]],[[0.36010214460952933,1.1206684096418333,0.45651489779523347]],[[0.36010214423528214,-1.1206684090866548,-0.45651489764643444]],[[-0.3600379530996235,-0.2545224712465476,-1.1829867835220316]]]"
C        0.00000000       0.00000000       0.00000000
C        1.52222222       0.00000000       0.00000000
H       -0.56503637       0.92382805       0.00000000
H        2.08725859      -0.16057984       0.90976501
H        2.08725859       0.16057984      -0.90976501
H       -0.56503637      -0.92382805      -0.00000000
6
Properties=species:S:1:pos:R:3 REF_energy="_JSON [[-2114.9810098666785]]" REF_forces="_JSON [[[3.753953202634415,-3.364331905194766e-10,-2.397619251109076e-09]],[[-3.7540134384530353,6.941727261447718e-09,-3.906704312712779e-09]],[[-0.33676440751298553,0.20548738085528112,2.4464916463078716]],[[0.3367945274841117,2.0156942319366666,1.4015801014069704]],[[0.3367945230714344,-2.0156942389109336,-1.4015800941945937]],[[-0.33676440722420176,-0.20548738048725648,-2.4464916472156566]]]"
C        0.00000000       0.00000000       0.00000000
C        1.52222222       0.00000000       0.00000000
H       -0.56503637       0.92382805       0.00000000
H        2.08725859      -0.46205365       0.79997793
H        2.08725859       0.46205365      -0.79997793
H       -0.56503637      -0.92382805      -0.00000000
6
Properties=species:S:1:pos:R:3 REF_energy="_JSON [[-2113.297440869123]]" REF_forces="_JSON [[[0.15516343719523704,3.2997746645163333e-10,-5.786457334731491e-10]],[[-0.15546988968962802,-3.1935911443976185e-09,4.452514685670465e-09]],[[-0.23597524735199132,0.11890027338796427,2.6379851060746895]],[[0.23612848309826007,1.603939650835459,2.0978538722000466]],[[0.23612847100346593,-1.6039396455659416,-2.0978538778095155]],[[-0.23597525425612015,-0.11890027579476281,-2.6379851043388145]]]"
C        0.00000000       0.00000000       0.00000000
C        1.52222222       0.00000000       0.00000000
H       -0.56503637       0.92382805       0.00000000
H        2.08725859      -0.70779698       0.59370170
H        2.08725859       0.70779698      -0.59370170
H       -0.56503637      -0.92382805      -0.00000000
6
Properties=species:S:1:pos:R:3 REF_energy="_JSON [[-2111.762514067726]]" REF_forces="_JSON [[[-3.734360817422267,-5.079113101656644e-09,4.700888290118672e-10]],[[3.7343609370337796,-3.74743113225836e-09,1.6442925244642013e-09]],[[0.020430995752583916,-0.02411405875820325,1.9487495494648464]],[[-0.02043122438189996,0.6888533248103816,1.8230982828468612]],[[-0.02043105962976692,-0.6888533233688153,-1.823098302258265]],[[0.020431168647469772,0.02411406614304113,-1.948749532167846]]]"
C        0.00000000       0.00000000       0.00000000
C        1.52222222       0.00000000       0.00000000
H       -0.56503637       0.92382805       0.00000000
H        2.08725859      -0.86816954       0.31581628
H        2.08725859       0.86816954      -0.31581628
H       -0.56503637      -0.92382805      -0.00000000
6
Properties=species:S:1:pos:R:3 REF_energy="_JSON [[-2111.0645733092947]]" REF_forces="_JSON [[[-6.131152120709044,1.834323989383332e-10,9.359783708139818e-10]],[[6.131178422362414,3.6049094864307933e-10,-1.6217209849212977e-09]],[[0.2602455274324527,-0.1388190839641845,-0.0013580786961801135]],[[-0.2602586794856387,0.13888524931688734,-0.0013339022930176202]],[[-0.2602586796228487,-0.13888524931999272,0.0013339028012217754]],[[0.26024553002257916,0.1388190834239993,0.0013580788737185899]]]"
C        0.00000000       0.00000000       0.00000000
C        1.52222222       0.00000000       0.00000000
H       -0.56503637       0.92382805       0.00000000
H        2.08725859      -0.92382804      -0.00016124
H        2.08725859       0.92382804       0.00016124
H       -0.56503637      -0.92382805      -0.00000000
6
Properties=species:S:1:pos:R:3 REF_energy="_JSON [[-2111.402058714868]]" REF_forces="_JSON [[[0.5075530606451897,1.594529364054139e-10,-6.577789602257773e-10]],[[-0.5074318243154462,1.7592908956881831e-10,-4.305825925329962e-10]],[[0.4747934632233555,0.06294523662065356,-0.0007003485868416025]],[[-0.47485408123600836,0.06292216126515157,0.0007113167066781198]],[[-0.4748540813917381,-0.0629221613696947,-0.0007113161507539057]],[[0.47479346307421355,-0.06294523685223334,0.0007003491192788801]]]"
C        0.00000000       0.00000000       0.00000000
C        1.73333333       0.00000000       0.00000000
H       -0.56503637       0.92382805       0.00000000
H        2.29836970       0.92382804       0.00016124
H        2.29836970      -0.92382804      -0.00016124
H       -0.56503637      -0.92382805      -0.00000000
6
Properties=species:S:1:pos:R:3 REF_energy="_JSON [[-2111.8085437598693]]" REF_forces="_JSON [[[1.7453593690578642,-7.33425691573749e-08,-2.4234526111272865e-08]],[[-1.7453589935885032,1.1596671411494505e-07,4.03452381933244e-08]],[[0.35581183018476686,0.10614121878262474,-1.1738614809264278]],[[-0.35581215288456036,-0.30194340518993634,1.1393186437574456]],[[-0.3558120032938771,0.3019433264646589,-1.1393186758468878]],[[0.35581195052367204,-0.10614118268123855,1.1738614969050947]]]"
C        0.00000000       0.00000000       0.00000000
C        1.73333333       0.00000000       0.00000000
H       -0.56503637       0.92382805       0.00000000
H        2.29836970       0.86805924       0.31611931
H        2.29836970      -0.86805924      -0.31611931
H       -0.56503637      -0.92382805      -0.00000000
6
Properties=species:S:1:pos:R:3 REF_energy="_JSON [[-2112.76777695455]]" REF_forces="_JSON [[[4.269852000893786,-1.7163523834369988e-08,9.568592384446773e-09]],[[-4.269545482213997,-1.2654241722770963e-08,2.9611693035709575e-09]],[[0.18132329047882728,0.18067777687514655,-1.683079654916596]],[[-0.1814765994383151,-0.9438600773323094,1.4051552191449903]],[[-0.18147658657271495,0.9438600965605731,-1.4051552196672945]],[[0.18132337685318967,-0.18067776628594065,1.6830796429095125]]]"
C        0.00000000       0.00000000       0.00000000
C        1.73333333       0.00000000       0.00000000
H       -0.56503637       0.92382805       0.00000000
H        2.29836970       0.70758969       0.59394873
H        2.29836970      -0.70758969      -0.59394873
H       -0.56503637      -0.92382805      -0.00000000
6
Properties=species:S:1:pos:R:3 REF_energy="_JSON [[-2113.835763446729]]" REF_forces="_JSON [[[6.90465448823765,3.3800601075140905e-09,2.5134124712884675e-08]],[[-6.904307366713639,-1.245879707862389e-08,-2.1196710751448252e-08]],[[0.07800631448878474,0.2429019488500153,-1.517628332821321]],[[-0.07817985288457419,-1.1932039567575534,0.9687048217500568]],[[-0.07818058389907763,1.1932038900173925,-0.9687047779381471]],[[0.0780070007702653,-0.24290187303141592,1.5176282850714835]]]"
C        0.00000000       0.00000000       0.00000000
C        1.73333333       0.00000000       0.00000000
H       -0.56503637       0.92382805       0.00000000
H        2.29836970       0.46177438       0.80013917
H        2.29836970      -0.46177438      -0.80013917
H       -0.56503637      -0.92382805      -0.00000000
6
Properties=species:S:1:pos:R:3 REF_energy="_JSON [[-2114.573363983949]]" REF_forces="_JSON [[[8.88140870186732,2.866618164181877e-11,-7.535158075002876e-11]],[[-8.881705200379505,-6.2183877277025e-11,-5.123508802196251e-11]],[[0.035425989151358875,0.2821093597834208,-0.6502802195726285]],[[-0.03527773985887406,-0.5913446253051632,0.3910327525082286]],[[-0.035277739920805254,0.5913446253530783,-0.3910327524560486]],[[0.03542598913972392,-0.2821093597981501,0.650280219646558]]]"
C        0.00000000       0.00000000       0.00000000
C        1.73333333       0.00000000       0.00000000
H       -0.56503637       0.92382805       0.00000000
H        2.29836970       0.16026227       0.90982101
H        2.29836970      -0.16026227      -0.90982101
H       -0.56503637      -0.92382805      -0.00000000
6
Properties=species:S:1:pos:R:3 REF_energy="_JSON [[-2114.572944112263]]" REF_forces="_JSON [[[8.879880305338231,-5.550591597433521e-11,-7.722330075225477e-11]],[[-8.880029109969978,5.74837596166774e-11,-2.4810025597618988e-11]],[[0.03539570588996823,0.28217725704548535,0.651448351414944]],[[-0.03532130355834059,0.5924211657040694,0.39134470519691095]],[[-0.03532130361095467,-0.5924211657470942,-0.3913447051689137]],[[0.035395705910703304,-0.2821772570039008,-0.6514483513411894]]]"
C        0.00000000       0.00000000       0.00000000
C        1.73333333       0.00000000       0.00000000
H       -0.56503637       0.92382805       0.00000000
H        2.29836970      -0.16057984       0.90976501
H        2.29836970       0.16057984      -0.90976501
H       -0.56503637      -0.92382805      -0.00000000
6
Properties=species:S:1:pos:R:3 REF_energy="_JSON [[-2113.83478438106]]" REF_forces="_JSON [[[6.901620467673132,-1.3762253195544816e-08,-2.8094185094459863e-08]],[[-6.901643438515635,-1.8912881565645956e-08,3.0253270679808844e-08]],[[0.07811979519523464,0.24268446131814322,1.5180873371590369]],[[-0.0781090205457779,1.1931732845522243,0.9694521632381687]],[[-0.0781082903223469,-1.1931733455845357,-0.9694522148856548]],[[0.07812048651588648,-0.24268436761072407,-1.5180872876703624]]]"
C        0.00000000       0.00000000       0.00000000
C        1.73333333       0.00000000       0.00000000
H       -0.56503637       0.92382805       0.00000000
H        2.29836970      -0.46205365       0.79997793
H        2.29836970       0.46205365      -0.79997793
H       -0.56503637      -0.92382805      -0.00000000
6
Properties=species:S:1:pos:R:3 REF_energy="_JSON [[-2112.766691492361]]" REF_forces="_JSON [[[4.266613672663413,1.0878423357113604e-09,2.827106690830888e-10]],[[-4.266613591189098,-1.0798812166019549e-08,8.798099173141191e-09]],[[0.18147785658939494,0.18052233741428167,1.6828187845737226]],[[-0.18147793060330036,0.9431615305589283,1.4053161953532987]],[[-0.1814779111649563,-0.9431615154340374,-1.4053162067782174]],[[0.18147790370469116,-0.18052234282839696,-1.682818782229632]]]"
C        0.00000000       0.00000000       0.00000000
C        1.73333333       0.00000000       0.00000000
H       -0.56503637       0.92382805       0.00000000
H        2.29836970      -0.70779698       0.59370170
H        2.29836970       0.70779698      -0.59370170
H       -0.56503637      -0.92382805      -0.00000000
6
Properties=species:S:1:pos:R:3 REF_energy="_JSON [[-2111.8077867391103]]" REF_forces="_JSON [[[1.7431609498279785,8.110644420733628e-08,-2.7002789484407845e-08]],[[-1.7434801325635336,-7.3825267274832e-08,2.7079315015256676e-08]],[[0.3561558616683842,0.10593154767346308,1.1730111657355204]],[[-0.355996303695649,0.301321971298333,1.1385888517007008]],[[-0.3559961614800189,-0.30132192649972533,-1.1385888681246363]],[[0.3561557862425409,-0.10593159975263992,-1.1730111493882602]]]"
C        0.00000000       0.00000000       0.00000000
C        1.73333333       0.00000000       0.00000000
H       -0.56503637       0.92382805       0.00000000
H        2.29836970      -0.86816954       0.31581628
H        2.29836970       0.86816954      -0.31581628
H       -0.56503637      -0.92382805      -0.00000000
6
Properties=species:S:1:pos:R:3 REF_energy="_JSON [[-2111.402058714868]]" REF_forces="_JSON [[[0.507511463957957,9.105583808767932e-11,7.108737306158187e-10]],[[-0.5075119021472398,-9.528526651899039e-11,3.4085848562791645e-10]],[[0.47473894285417273,0.06306390762352292,-0.0007003174393570864]],[[-0.47473872373943554,-0.0630643187641753,-0.0007113142746444911]],[[-0.47473872371288883,0.06306431889703502,0.000711313769639899]],[[0.4747389427875143,-0.06306390775243238,0.000700316892629457]]]"
C        0.00000000       0.00000000       0.00000000
C        1.73333333       0.00000000       0.00000000
H       -0.56503637       0.92382805       0.00000000
H        2.29836970      -0.92382804      -0.00016124
H        2.29836970       0.92382804       0.00016124
H       -0.56503637      -0.92382805      -0.00000000
6
Properties=species:S:1:pos:R:3 REF_energy="_JSON [[-2110.7252225632096]]" REF_forces="_JSON [[[3.2473355237037,-6.576245154778534e-09,2.9709906402796233e-09]],[[-3.2478247788729,6.860287163766122e-09,6.628659514664582e-09]],[[0.6343751118648093,0.23266011551221435,-0.0004055175807917929]],[[-0.6341304875662619,0.2328856731640872,0.00044609819851725317]],[[-0.6341304841735984,-0.23288567880932515,-0.00044610381482747404]],[[0.634375115043598,-0.23266011015128388,0.0004055135974519184]]]"
C        0.00000000       0.00000000       0.00000000
C        1.94444444       0.00000000       0.00000000
H       -0.56503637       0.92382805       0.00000000
H        2.50948081       0.92382804       0.00016124
H        2.50948081      -0.92382804      -0.00016124
H       -0.56503637      -0.92382805      -0.00000000
6
Properties=species:S:1:pos:R:3 REF_energy="_JSON [[-2110.9681630964965]]" REF_forces="_JSON [[[3.9682691754082464,4.3917639404693235e-08,1.1339677648289745e-07]],[[-3.968381071629957,-7.994860955055215e-08,9.461851059093274e-08]],[[0.5700452510377544,0.2496036797361206,-0.7103579855485286]],[[-0.5699893230141893,-0.008407133442683028,0.752934501640555]],[[-0.569989303049911,0.008407178442019372,-0.7529346014304703]],[[0.570045271248879,-0.24960368870445157,0.710357877323003]]]"
C        0.00000000       0.00000000       0.00000000
C        1.94444444       0.00000000       0.00000000
H       -0.56503637       0.92382805       0.00000000
H        2.50948081       0.86805924       0.31611931
H        2.50948081      -0.86805924      -0.31611931
H       -0.56503637      -0.92382805      -0.00000000
6
Properties=species:S:1:pos:R:3 REF_energy="_JSON [[-2111.5560876770032]]" REF_forces="_JSON [[[5.589284543034116,4.2773808157426256e-08,1.1095808039694633e-07]],[[-5.589285094725018,-1.2474286085596657e-07,2.2705429896645164e-08]],[[0.45624504323508064,0.2856122958309868,-1.0362251491819598]],[[-0.4562447784317715,-0.44745140186754917,0.9773045655328089]],[[-0.4562447798515533,0.44745150144583806,-0.977304604053578]],[[0.45624506673895004,-0.2856123134406598,1.03622505403936]]]"
C        0.00000000       0.00000000       0.00000000
C        1.94444444       0.00000000       0.00000000
H       -0.56503637       0.92382805       0.00000000
H        2.50948081       0.70758969       0.59394873
H        2.50948081      -0.70758969      -0.59394873
H       -0.56503637      -0.92382805      -0.00000000
6
Properties=species:S:1:pos:R:3 REF_energy="_JSON [[-2112.2060493195963]]" REF_forces="_JSON [[[7.322912205221144,7.335753096596857e-09,1.1329101824791031e-07]],[[-7.322883240752648,-1.0198399028459894e-07,-4.214424189398287e-08]],[[0.37327764332439123,0.3211315419538058,-0.9044225126167074]],[[-0.37329220557318005,-0.6228245214609767,0.7302392187650945]],[[-0.3732921993033203,0.6228246122616256,-0.7302392010470093]],[[0.3732777970827677,-0.32113153810587397,0.9044224237518111]]]"
C        0.00000000       0.00000000       0.00000000
C        1.94444444       0.00000000       0.00000000
H       -0.56503637       0.92382805       0.00000000
H        2.50948081       0.46177438       0.80013917
H        2.50948081      -0.46177438      -0.80013917
H       -0.56503637      -0.92382805      -0.00000000
6
Properties=species:S:1:pos:R:3 REF_energy="_JSON [[-2112.6337867291963]]" REF_forces="_JSON [[[8.504899285944866,1.720623474401011e-10,1.2147081079321461e-08]],[[-8.504857873338427,-2.1648608356364075e-09,-8.378184143257577e-09]],[[0.3337408524062545,0.34427136508366113,-0.3642050482696702]],[[-0.33376155837052385,-0.29900663611324213,0.4022531964786629]],[[-0.3337615610154446,0.29900663638175895,-0.40225318940053517]],[[0.33374085437246725,-0.34427136335945246,0.3642050374224053]]]"
C        0.00000000       0.00000000       0.00000000
C        1.94444444       0.00000000       0.00000000
H       -0.56503637       0.92382805       0.00000000
H        2.50948081       0.16026227       0.90982101
H        2.50948081      -0.16026227      -0.90982101
H       -0.56503637      -0.92382805      -0.00000000
6
Properties=species:S:1:pos:R:3 REF_energy="_JSON [[-2112.633551622821]]" REF_forces="_JSON [[[8.50385090276502,1.2340553638697303e-08,8.164141213782255e-09]],[[-8.503756977023112,-1.500932031510926e-08,-6.488246975369876e-09]],[[0.3338126801513017,0.3442477714117659,0.3649146672765946]],[[-0.3338596390704772,0.29956032703077756,0.4023042449636128]],[[-0.3338596410120614,-0.29956031294440316,-0.4023042372872052]],[[0.33381267418926014,-0.3442477828300554,-0.3649146766292808]]]"
C        0.00000000       0.00000000       0.00000000
C        1.94444444       0.00000000       0.00000000
H       -0.56503637       0.92382805       0.00000000
H        2.50948081      -0.16057984       0.90976501
H        2.50948081       0.16057984      -0.90976501
H       -0.56503637      -0.92382805      -0.00000000
6
Properties=species:S:1:pos:R:3 REF_energy="_JSON [[-2112.2054659074797]]" REF_forces="_JSON [[[7.321481069265212,-1.7360832817389837e-08,-6.893199678571604e-08]],[[-7.321479945416139,-3.269218318376185e-08,5.446490297765109e-08]],[[0.3733345148082543,0.32116525979773847,0.9047619436245047]],[[-0.3733351620061978,0.6228367794790304,0.730626735650744]],[[-0.3733351639647487,-0.6228367394663424,-0.7306267680085117]],[[0.37333468731426644,-0.3211652497571664,-0.9047618967989789]]]"
C        0.00000000       0.00000000       0.00000000
C        1.94444444       0.00000000       0.00000000
H       -0.56503637       0.92382805       0.00000000
H        2.50948081      -0.46205365       0.79997793
H        2.50948081       0.46205365      -0.79997793
H       -0.56503637      -0.92382805      -0.00000000
6
Properties=species:S:1:pos:R:3 REF_energy="_JSON [[-2111.555419093249]]" REF_forces="_JSON [[[5.587496213209421,5.394597443755176e-08,-1.2509653386983878e-07]],[[-5.587496649449709,-1.439953821448299e-07,-3.171073311575517e-08]],[[0.45634941430339393,0.2855743192191211,1.0361299599722915]],[[-0.4563492089262718,0.44707838892442375,0.9773632765070802]],[[-0.456349208321198,-0.4470782747273709,-0.9773632287250525]],[[0.4563494391858719,-0.2855743433662342,-1.0361298509469214]]]"
C        0.00000000       0.00000000       0.00000000
C        1.94444444       0.00000000       0.00000000
H       -0.56503637       0.92382805       0.00000000
H        2.50948081      -0.70779698       0.59370170
H        2.50948081       0.70779698      -0.59370170
H       -0.56503637      -0.92382805      -0.00000000
6
Properties=species:S:1:pos:R:3 REF_energy="_JSON [[-2110.96770512887]]" REF_forces="_JSON [[[3.9670806805930092,-5.343366139634736e-08,1.0548940741133646e-07]],[[-3.9671926858610336,8.89288305010577e-08,1.3927355075498865e-07]],[[0.5701021801367834,0.2497050268437454,0.7098253948639248]],[[-0.570046178723387,0.007963424703921518,0.7524127600090786]],[[-0.5700461558047928,-0.00796347571069767,-0.7524128881187102]],[[0.5701021596601461,-0.24970501133208245,-0.7098255115172494]]]"
C        0.00000000       0.00000000       0.00000000
C        1.94444444       0.00000000       0.00000000
H       -0.56503637       0.92382805       0.00000000
H        2.50948081      -0.86816954       0.31581628
H        2.50948081       0.86816954      -0.31581628
H       -0.56503637      -0.92382805      -0.00000000
6
Properties=species:S:1:pos:R:3 REF_energy="_JSON [[-2110.7252225632096]]" REF_forces="_JSON [[[3.2473080345154175,-4.225179144040393e-09,-3.2912057196404773e-09]],[[-3.2478379047569614,5.204956490609263e-09,-9.876167325216524e-09]],[[0.6344004010085659,0.2326265679759994,-0.0004054830888489253]],[[-0.634135466169273,-0.23282095441863468,-0.00044605792713936515]],[[-0.6341354682666454,0.23282095027920147,0.0004460660174674038]],[[0.6344004036683415,-0.2326265648166636,0.00040548816589392264]]]"
C        0.00000000       0.00000000       0.00000000
C        1.94444444       0.00000000       0.00000000
H       -0.56503637       0.92382805       0.00000000
H        2.50948081      -0.92382804      -0.00016124
H        2.50948081       0.92382804       0.00016124
H       -0.56503637      -0.92382805      -0.00000000
6
Properties=species:S:1:pos:R:3 REF_energy="_JSON [[-2109.6267008142026]]" REF_forces="_JSON [[[4.165578570956472,2.43013954092711e-09,-8.332992610234493e-10]],[[-4.165578481949579,-3.0676438935162155e-09,3.409958168740299e-10]],[[0.7530941919980124,0.37081008626172013,-0.00023845313844650008]],[[-0.7530942369298691,0.37080987901177287,0.0003031453848910335]],[[-0.7530942364243335,-0.37080987561624473,-0.00030314544751185125]],[[0.753094192349477,-0.37081008901987333,0.0002384536933708075]]]"
C        0.00000000       0.00000000       0.00000000
C        2.15555556       0.00000000       0.00000000
H       -0.56503637       0.92382805       0.00000000
H        2.72059193       0.92382804       0.00016124
H        2.72059193      -0.92382804      -0.00016124
H       -0.56503637      -0.92382805      -0.00000000
6
Properties=species:S:1:pos:R:3 REF_energy="_JSON [[-2109.7712471525365]]" REF_forces="_JSON [[[4.5966112544230375,-1.5406542328158805e-06,-1.5207809743166083e-06]],[[-4.596683958595428,2.0982435426287274e-06,-1.6731131214799068e-06]],[[0.7169131083925449,0.3769159701275971,-0.42480592563345904]],[[-0.7168761661462842,0.20881929887744655,0.5281220913845796]],[[-0.716876705103268,-0.2088201861342535,-0.5281205301077991]],[[0.7169124670300366,-0.3769156404604648,0.424807558250707]]]"
C        0.00000000       0.00000000       0.00000000
C        2.15555556       0.00000000       0.00000000
H       -0.56503637       0.92382805       0.00000000
H        2.72059193       0.86805924       0.31611931
H        2.72059193      -0.86805924      -0.31611931
H       -0.56503637      -0.92382805      -0.00000000
6
Properties=species:S:1:pos:R:3 REF_energy="_JSON [[-2110.1246338036467]]" REF_forces="_JSON [[[5.605459627936417,-7.242026957690482e-06,-1.5567408828975107e-05]],[[-5.60535113953093,8.427651115052104e-06,5.8363941813491255e-06]],[[0.6445088698123114,0.39188121000856996,-0.6234962221434661]],[[-0.6445596469068999,-0.10074673370984716,0.7295321926102005]],[[-0.6445641003193706,0.10074385311893086,-0.7295316593958274]],[[0.6445063890099479,-0.3918795150415072,0.623505419943892]]]"
C        0.00000000       0.00000000       0.00000000
C        2.15555556       0.00000000       0.00000000
H       -0.56503637       0.92382805       0.00000000
H        2.72059193       0.70758969       0.59394873
H        2.72059193      -0.70758969      -0.59394873
H       -0.56503637      -0.92382805      -0.00000000
6
Properties=species:S:1:pos:R:3 REF_energy="_JSON [[-2110.512861913423]]" REF_forces="_JSON [[[6.68057781482677,-4.378040759222726e-05,-2.5977615859034904e-05]],[[-6.680710663149395,7.42232213871642e-05,-2.625825042825305e-06]],[[0.5842089982847122,0.4085594846081669,-0.534051829437056]],[[-0.5841260555867622,-0.2583027248661976,0.6207860154188877]],[[-0.5841384947684711,0.2582639557637003,-0.6207722717401363]],[[0.5841884003926119,-0.4085511583192,0.5340666891990485]]]"
C        0.00000000       0.00000000       0.00000000
C        2.15555556       0.00000000       0.00000000
H       -0.56503637       0.92382805       0.00000000
H        2.72059193       0.46177438       0.80013917
H        2.72059193      -0.46177438      -0.80013917
H       -0.56503637      -0.92382805      -0.00000000
6
Properties=species:S:1:pos:R:3 REF_energy="_JSON [[-2110.7623329072417]]" REF_forces="_JSON [[[7.373384341335802,0.00024396735278381764,0.00025977084811723073]],[[-7.373374847469199,-0.0003297301621444051,-0.00013953533853039391]],[[0.5528061479921983,0.4197660740774389,-0.20944851787438196]],[[-0.5528941836988666,-0.13327008418608927,0.44966153140825355]],[[-0.5528172197973643,0.1334042859634866,-0.4496480307288048]],[[0.5528957616377748,-0.41981451304574885,0.20931478168485093]]]"
C        0.00000000       0.00000000       0.00000000
C        2.15555556       0.00000000       0.00000000
H       -0.56503637       0.92382805       0.00000000
H        2.72059193       0.16026227       0.90982101
H        2.72059193      -0.16026227      -0.90982101
H       -0.56503637      -0.92382805      -0.00000000
6
Properties=species:S:1:pos:R:3 REF_energy="_JSON [[-2110.7622006599054]]" REF_forces="_JSON [[[7.37308079832608,-0.00013325706870230046,0.00037149854210134336]],[[-7.372990815270276,0.00033231528954968123,-0.00014282749713185344]],[[0.5528745463726147,0.41984785863256885,0.20967307154908274]],[[-0.5529283790725135,0.13349460049296732,0.44972144902235667]],[[-0.5528360970503762,-0.13371629963594672,-0.4497243292081515]],[[0.5527999466942762,-0.4198252177098078,-0.20989886240879785]]]"
C        0.00000000       0.00000000       0.00000000
C        2.15555556       0.00000000       0.00000000
H       -0.56503637       0.92382805       0.00000000
H        2.72059193      -0.16057984       0.90976501
H        2.72059193       0.16057984      -0.90976501
H       -0.56503637      -0.92382805      -0.00000000
6
Properties=species:S:1:pos:R:3 REF_energy="_JSON [[-2110.512517145162]]" REF_forces="_JSON [[[6.679752760532362,3.96340128976237e-06,-4.7406757339000125e-06]],[[-6.67975163204039,-2.3613640034437787e-06,2.5548215615304195e-06]],[[0.5842159195065373,0.4085840521409036,0.5342348617309879]],[[-0.5842160645851835,0.25825873487775913,0.6210062356893935]],[[-0.5842175874156744,-0.2582591888848782,-0.6210072050633226]],[[0.5842166040030428,-0.4085852001710964,-0.5342317065029252]]]"
C        0.00000000       0.00000000       0.00000000
C        2.15555556       0.00000000       0.00000000
H       -0.56503637       0.92382805       0.00000000
H        2.72059193      -0.46205365       0.79997793
H        2.72059193       0.46205365      -0.79997793
H       -0.56503637      -0.92382805      -0.00000000
6
Properties=species:S:1:pos:R:3 REF_energy="_JSON [[-2110.1242316193616]]" REF_forces="_JSON [[[5.604283896716832,9.716910229685329e-06,-1.5508840991386846e-05]],[[-5.604277698370182,-1.4115194318074614e-05,1.318053921885228e-07]],[[0.6446057512994224,0.39182616872983095,0.6234733761200543]],[[-0.6446084464933883,0.10045530826038476,0.7295226193642582]],[[-0.6446134054340357,-0.10044891183443631,-0.7295181186445296]],[[0.6446099022825547,-0.3918281668716573,-0.6234624998041295]]]"
C        0.00000000       0.00000000       0.00000000
C        2.15555556       0.00000000       0.00000000
H       -0.56503637       0.92382805       0.00000000
H        2.72059193      -0.70779698       0.59370170
H        2.72059193       0.70779698      -0.59370170
H       -0.56503637      -0.92382805      -0.00000000
6
Properties=species:S:1:pos:R:3 REF_energy="_JSON [[-2109.770973405993]]" REF_forces="_JSON [[[4.5958446970849876,-1.0979169856218651e-06,-6.279184253565559e-07]],[[-4.595844078110588,1.3092392043846874e-06,1.0596843660419373e-06]],[[0.716960184834317,0.3769522511309828,0.42442887474068614]],[[-0.7169604324476703,-0.20914808250427336,0.5277208816508251]],[[-0.7169602299861058,0.20914757590580083,-0.5277216124812611]],[[0.7169598586253526,-0.3769519558550724,-0.42442857567610587]]]"
C        0.00000000       0.00000000       0.00000000
C        2.15555556       0.00000000       0.00000000
H       -0.56503637       0.92382805       0.00000000
H        2.72059193      -0.86816954       0.31581628
H        2.72059193       0.86816954      -0.31581628
H       -0.56503637      -0.92382805      -0.00000000
6
Properties=species:S:1:pos:R:3 REF_energy="_JSON [[-2109.6267008142026]]" REF_forces="_JSON [[[4.165517427348405,-2.3433090781696895e-09,5.469014061813738e-09]],[[-4.165679669636504,2.9784184715935363e-09,3.893991719182588e-09]],[[0.7531622475026726,0.37068847678349576,-0.0002384344602689061]],[[-0.7530811264362317,-0.37085489059587784,-0.0003031358135529244]],[[-0.7530811259007993,0.37085488726472393,0.0003031313292755572]],[[0.753162247122067,-0.3706884740868861,0.00023842958154050658]]]"
C        0.00000000       0.00000000       0.00000000
C        2.15555556       0.00000000       0.00000000
H       -0.56503637       0.92382805       0.00000000
H        2.72059193      -0.92382804      -0.00016124
H        2.72059193       0.92382804       0.00016124
H       -0.56503637      -0.92382805      -0.00000000
6
Properties=species:S:1:pos:R:3 REF_energy="_JSON [[-2108.3980708161735]]" REF_forces="_JSON [[[4.179693588851042,-1.2076273283223904e-09,-1.3008349306977164e-07]],[[-4.1798978441135555,-7.31745850873407e-10,-1.3474556015912499e-07]],[[0.8373740391348313,0.48146339280226597,-0.00013945762707225437]],[[-0.8372719112169094,0.4816278133639468,0.00022366799534962104]],[[-0.8372719115665537,-0.48162781259551546,-0.00022353561106352548]],[[0.8373740389110631,-0.4814633916307566,0.00013959007183945643]]]"
C        0.00000000       0.00000000       0.00000000
C        2.36666667       0.00000000       0.00000000
H       -0.56503637       0.92382805       0.00000000
H        2.93170304       0.92382804       0.00016124
H        2.93170304      -0.92382804      -0.00016124
H       -0.56503637      -0.92382805      -0.00000000
6
Properties=species:S:1:pos:R:3 REF_energy="_JSON [[-2108.483354293226]]" REF_forces="_JSON [[[4.436269996668242,-1.7145743865575864e-07,9.915306412939124e-07]],[[-4.436270586598543,-1.3046385462758158e-07,8.723628834375093e-07]],[[0.8162970880463756,0.48321252758501426,-0.25141649949130895]],[[-0.8162968273882311,0.3680123045563283,0.4015861188045431]],[[-0.8162967919648444,-0.3680120476992455,-0.4015869620166665]],[[0.816297121237155,-0.4832124825212802,0.2514154788097977]]]"
C        0.00000000       0.00000000       0.00000000
C        2.36666667       0.00000000       0.00000000
H       -0.56503637       0.92382805       0.00000000
H        2.93170304       0.86805924       0.31611931
H        2.93170304      -0.86805924      -0.31611931
H       -0.56503637      -0.92382805      -0.00000000
6
Properties=species:S:1:pos:R:3 REF_energy="_JSON [[-2108.6933053747803]]" REF_forces="_JSON [[[5.048350360586537,6.147963748826507e-06,2.328785167896291e-07]],[[-5.048266029810667,-8.586493822564228e-06,8.764739818478422e-07]],[[0.7708562790926374,0.4877244537611675,-0.3712995948037836]],[[-0.7709000448997481,0.13481745582544866,0.5979965488678555]],[[-0.770898751971097,-0.13481328422919622,-0.5979985713391489]],[[0.7708581870031604,-0.48772618682708047,0.3713005079225638]]]"
C        0.00000000       0.00000000       0.00000000
C        2.36666667       0.00000000       0.00000000
H       -0.56503637       0.92382805       0.00000000
H        2.93170304       0.70758969       0.59394873
H        2.93170304      -0.70758969      -0.59394873
H       -0.56503637      -0.92382805      -0.00000000
6
Properties=species:S:1:pos:R:3 REF_energy="_JSON [[-2108.924078336806]]" REF_forces="_JSON [[[5.700404379345476,-2.4983340771586714e-06,5.38839036451586e-06]],[[-5.7001883178405075,-1.7489947123460777e-06,5.509313594425068e-06]],[[0.7292610349878329,0.4936262975359482,-0.31644726543020285]],[[-0.729369946617388,-0.027494660237620514,0.5854657301412857]],[[-0.729369220996866,0.027498273938048146,-0.5854691807287236]],[[0.7292620711215869,-0.493625663907307,0.31643981831331897]]]"
C        0.00000000       0.00000000       0.00000000
C        2.36666667       0.00000000       0.00000000
H       -0.56503637       0.92382805       0.00000000
H        2.93170304       0.46177438       0.80013917
H        2.93170304      -0.46177438      -0.80013917
H       -0.56503637      -0.92382805      -0.00000000
6
Properties=species:S:1:pos:R:3 REF_energy="_JSON [[-2109.071283771782]]" REF_forces="_JSON [[[6.110832698527167,1.712097856272659e-06,-9.129446975485233e-07]],[[-6.110831862699005,2.73237371260551e-06,-1.102777795796679e-06]],[[0.7062845322828316,0.49791406992742104,-0.1229481245374343]],[[-0.7062846663551243,-0.03471004198745925,0.5116946474133841]],[[-0.706284773351102,0.034706224577878246,-0.5116937759134523]],[[0.7062840715953762,-0.49791469698907237,0.12294926875982254]]]"
C        0.00000000       0.00000000       0.00000000
C        2.36666667       0.00000000       0.00000000
H       -0.56503637       0.92382805       0.00000000
H        2.93170304       0.16026227       0.90982101
H        2.93170304      -0.16026227      -0.90982101
H       -0.56503637      -0.92382805      -0.00000000
6
Properties=species:S:1:pos:R:3 REF_energy="_JSON [[-2109.071204586649]]" REF_forces="_JSON [[[6.110711275043296,2.2634240475922304e-05,2.2764322034857308e-05]],[[-6.110656005680453,-2.9795283560554935e-05,-2.4486778624682906e-05]],[[0.7062477983163883,0.49792182039800237,0.1232149044169407]],[[-0.706282378627875,0.03478285253231514,0.5116475330257942]],[[-0.7062769264331126,-0.034769355725620725,-0.5116397595139777]],[[0.7062562373823167,-0.49792815616176606,-0.12322095547251787]]]"
C        0.00000000       0.00000000       0.00000000
C        2.36666667       0.00000000       0.00000000
H       -0.56503637       0.92382805       0.00000000
H        2.93170304      -0.16057984       0.90976501
H        2.93170304       0.16057984      -0.90976501
H       -0.56503637      -0.92382805      -0.00000000
6
Properties=species:S:1:pos:R:3 REF_energy="_JSON [[-2108.9238739792972]]" REF_forces="_JSON [[[5.69991429117587,4.9167188573558605e-06,1.1351760054387375e-05]],[[-5.700018055779398,-4.345906616115215e-06,-1.3942776724893895e-05]],[[0.7293046921998015,0.4936143282643125,0.31660451088303415]],[[-0.7292552524663352,0.027218207569019617,0.5857503200106614]],[[-0.7292527277408926,-0.027217328604701056,-0.5857462918118246]],[[0.7293070526104766,-0.49361577804110585,-0.31660594806482834]]]"
C        0.00000000       0.00000000       0.00000000
C        2.36666667       0.00000000       0.00000000
H       -0.56503637       0.92382805       0.00000000
H        2.93170304      -0.46205365       0.79997793
H        2.93170304       0.46205365      -0.79997793
H       -0.56503637      -0.92382805      -0.00000000
6
Properties=species:S:1:pos:R:3 REF_energy="_JSON [[-2108.6930659145833]]" REF_forces="_JSON [[[5.0476318178440005,5.590791279086659e-06,2.5909349080179793e-05]],[[-5.047620461880316,-7.4334103338615316e-06,-2.2679894984640324e-05]],[[0.7709232495491971,0.48773565011776066,0.37130237862962956]],[[-0.7709320232495441,-0.1350257849124382,0.5978816818699059]],[[-0.7709284231976463,0.13502911203051218,-0.5978739334104529]],[[0.7709258409345308,-0.487737134616784,-0.3713133565430459]]]"
C        0.00000000       0.00000000       0.00000000
C        2.36666667       0.00000000       0.00000000
H       -0.56503637       0.92382805       0.00000000
H        2.93170304      -0.70779698       0.59370170
H        2.93170304       0.70779698      -0.59370170
H       -0.56503637      -0.92382805      -0.00000000
6
Properties=species:S:1:pos:R:3 REF_energy="_JSON [[-2108.4831921133655]]" REF_forces="_JSON [[[4.435787890908152,-1.867164536403409e-07,-1.0763665942767616e-06]],[[-4.435788557606307,-1.484679575618913e-07,-9.832036174884389e-07]],[[0.8163353672517611,0.4832095252653377,0.251215223436363]],[[-0.8163350284554719,-0.3682180133188281,0.40126824277718837]],[[-0.8163350756350848,0.3682182989107049,-0.4012672911501633]],[[0.8163354035365397,-0.4832094756723144,-0.2512141154932602]]]"
C        0.00000000       0.00000000       0.00000000
C        2.36666667       0.00000000       0.00000000
H       -0.56503637       0.92382805       0.00000000
H        2.93170304      -0.86816954       0.31581628
H        2.93170304       0.86816954      -0.31581628
H       -0.56503637      -0.92382805      -0.00000000
6
Properties=species:S:1:pos:R:3 REF_energy="_JSON [[-2108.3980708161735]]" REF_forces="_JSON [[[4.179583630987699,1.2135746161178566e-09,9.87938498309811e-08]],[[-4.180025388433394,7.3716962666921e-10,1.0332961813735546e-07]],[[0.8374135171927414,0.4815542245995828,-0.00013963486813146764]],[[-0.8371926384051663,-0.4818035886386792,-0.0002237357592158018]],[[-0.8371926387546718,0.48180358786426547,0.00022363665133117805]],[[0.8374135174128587,-0.48155422577611556,0.00013953185254811528]]]"
C        0.00000000       0.00000000       0.00000000
C        2.36666667       0.00000000       0.00000000
H       -0.56503637       0.92382805       0.00000000
H        2.93170304      -0.92382804      -0.00016124
H        2.93170304       0.92382804       0.00016124
H       -0.56503637      -0.92382805      -0.00000000
6
Properties=species:S:1:pos:R:3 REF_energy="_JSON [[-2107.1884008955835]]" REF_forces="_JSON [[[3.769055165421001,7.760143394639022e-09,1.4097743417923656e-08]],[[-3.76875110075523,-9.768595771390238e-09,-1.1954710527938357e-08]],[[0.8920732713467617,0.5715272033039053,-8.152738633169132e-05]],[[-0.8922253017523818,0.5712895393754454,0.000181236827677808]],[[-0.8922253050857607,-0.5712895298843768,-0.0001812233778715055]],[[0.8920732708260104,-0.5715272107866645,8.151179349247978e-05]]]"
C        0.00000000       0.00000000       0.00000000
C        2.57777778       0.00000000       0.00000000
H       -0.56503637       0.92382805       0.00000000
H        3.14281415       0.92382804       0.00016124
H        3.14281415      -0.92382804      -0.00016124
H       -0.56503637      -0.92382805      -0.00000000
6
Properties=species:S:1:pos:R:3 REF_energy="_JSON [[-2107.238460866111]]" REF_forces="_JSON [[[3.9206662852036067,8.921649665511347e-06,-3.8336073536261146e-05]],[[-3.9206811053251354,-4.53092316291866e-06,4.175701308914219e-05]],[[0.8797053648092445,0.5711991263983179,-0.14797661218031607]],[[-0.8796978837541564,0.4861113460100189,0.33452086176119206]],[[-0.8797001754936538,-0.48611252344025246,-0.33452795016521214]],[[0.8797075145605568,-0.5712023396941329,0.1479802796446598]]]"
C        0.00000000       0.00000000       0.00000000
C        2.57777778       0.00000000       0.00000000
H       -0.56503637       0.92382805       0.00000000
H        3.14281415       0.86805924       0.31611931
H        3.14281415      -0.86805924      -0.31611931
H       -0.56503637      -0.92382805      -0.00000000
6
Properties=species:S:1:pos:R:3 REF_energy="_JSON [[-2107.3624982549118]]" REF_forces="_JSON [[[4.287405777400356,-3.1044822142194643e-06,1.4267330833254701e-05]],[[-4.287382319539537,-7.400011491867839e-06,1.346511911276401e-05]],[[0.8514868615934955,0.5712463000118099,-0.22005569257030755]],[[-0.8514990279305802,0.29606574214015846,0.5358009992418639]],[[-0.85149862109183,-0.2960552400882983,-0.535813446113856]],[[0.851487329568985,-0.5712462975694776,0.22004040699247207]]]"
C        0.00000000       0.00000000       0.00000000
C        2.57777778       0.00000000       0.00000000
H       -0.56503637       0.92382805       0.00000000
H        3.14281415       0.70758969       0.59394873
H        3.14281415      -0.70758969      -0.59394873
H       -0.56503637      -0.92382805      -0.00000000
6
Properties=species:S:1:pos:R:3 REF_energy="_JSON [[-2107.4995761562373]]" REF_forces="_JSON [[[4.681776550955581,7.211358531403542e-05,-0.00015890456707995338]],[[-4.681803497843042,9.346383837664818e-05,-4.369922608623841e-05]],[[0.8236881500248682,0.5720215160558556,-0.18820001458084057]],[[-0.8236693793252494,0.1228418607492341,0.5894989772012948]],[[-0.8236827871105642,-0.12299743234085589,-0.5894262519871118]],[[0.8236909632982468,-0.5720315218880294,0.188329893159617]]]"
C        0.00000000       0.00000000       0.00000000
C        2.57777778       0.00000000       0.00000000
H       -0.56503637       0.92382805       0.00000000
H        3.14281415       0.46177438       0.80013917
H        3.14281415      -0.46177438      -0.80013917
H       -0.56503637      -0.92382805      -0.00000000
6
Properties=species:S:1:pos:R:3 REF_energy="_JSON [[-2107.587085252553]]" REF_forces="_JSON [[[4.929040329485732,0.00011348097570067659,-0.00016516820110823558]],[[-4.9288489609258805,-9.489447503430242e-05,0.00011754542447215511]],[[0.8075111924942403,0.5729920906149082,-0.07308038491196356]],[[-0.8076046368547709,0.027361474663725793,0.5767169842465035]],[[-0.8076389120836638,-0.027342040079444626,-0.5767596381664292]],[[0.8075409878841989,-0.5730301116996741,0.07317066160903858]]]"
C        0.00000000       0.00000000       0.00000000
C        2.57777778       0.00000000       0.00000000
H       -0.56503637       0.92382805       0.00000000
H        3.14281415       0.16026227       0.90982101
H        3.14281415      -0.16026227      -0.90982101
H       -0.56503637      -0.92382805      -0.00000000
6
Properties=species:S:1:pos:R:3 REF_energy="_JSON [[-2107.5870381768555]]" REF_forces="_JSON [[[4.928783921180193,9.309707204603942e-05,0.00012999510771328536]],[[-4.9286803904311896,3.0993592410581736e-06,-4.920535642071363e-05]],[[0.8075673998683907,0.5729069057264432,0.07324136178607506]],[[-0.8076374853693981,-0.02747685760118727,0.5767882382033872]],[[-0.8076148014159439,0.027405281267505334,-0.5767770935547235]],[[0.8075813561684574,-0.5729315258238247,-0.0733332961859901]]]"
C        0.00000000       0.00000000       0.00000000
C        2.57777778       0.00000000       0.00000000
H       -0.56503637       0.92382805       0.00000000
H        3.14281415      -0.16057984       0.90976501
H        3.14281415       0.16057984      -0.90976501
H       -0.56503637      -0.92382805      -0.00000000
6
Properties=species:S:1:pos:R:3 REF_energy="_JSON [[-2107.4994547934557]]" REF_forces="_JSON [[[4.681408090841323,2.92056554359859e-05,7.071014298471737e-05]],[[-4.6814700406341565,2.8832159579034805e-05,-5.7762410881749116e-05]],[[0.823724747410995,0.5720036126814797,0.18832409511854234]],[[-0.8237045244174551,-0.12308874761854476,0.5894830048817843]],[[-0.8236863755765048,0.12303774622115615,-0.5894846964331784]],[[0.8237281023765948,-0.5720106490986442,-0.18833535129890194]]]"
C        0.00000000       0.00000000       0.00000000
C        2.57777778       0.00000000       0.00000000
H       -0.56503637       0.92382805       0.00000000
H        3.14281415      -0.46205365       0.79997793
H        3.14281415       0.46205365      -0.79997793
H       -0.56503637      -0.92382805      -0.00000000
6
Properties=species:S:1:pos:R:3 REF_energy="_JSON [[-2107.3623564835907]]" REF_forces="_JSON [[[4.287067621753941,-4.1020826830508e-05,0.00013297532622030383]],[[-4.28709982055563,3.101846539631594e-05,-0.00024299956639709257]],[[0.8514963320532922,0.5711711982109783,0.22006505582010139]],[[-0.8515002513986527,-0.29625258767786555,0.5358223465155126]],[[-0.8514567727869801,0.2962542289438943,-0.535732809172051]],[[0.8514928909334849,-0.5711628371154251,-0.22004456892291285]]]"
C        0.00000000       0.00000000       0.00000000
C        2.57777778       0.00000000       0.00000000
H       -0.56503637       0.92382805       0.00000000
H        3.14281415      -0.70779698       0.59370170
H        3.14281415       0.70779698      -0.59370170
H       -0.56503637      -0.92382805      -0.00000000
6
Properties=species:S:1:pos:R:3 REF_energy="_JSON [[-2107.23836562626]]" REF_forces="_JSON [[[3.9203229853631942,1.1589849371195775e-06,6.726259639649922e-06]],[[-3.920322632594063,2.3307060166756915e-06,8.459665645644148e-06]],[[0.8797460507143499,0.5712429025185407,0.14782139801391606]],[[-0.8797461298637353,-0.48629343977402906,0.3341966064326683]],[[-0.8797459634597974,0.4862901650357674,-0.3342058385058992]],[[0.8797456898406439,-0.5712431174717748,-0.14782735186591192]]]"
C        0.00000000       0.00000000       0.00000000
C        2.57777778       0.00000000       0.00000000
H       -0.56503637       0.92382805       0.00000000
H        3.14281415      -0.86816954       0.31581628
H        3.14281415       0.86816954      -0.31581628
H       -0.56503637      -0.92382805      -0.00000000
6
Properties=species:S:1:pos:R:3 REF_energy="_JSON [[-2107.1884008955835]]" REF_forces="_JSON [[[3.768977663450215,-7.835044531635746e-09,-3.1676782478737936e-08]],[[-3.7688004803740274,9.678029183578916e-09,2.7579641101240936e-08]],[[0.8921276603851668,0.5713617537140504,-8.14635437418889e-05]],[[-0.8922162505679163,-0.5711977885167067,-0.0001812018447627476]],[[-0.8922162538472198,0.5711977791175755,0.00018115959905200984]],[[0.8921276609539412,-0.5713617461572331,8.150988659405003e-05]]]"
C        0.00000000       0.00000000       0.00000000
C        2.57777778       0.00000000       0.00000000
H       -0.56503637       0.92382805       0.00000000
H        3.14281415      -0.92382804      -0.00016124
H        3.14281415       0.92382804       0.00016124
H       -0.56503637      -0.92382805      -0.00000000
6
Properties=species:S:1:pos:R:3 REF_energy="_JSON [[-2106.067497509458]]" REF_forces="_JSON [[[3.198443929968694,-1.7925352281291734e-09,5.1652134527177446e-08]],[[-3.1986240600735054,-1.2770250129054242e-08,-5.0440995551298775e-08]],[[0.9240967343168633,0.6455534483279038,-4.7580490197636214e-05]],[[-0.9240066687843378,0.6458487544267296,0.0001602887880197629]],[[-0.9240066743040338,-0.6458487415945738,-0.0001602138737777869]],[[0.9240967388759747,-0.6455534465963223,4.7504364816723175e-05]]]"
C        0.00000000       0.00000000       0.00000000
C        2.78888889       0.00000000       0.00000000
H       -0.56503637       0.92382805       0.00000000
H        3.35392526       0.92382804       0.00016124
H        3.35392526      -0.92382804      -0.00016124
H       -0.56503637      -0.92382805      -0.00000000
6
Properties=species:S:1:pos:R:3 REF_energy="_JSON [[-2106.0967685252904]]" REF_forces="_JSON [[[3.288226326494329,-5.336077799246598e-07,-2.3305430320129687e-06]],[[-3.2882262734911567,-1.4196710264087506e-06,2.5291030274874227e-06]],[[0.9165678904415009,0.6451145392952325,-0.08667512546684616]],[[-0.9165679251843372,0.57651103063104,0.3021901198734237]],[[-0.9165680927927187,-0.5765092320403196,-0.30219466677711143]],[[0.9165680745322953,-0.6451143846075091,0.08667947381032774]]]"
C        0.00000000       0.00000000       0.00000000
C        2.78888889       0.00000000       0.00000000
H       -0.56503637       0.92382805       0.00000000
H        3.35392526       0.86805924       0.31611931
H        3.35392526      -0.86805924      -0.31611931
H       -0.56503637      -0.92382805      -0.00000000
6
Properties=species:S:1:pos:R:3 REF_energy="_JSON [[-2106.169753272202]]" REF_forces="_JSON [[[3.5073395247441495,4.2387141305685244e-05,3.899963100955786e-05]],[[-3.507370508935351,5.6275176349801846e-05,-9.218343585357077e-06]],[[0.8991077281695807,0.6435843191977212,-0.1300838455880252]],[[-0.8990926528104571,0.40936093250568595,0.5133699073189454]],[[-0.8990964758381105,-0.40945153257512934,-0.5132717664982832]],[[0.8991123846699984,-0.6435923814464083,0.12995592347995244]]]"
C        0.00000000       0.00000000       0.00000000
C        2.78888889       0.00000000       0.00000000
H       -0.56503637       0.92382805       0.00000000
H        3.35392526       0.70758969       0.59394873
H        3.35392526      -0.70758969      -0.59394873
H       -0.56503637      -0.92382805      -0.00000000
6
Properties=species:S:1:pos:R:3 REF_energy="_JSON [[-2106.250972456638]]" REF_forces="_JSON [[[3.745724128006712,-2.8842869700304242e-05,-1.945385517717177e-05]],[[-3.745733634219871,-2.6728789894955765e-05,-2.26373975100709e-06]],[[0.8810661606803333,0.6424097737342568,-0.11182476158875881]],[[-0.8810602567502089,0.22432698986356978,0.6122272079339466]],[[-0.881059554560774,-0.22427805746545468,-0.612253062857733]],[[0.8810631568430476,-0.6424031344721212,0.11187233410712813]]]"
C        0.00000000       0.00000000       0.00000000
C        2.78888889       0.00000000       0.00000000
H       -0.56503637       0.92382805       0.00000000
H        3.35392526       0.46177438       0.80013917
H        3.35392526      -0.46177438      -0.80013917
H       -0.56503637      -0.92382805      -0.00000000
6
Properties=species:S:1:pos:R:3 REF_energy="_JSON [[-2106.3030523283505]]" REF_forces="_JSON [[[3.8958874194973343,2.1183345789443388e-05,-6.711245749785526e-05]],[[-3.895843495502591,8.350109252750855e-05,-3.487147519913571e-05]],[[0.8702156129591362,0.6418245508001268,-0.043493496646865415]],[[-0.870235953356264,0.06836914302506895,0.6395782623804497]],[[-0.8702368945474243,-0.06847667112980685,-0.6395604683985305]],[[0.8702133109498962,-0.6418217071329537,0.04357768659749251]]]"
C        0.00000000       0.00000000       0.00000000
C        2.78888889       0.00000000       0.00000000
H       -0.56503637       0.92382805       0.00000000
H        3.35392526       0.16026227       0.90982101
H        3.35392526      -0.16026227      -0.90982101
H       -0.56503637      -0.92382805      -0.00000000
6
Properties=species:S:1:pos:R:3 REF_energy="_JSON [[-2106.303024028509]]" REF_forces="_JSON [[[3.8958384127941135,1.9532032996257763e-05,6.218932191288025e-05]],[[-3.8957228549527927,8.568352614838635e-05,3.6578913688078994e-05]],[[0.8702046227650844,0.6418695809369402,0.043563283775189414]],[[-0.870261245800762,-0.06859604442384401,0.6395192857412729]],[[-0.870260821645821,0.06848732609649892,-0.639538127990502]],[[0.8702018868409692,-0.6418660781685639,-0.043643209761531306]]]"
C        0.00000000       0.00000000       0.00000000
C        2.78888889       0.00000000       0.00000000
H       -0.56503637       0.92382805       0.00000000
H        3.35392526      -0.16057984       0.90976501
H        3.35392526       0.16057984      -0.90976501
H       -0.56503637      -0.92382805      -0.00000000
6
Properties=species:S:1:pos:R:3 REF_energy="_JSON [[-2106.250900346465]]" REF_forces="_JSON [[[3.7455129760811663,-9.879546651547899e-06,-7.007183486751648e-06]],[[-3.7453321930974894,-4.3040627560413596e-05,-2.973000814683267e-05]],[[0.8810669633761422,0.6424247100072304,0.11185284925232862]],[[-0.8811586838368595,-0.2242786256820831,0.6120644628966321]],[[-0.8811574898758131,0.22433356731290724,-0.6120319756030976]],[[0.8810684273528173,-0.6424267314635244,-0.11184859935431961]]]"
C        0.00000000       0.00000000       0.00000000
C        2.78888889       0.00000000       0.00000000
H       -0.56503637       0.92382805       0.00000000
H        3.35392526      -0.46205365       0.79997793
H        3.35392526       0.46205365      -0.79997793
H       -0.56503637      -0.92382805      -0.00000000
6
Properties=species:S:1:pos:R:3 REF_energy="_JSON [[-2106.169669189019]]" REF_forces="_JSON [[[3.5067457401438307,0.0001147319313773041,-6.400783458569557e-05]],[[-3.506995290482251,0.00013423124627192344,-2.8634176128392714e-05]],[[0.8992525272161626,0.6434524248507691,0.13017219687469392]],[[-0.899144667847088,-0.4097711101189934,0.5131548791696257]],[[-0.8991271215327982,0.409548182431821,-0.5133770088523038]],[[0.8992688125026684,-0.643478460342126,-0.12985742518128315]]]"
C        0.00000000       0.00000000       0.00000000
C        2.78888889       0.00000000       0.00000000
H       -0.56503637       0.92382805       0.00000000
H        3.35392526      -0.70779698       0.59370170
H        3.35392526       0.70779698      -0.59370170
H       -0.56503637      -0.92382805      -0.00000000
6
Properties=species:S:1:pos:R:3 REF_energy="_JSON [[-2106.096712741949]]" REF_forces="_JSON [[[3.2881043764903084,-2.5902693527451787e-06,-1.300891643167111e-05]],[[-3.2881311884512114,2.237006764704921e-06,1.2811959419186258e-05]],[[0.916570838910153,0.6450800268040014,0.08663330636539428]],[[-0.916556727933398,-0.5766185189351104,0.3019589014538553]],[[-0.9165574092317698,0.5766177771997868,-0.3019637836211647]],[[0.9165701102167461,-0.6450789318064354,-0.08662822724107781]]]"
C        0.00000000       0.00000000       0.00000000
C        2.78888889       0.00000000       0.00000000
H       -0.56503637       0.92382805       0.00000000
H        3.35392526      -0.86816954       0.31581628
H        3.35392526       0.86816954      -0.31581628
H       -0.56503637      -0.92382805      -0.00000000
6
Properties=species:S:1:pos:R:3 REF_energy="_JSON [[-2106.067497509458]]" REF_forces="_JSON [[[3.1985095401384718,1.7801202931727212e-09,-7.104090249312381e-08]],[[-3.1986482094836646,1.2762082844512558e-08,6.96952986845962e-08]],[[0.9240786441963192,0.6455636736220708,-4.746441857193977e-05]],[[-0.924009304490279,-0.645773467486731,-0.00016028597334858752]],[[-0.9240093100062521,0.6457734546634353,0.000160182194435217]],[[0.9240786396452915,-0.6455636753411619,4.756954308903089e-05]]]"
C        0.00000000       0.00000000       0.00000000
C        2.78888889       0.00000000       0.00000000
H       -0.56503637       0.92382805       0.00000000
H        3.35392526      -0.92382804      -0.00016124
H        3.35392526       0.92382804       0.00016124
H       -0.56503637      -0.92382805      -0.00000000
6
Properties=species:S:1:pos:R:3 REF_energy="_JSON [[-2105.061568760018]]" REF_forces="_JSON [[[2.6039478080475544,1.883827265908727e-09,6.278928631174001e-13]],[[-2.603856598735538,-4.154793781267197e-09,1.12256593267602e-13]],[[0.9384668608303046,0.7081571776973541,-2.7594949149174275e-05]],[[-0.9385124614196653,0.7079699249580659,0.0001510731401245423]],[[-0.9385124676857425,-0.707969921072018,-0.00015107314019028234]],[[0.9384668589632463,-0.7081571793123361,2.759494847476322e-05]]]"
C        0.00000000       0.00000000       0.00000000
C        3.00000000       0.00000000       0.00000000
H       -0.56503637       0.92382805       0.00000000
H        3.56503637       0.92382804       0.00016124
H        3.56503637      -0.92382804      -0.00016124
H       -0.56503637      -0.92382805      -0.00000000
6
Properties=species:S:1:pos:R:3 REF_energy="_JSON [[-2105.0786028155553]]" REF_forces="_JSON [[[2.656994000080991,2.2317031652852404e-07,-1.7226736252144577e-07]],[[-2.6569188900823195,1.2413412178631687e-07,3.1644413449385314e-07]],[[0.9339517474254507,0.7075955466464979,-0.050567218170693866]],[[-0.9339893028630257,0.6475738240744058,0.2896082269090351]],[[-0.9339893035518398,-0.6475740680535611,-0.2896078551664119]],[[0.9339517489910624,-0.7075956499713306,0.050566702251295746]]]"
C        0.00000000       0.00000000       0.00000000
C        3.00000000       0.00000000       0.00000000
H       -0.56503637       0.92382805       0.00000000
H        3.56503637       0.86805924       0.31611931
H        3.56503637      -0.86805924      -0.31611931
H       -0.56503637      -0.92382805      -0.00000000
6
Properties=species:S:1:pos:R:3 REF_energy="_JSON [[-2105.1212887725837]]" REF_forces="_JSON [[[2.787741159010726,4.025364127797134e-06,-6.1423047330786535e-06]],[[-2.7876800913853446,-1.737705768013082e-07,1.0567264057148804e-05]],[[0.9232299266702982,0.706050713265781,-0.07625290607734403]],[[-0.9232603219624997,0.49171818400407247,0.5122743908069907]],[[-0.9232615440194889,-0.4917205605348956,-0.5122752303517174]],[[0.9232308716860469,-0.7060521883289768,0.07624932066272314]]]"
C        0.00000000       0.00000000       0.00000000
C        3.00000000       0.00000000       0.00000000
H       -0.56503637       0.92382805       0.00000000
H        3.56503637       0.70758969       0.59394873
H        3.56503637      -0.70758969      -0.59394873
H       -0.56503637      -0.92382805      -0.00000000
6
Properties=species:S:1:pos:R:3 REF_energy="_JSON [[-2105.169099722056]]" REF_forces="_JSON [[[2.931730207954691,1.3348129802281596e-05,-1.0723369691867457e-05]],[[-2.9318094412212345,-2.3462447459845476e-06,1.1207349987499317e-05]],[[0.9117944061746474,0.7044891195657087,-0.06598143245528387]],[[-0.9117550448740117,0.29501668935001146,0.6432529842127944]],[[-0.9117569838103526,-0.29502292412149417,-0.6432529979917743]],[[0.9117968557756793,-0.7044938866791578,0.06598096225439226]]]"
C        0.00000000       0.00000000       0.00000000
C        3.00000000       0.00000000       0.00000000
H       -0.56503637       0.92382805       0.00000000
H        3.56503637       0.46177438       0.80013917
H        3.56503637      -0.46177438      -0.80013917
H       -0.56503637      -0.92382805      -0.00000000
6
Properties=species:S:1:pos:R:3 REF_energy="_JSON [[-2105.1999095417686]]" REF_forces="_JSON [[[3.023299738460795,-1.3053582733792896e-07,-6.074185351246701e-07]],[[-3.023048883005146,-1.2280553747576717e-07,-1.4817513985195806e-07]],[[0.90466739010312,0.7038507127906718,-0.025695842231671595]],[[-0.904792795965279,0.09655074528653193,0.6973213339267511]],[[-0.9047928371407534,-0.09655054806554454,-0.6973213233581331]],[[0.9046673875474279,-0.7038506566706231,0.025696587256418497]]]"
C        0.00000000       0.00000000       0.00000000
C        3.00000000       0.00000000       0.00000000
H       -0.56503637       0.92382805       0.00000000
H        3.56503637       0.16026227       0.90982101
H        3.56503637      -0.16026227      -0.90982101
H       -0.56503637      -0.92382805      -0.00000000
6
Properties=species:S:1:pos:R:3 REF_energy="_JSON [[-2105.1998926707097]]" REF_forces="_JSON [[[3.0231781789303023,-4.217788105069222e-08,1.008751326230988e-06]],[[-3.0232320845582876,-6.241822213163636e-07,1.6393357752858635e-07]],[[0.904722250918211,0.7035654519122796,0.025880802605531807]],[[-0.904695347277763,-0.09689996415795195,0.6974785319719204]],[[-0.9046952878846377,0.09690062908678167,-0.6974784775333527]],[[0.9047222898721239,-0.7035654504808075,-0.025882029729173407]]]"
C        0.00000000       0.00000000       0.00000000
C        3.00000000       0.00000000       0.00000000
H       -0.56503637       0.92382805       0.00000000
H        3.56503637      -0.16057984       0.90976501
H        3.56503637       0.16057984      -0.90976501
H       -0.56503637      -0.92382805      -0.00000000
6
Properties=species:S:1:pos:R:3 REF_energy="_JSON [[-2105.1690570001806]]" REF_forces="_JSON [[[2.9316131638757112,1.3531673616430027e-05,1.1688999775622513e-05]],[[-2.9316580157829155,-1.3328232567744804e-06,-5.001427838790873e-06]],[[0.9117983011427598,0.7045058415088269,0.06598443118989672]],[[-0.9117776185960633,-0.2951959593292285,0.6431526994688694]],[[-0.9117768817403804,0.29518835168012747,-0.6431547698473004]],[[0.9118010511008928,-0.7045104327100224,-0.06598904838295104]]]"
C        0.00000000       0.00000000       0.00000000
C        3.00000000       0.00000000       0.00000000
H       -0.56503637       0.92382805       0.00000000
H        3.56503637      -0.46205365       0.79997793
H        3.56503637       0.46205365      -0.79997793
H       -0.56503637      -0.92382805      -0.00000000
6
Properties=species:S:1:pos:R:3 REF_energy="_JSON [[-2105.121239519975]]" REF_forces="_JSON [[[2.787541952501012,4.772251126987495e-06,-1.327747850938926e-06]],[[-2.7875095652171193,3.1063905457126714e-06,-4.527737392983765e-06]],[[0.9232618502509289,0.7060111568088311,0.07625402381556229]],[[-0.9232790245364979,-0.4919417859546258,0.5120855899921657]],[[-0.9232780466554975,0.4919354285790343,-0.512090652816883]],[[0.9232628336572564,-0.706012678075001,-0.07624310550569122]]]"
C        0.00000000       0.00000000       0.00000000
C        3.00000000       0.00000000       0.00000000
H       -0.56503637       0.92382805       0.00000000
H        3.56503637      -0.70779698       0.59370170
H        3.56503637       0.70779698      -0.59370170
H       -0.56503637      -0.92382805      -0.00000000
6
Properties=species:S:1:pos:R:3 REF_energy="_JSON [[-2105.0785701618925]]" REF_forces="_JSON [[[2.6568073983937226,2.2058292337734992e-07,3.033328133125448e-07]],[[-2.65686382696969,1.224013702462105e-07,-1.1364053405989285e-07]],[[0.9339987395730955,0.7075836587712656,0.05048997246242765]],[[-0.933970547806046,-0.6476921310749412,0.2893735054662616]],[[-0.9339705280218994,0.6476918776180098,-0.289374005620442]],[[0.9339987648304373,-0.7075837482982722,-0.05048966200059541]]]"
C        0.00000000       0.00000000       0.00000000
C        3.00000000       0.00000000       0.00000000
H       -0.56503637       0.92382805       0.00000000
H        3.56503637      -0.86816954       0.31581628
H        3.56503637       0.86816954      -0.31581628
H       -0.56503637      -0.92382805      -0.00000000
6
Properties=species:S:1:pos:R:3 REF_energy="_JSON [[-2105.061568760018]]" REF_forces="_JSON [[[2.603904346102673,-1.8796292446812607e-09,-8.533963985459241e-13]],[[-2.6037947070844636,4.168333769787384e-09,5.116752410874061e-13]],[[0.9384631918964805,0.7083492055063452,-2.760493093267216e-05]],[[-0.938518009201134,-0.7080228087294185,-0.00015109765783226505]],[[-0.9385180154750787,0.7080228048290341,0.00015109765735331427]],[[0.9384631937621914,-0.7083492038951374,2.7604931753290593e-05]]]"
C        0.00000000       0.00000000       0.00000000
C        3.00000000       0.00000000       0.00000000
H       -0.56503637       0.92382805       0.00000000
H        3.56503637      -0.92382804      -0.00016124
H        3.56503637       0.92382804       0.00016124
H       -0.56503637      -0.92382805      -0.00000000
