6
Properties=species:S:1:pos:R:3 REF_energy=-2123.47182436299 REF_forces="_JSON [[-0.009461026861493435,1.7262492729023563e-08,-6.176418279367921e-13],[0.009460876638116573,-1.7074349229637736e-08,5.252977367370534e-13],[-0.07391072773241794,0.17576846725974019,3.5617715583017093e-13],[0.07391080060568882,0.17576846259706636,2.594605219086822e-13],[0.07391080285028315,-0.17576845681081574,-3.9260468647398286e-13],[-0.07391072550025748,-0.17576847323452466,-1.3068890006512656e-13]]"
C       -0.65867623      -0.00000000       0.00000000
C        0.65867623       0.00000000       0.00000000
H       -1.22717751       0.91632134      -0.00000000
H        1.22717751       0.91632134      -0.00000000
H        1.22717751      -0.91632134       0.00000000
H       -1.22717751      -0.91632134      -0.00000000
6
Properties=species:S:1:pos:R:3 REF_energy=-2120.879682696571 REF_forces="_JSON [[-29.63694848962726,1.840049627615395e-05,-2.2536184383848195e-05],[29.63695138389676,-1.86063344806646e-05,2.6126572660286883e-05],[-0.4557835835924155,-0.11290024947147817,-0.12653877940617234],[0.45578324671532316,-0.11292623213196833,0.12652035691772046],[0.45578238812978034,0.11292314906105115,-0.12652266939574874],[-0.45578494552286203,0.1129035383792745,0.12653750149593407]]"
C        0.00000000       0.00000000       0.00000000
C        1.10000000       0.00000000       0.00000000
H       -0.56503637       0.92382805       0.00000000
H        1.66503637       0.92382804       0.00016124
H        1.66503637      -0.92382804      -0.00016124
H       -0.56503637      -0.92382805      -0.00000000
6
Properties=species:S:1:pos:R:3 REF_energy=-2120.612866348959 REF_forces="_JSON [[-29.249541844004224,4.027622908024397e-10,6.898333973065508e-10],[29.2497439875306,-1.7793847090623492e-09,-1.1609355605292769e-09],[-0.5294208159605436,-0.05839908918858279,0.8651788151431485],[0.5293197439151885,0.241078807837596,-0.8329358854962047],[0.5293197435550334,-0.2410788068907476,0.8329358861840467],[-0.5294208150364377,0.05839908961892687,-0.8651788153599027]]"
C        0.00000000       0.00000000       0.00000000
C        1.10000000       0.00000000       0.00000000
H       -0.56503637       0.92382805       0.00000000
H        1.66503637       0.86805924       0.31611931
H        1.66503637      -0.86805924      -0.31611931
H       -0.56503637      -0.92382805      -0.00000000
6
Properties=species:S:1:pos:R:3 REF_energy=-2119.774992942695 REF_forces="_JSON [[-29.515880848039405,-2.6356368531224555e-09,3.6773641165755425e-09],[29.515889369420048,1.8966289229310293e-09,-2.294176934570122e-09],[-0.6489045010286848,0.03130568411472407,1.7304225317049475],[0.6489002411870266,1.1366084732329484,-1.3050699424085201],[0.6489002409420312,-1.136608473051665,1.3050699429687636],[-0.6489045024779231,-0.0313056835568181,-1.7304225336481824]]"
C        0.00000000       0.00000000       0.00000000
C        1.10000000       0.00000000       0.00000000
H       -0.56503637       0.92382805       0.00000000
H        1.66503637       0.70758969       0.59394873
H        1.66503637      -0.70758969      -0.59394873
H       -0.56503637      -0.92382805      -0.00000000
6
Properties=species:S:1:pos:R:3 REF_energy=-2118.397218970548 REF_forces="_JSON [[-30.2077218533611,-9.97111258055567e-11,-1.2134770514469169e-09],[30.207721748629467,-5.326405859118806e-10,3.091167957939983e-10],[-0.8436867989647853,0.15135208033648354,2.512471228865613],[0.8436868512631873,2.251736301493299,-1.1247678494141642],[0.8436868512240807,-2.251736301093909,1.1247678500340674],[-0.8436867987898371,-0.15135208010367063,-2.512471228581043]]"
C        0.00000000       0.00000000       0.00000000
C        1.10000000       0.00000000       0.00000000
H       -0.56503637       0.92382805       0.00000000
H        1.66503637       0.46177438       0.80013917
H        1.66503637      -0.46177438      -0.80013917
H       -0.56503637      -0.92382805      -0.00000000
6
Properties=species:S:1:pos:R:3 REF_energy=-2116.66712122403 REF_forces="_JSON [[-31.822953735163924,-9.439425494558882e-10,1.6078777462607223e-11],[31.82295363229027,1.3457844597764204e-10,1.2005028587202346e-09],[-1.0810451788023634,0.28912240428558295,2.5025623515884616],[1.0810452303174016,2.5147746020830515,-0.14939640425408424],[1.0810452301576745,-2.5147746018359376,0.14939640341111665],[-1.0810451788006048,-0.28912240372368064,-2.502562351961894]]"
C        0.00000000       0.00000000       0.00000000
C        1.10000000       0.00000000       0.00000000
H       -0.56503637       0.92382805       0.00000000
H        1.66503637       0.16026227       0.90982101
H        1.66503637      -0.16026227      -0.90982101
H       -0.56503637      -0.92382805      -0.00000000
6
Properties=species:S:1:pos:R:3 REF_energy=-2116.668735675562 REF_forces="_JSON [[-31.820410054533976,1.1318740333649956e-10,-4.777940413065594e-11],[31.82040985577133,2.8886493144381153e-11,4.2476853719313494e-10],[-1.0808369367338384,0.2889908332939879,-2.504381782415816],[1.080837036209601,-2.516491194773621,-0.1507199111618532],[1.080837036060086,2.516491194719551,0.15071991086386646],[-1.0808369367735362,-0.28899083338282,2.504381782336184]]"
C        0.00000000       0.00000000       0.00000000
C        1.10000000       0.00000000       0.00000000
H       -0.56503637       0.92382805       0.00000000
H        1.66503637      -0.16057984       0.90976501
H        1.66503637       0.16057984      -0.90976501
H       -0.56503637      -0.92382805      -0.00000000
6
Properties=species:S:1:pos:R:3 REF_energy=-2118.398839408586 REF_forces="_JSON [[-30.206728961583657,-6.992683574707418e-10,-1.11071542962723e-09],[30.206728815198044,-4.3135878810784186e-10,1.5996419096242283e-09],[-0.843458678572649,0.15122002191574135,-2.511810183986929],[0.8434587511499397,-2.2507051277080463,-1.125337436656368],[0.8434587517501947,2.2507051282503485,1.1253374358870012],[-0.843458677938867,-0.15122002132732637,2.5118101842677807]]"
C        0.00000000       0.00000000       0.00000000
C        1.10000000       0.00000000       0.00000000
H       -0.56503637       0.92382805       0.00000000
H        1.66503637      -0.46205365       0.79997793
H        1.66503637       0.46205365      -0.79997793
H       -0.56503637      -0.92382805      -0.00000000
6
Properties=species:S:1:pos:R:3 REF_energy=-2119.776108609522 REF_forces="_JSON [[-29.516137225132226,2.539586340227769e-11,-4.120172872950723e-10],[29.51613740895234,-1.4827284394367834e-10,4.713220406460763e-10],[-0.6485705918982534,0.031252243920522206,-1.7295958610813198],[0.6485704998282764,-1.1354754962344988,-1.3050570501985186],[0.6485705001694257,1.135475496108525,1.3050570498984297],[-0.6485705919173567,-0.03125224367197534,1.7295958613217128]]"
C        0.00000000       0.00000000       0.00000000
C        1.10000000       0.00000000       0.00000000
H       -0.56503637       0.92382805       0.00000000
H        1.66503637      -0.70779698       0.59370170
H        1.66503637       0.70779698      -0.59370170
H       -0.56503637      -0.92382805      -0.00000000
6
Properties=species:S:1:pos:R:3 REF_energy=-2120.613424182372 REF_forces="_JSON [[-29.249443578334784,-2.291165776612313e-09,-1.8457314744115742e-09],[29.249660848403593,5.485239457584244e-10,1.2861106693842793e-09],[-0.5293436689393064,-0.058461196684486266,-0.8643178222424908],[0.5292350329708341,-0.24041917663609141,-0.832234356358385],[0.5292350346092698,0.2404191772996824,0.832234356235867],[-0.5293436687129002,0.058461197763737746,0.8643178229246455]]"
C        0.00000000       0.00000000       0.00000000
C        1.10000000       0.00000000       0.00000000
H       -0.56503637       0.92382805       0.00000000
H        1.66503637      -0.86816954       0.31581628
H        1.66503637       0.86816954      -0.31581628
H       -0.56503637      -0.92382805      -0.00000000
6
Properties=species:S:1:pos:R:3 REF_energy=-2120.879682696571 REF_forces="_JSON [[-29.635938995895454,-1.657489903561347e-05,1.935925669817573e-05],[29.635866443868967,1.6590018021807874e-05,-1.841166557916325e-05],[-0.455794983964204,-0.11281525946893947,-0.12631837244763963],[0.45583122850230084,0.11298055655309847,-0.12636516629802336],[0.4558310269942336,-0.11297953701507982,0.12636582035137334],[-0.4557947195015162,0.11281422481240268,0.12631677080315637]]"
C        0.00000000       0.00000000       0.00000000
C        1.10000000       0.00000000       0.00000000
H       -0.56503637       0.92382805       0.00000000
H        1.66503637      -0.92382804      -0.00016124
H        1.66503637       0.92382804       0.00016124
H       -0.56503637      -0.92382805      -0.00000000
6
Properties=species:S:1:pos:R:3 REF_energy=-2123.948830708126 REF_forces="_JSON [[-2.1450298645438917,-2.7944714923482e-10,-4.723394213782499e-09],[2.1450300125304356,1.3759956333276518e-09,2.643688226531314e-09],[-0.05121447475426334,-0.012829474364850667,0.0015878580020718541],[0.05121440111270996,-0.012829317799098575,-0.0015901283060747123],[0.05121440106593043,0.01282931688360395,0.0015901280850407929],[-0.05121447541006716,0.012829474184309332,-0.0015878557013321842]]"
C        0.00000000       0.00000000       0.00000000
C        1.31111111       0.00000000       0.00000000
H       -0.56503637       0.92382805       0.00000000
H        1.87614748       0.92382804       0.00016124
H        1.87614748      -0.92382804      -0.00016124
H       -0.56503637      -0.92382805      -0.00000000
6
Properties=species:S:1:pos:R:3 REF_energy=-2123.553614442305 REF_forces="_JSON [[-2.600815047048727,-5.3575692059383965e-09,-2.2165224007063147e-09],[2.6008738846275166,2.0989851862555377e-10,-1.3209628221012312e-09],[0.0245160248667209,-0.03395440130156135,0.8681646856620738],[-0.02454544994677736,0.26504988870110735,-0.8274613102851495],[-0.02454543832748554,-0.2650498863092201,0.8274613134596394],[0.024516025825341257,0.03395440405802459,-0.8681646852991112]]"
C        0.00000000       0.00000000       0.00000000
C        1.31111111       0.00000000       0.00000000
H       -0.56503637       0.92382805       0.00000000
H        1.87614748       0.86805924       0.31611931
H        1.87614748      -0.86805924      -0.31611931
H       -0.56503637      -0.92382805      -0.00000000
6
Properties=species:S:1:pos:R:3 REF_energy=-2122.806904893613 REF_forces="_JSON [[-2.7800341689390957,-1.1576749387795128e-10,-2.885311684853167e-10],[2.780044753156056,1.0979261086559423e-09,1.2995126681023072e-09],[-0.0845400120165845,0.022720128552327478,1.4598141746603772],[0.08453472061152252,0.9559406134291928,-1.103519734544523],[0.08453471948625703,-0.9559406144128866,1.1035197333921851],[-0.08454001229748988,-0.022720128551414018,-1.4598141745189306]]"
C        0.00000000       0.00000000       0.00000000
C        1.31111111       0.00000000       0.00000000
H       -0.56503637       0.92382805       0.00000000
H        1.87614748       0.70758969       0.59394873
H        1.87614748      -0.70758969      -0.59394873
H       -0.56503637      -0.92382805      -0.00000000
6
Properties=species:S:1:pos:R:3 REF_energy=-2121.689481027419 REF_forces="_JSON [[-3.849137646946735,-2.808831780119319e-09,-1.2785778801312634e-09],[3.8491377233037385,1.6201691201351342e-09,2.0533396605521914e-09],[-0.21505292692630298,0.0768148580971727,1.9582921463095437],[0.21505288392932817,1.734497404524017,-0.9123197839393331],[0.21505288740827677,-1.7344974059806706,0.912319782586074],[-0.21505292076773447,-0.0768148554521491,-1.9582921457308191]]"
C        0.00000000       0.00000000       0.00000000
C        1.31111111       0.00000000       0.00000000
H       -0.56503637       0.92382805       0.00000000
H        1.87614748       0.46177438       0.80013917
H        1.87614748      -0.46177438      -0.80013917
H       -0.56503637      -0.92382805      -0.00000000
6
Properties=species:S:1:pos:R:3 REF_energy=-2120.459366920395 REF_forces="_JSON [[-6.091978594138261,-5.728186251594357e-10,-1.3287289282770302e-09],[6.091976889522345,7.006722045315898e-10,6.11334398757842e-10],[-0.3211376224847077,0.1096677348812875,1.5095474410728102],[0.32113847472052204,1.505684573412008,-0.15386535390550377],[0.32113847491973163,-1.5056845736671798,0.15386535405421176],[-0.3211376225395483,-0.10966773475409142,-1.509547440504257]]"
C        0.00000000       0.00000000       0.00000000
C        1.31111111       0.00000000       0.00000000
H       -0.56503637       0.92382805       0.00000000
H        1.87614748       0.16026227       0.90982101
H        1.87614748      -0.16026227      -0.90982101
H       -0.56503637      -0.92382805      -0.00000000
6
Properties=species:S:1:pos:R:3 REF_energy=-2120.460341088015 REF_forces="_JSON [[-6.08944349787168,-6.044891984268562e-10,1.2687997125710254e-09],[6.0893544170207745,5.645338135126738e-10,-7.631332208313001e-10],[-0.3211264470283957,0.10956896900855234,-1.5114308846175626],[0.32117098743329187,-1.507561229162169,-0.15458378086933866],[0.3211709873115301,1.507561228973229,0.15458378093553996],[-0.3211264468657009,-0.10956896877991802,1.511430884045919]]"
C        0.00000000       0.00000000       0.00000000
C        1.31111111       0.00000000       0.00000000
H       -0.56503637       0.92382805       0.00000000
H        1.87614748      -0.16057984       0.90976501
H        1.87614748       0.16057984      -0.90976501
H       -0.56503637      -0.92382805      -0.00000000
6
Properties=species:S:1:pos:R:3 REF_energy=-2121.690744179958 REF_forces="_JSON [[-3.8475501690025333,-2.690975573006677e-09,6.000222544854066e-10],[3.8475501852019707,1.7911824286302035e-09,-1.9953316930405896e-09],[-0.21490142274434362,0.07675561164808736,-1.9579812906757759],[0.21490141334747248,-1.733880075465721,-0.9128209351050891],[0.21490140958224127,1.7338800737328695,0.912820936787691],[-0.21490141638300297,-0.0767556090160576,1.9579812903874834]]"
C        0.00000000       0.00000000       0.00000000
C        1.31111111       0.00000000       0.00000000
H       -0.56503637       0.92382805       0.00000000
H        1.87614748      -0.46205365       0.79997793
H        1.87614748       0.46205365      -0.79997793
H       -0.56503637      -0.92382805      -0.00000000
6
Properties=species:S:1:pos:R:3 REF_energy=-2122.80784640757 REF_forces="_JSON [[-2.7794694128070985,7.505223819574406e-10,1.3358862216921176e-10],[2.779341123227546,-4.1664121215370946e-10,4.1160156556934697e-10],[-0.08438285140497281,0.02259503225479369,-1.4591750021167054],[0.08444699662957988,-0.9552064652237577,-1.1033483183025288],[0.08444699641175858,0.9552064655548439,1.1033483178974874],[-0.0843828520566092,-0.022595032920325647,1.4591750019759324]]"
C        0.00000000       0.00000000       0.00000000
C        1.31111111       0.00000000       0.00000000
H       -0.56503637       0.92382805       0.00000000
H        1.87614748      -0.70779698       0.59370170
H        1.87614748       0.70779698      -0.59370170
H       -0.56503637      -0.92382805      -0.00000000
6
Properties=species:S:1:pos:R:3 REF_energy=-2123.554174452629 REF_forces="_JSON [[-2.600235335183523,-1.944153849367482e-10,2.191449949329845e-09],[2.600273284379236,-5.5706130462111115e-11,2.434546705147312e-10],[0.024490226696727478,-0.034050480380751647,-0.8676220112077486],[-0.024509194236414712,-0.26448751278735816,-0.8270688241237112],[-0.02450920961223745,0.2644875121143132,0.8270688220879734],[0.024490227953700004,0.03405048130433023,0.8676220108085232]]"
C        0.00000000       0.00000000       0.00000000
C        1.31111111       0.00000000       0.00000000
H       -0.56503637       0.92382805       0.00000000
H        1.87614748      -0.86816954       0.31581628
H        1.87614748       0.86816954      -0.31581628
H       -0.56503637      -0.92382805      -0.00000000
6
Properties=species:S:1:pos:R:3 REF_energy=-2123.948830708126 REF_forces="_JSON [[-2.1450756109267886,3.0769960259779955e-10,2.9869535401259527e-09],[2.145041320502017,-1.4105607385369114e-09,-2.503171695456532e-09],[-0.051256368528288514,-0.012746924827945004,0.0015889563401001636],[0.05127351352834401,0.012839413175666793,0.0015936525541462771],[0.05127351382032494,-0.012839412200090626,-0.0015936517370264242],[-0.051256368394138524,0.012746924954867421,-0.0015889576410018625]]"
C        0.00000000       0.00000000       0.00000000
C        1.31111111       0.00000000       0.00000000
H       -0.56503637       0.92382805       0.00000000
H        1.87614748      -0.92382804      -0.00016124
H        1.87614748       0.92382804       0.00016124
H       -0.56503637      -0.92382805      -0.00000000
6
Properties=species:S:1:pos:R:3 REF_energy=-2123.258415802728 REF_forces="_JSON [[6.430942986489864,-2.777966360371481e-10,-2.660768408014282e-09],[-6.430767538285745,3.346987653237749e-10,1.7946447670936094e-09],[0.2333109470886617,0.07192607465841608,0.0005369796501582771],[-0.23339867002557269,0.07187008761182376,-0.0005242696543358297],[-0.2333986708401548,-0.07187008804646106,0.0005242690689564745],[0.23331094557198684,-0.07192607427986379,-0.0005369781986553458]]"
C        0.00000000       0.00000000       0.00000000
C        1.52222222       0.00000000       0.00000000
H       -0.56503637       0.92382805       0.00000000
H        2.08725859       0.92382804       0.00016124
H        2.08725859      -0.92382804      -0.00016124
H       -0.56503637      -0.92382805      -0.00000000
6
Properties=species:S:1:pos:R:3 REF_energy=-2122.960086765302 REF_forces="_JSON [[5.765636774997315,-7.787582478803301e-09,9.337465404378016e-10],[-5.7656368034563945,-3.2254721018788943e-09,2.0601232931728044e-09],[0.31686148657500884,0.0459604197388603,0.7833898896250041],[-0.3168614833192937,0.31124959632436644,-0.7203719683059951],[-0.3168614710724234,-0.3112495986634797,0.7203719655961243],[0.31686149627589494,-0.045960406386888156,-0.7833898899091625]]"
C        0.00000000       0.00000000       0.00000000
C        1.52222222       0.00000000       0.00000000
H       -0.56503637       0.92382805       0.00000000
H        2.08725859       0.86805924       0.31611931
H        2.08725859      -0.86805924      -0.31611931
H       -0.56503637      -0.92382805      -0.00000000
6
Properties=species:S:1:pos:R:3 REF_energy=-2122.327637826527 REF_forces="_JSON [[5.111383647072966,-1.2435642384672392e-07,-5.5255388232954864e-08],[-5.111383666428248,-1.2748854257277878e-07,-3.5360157466606384e-08],[0.29218845930580917,0.05668702041427253,1.1617109149540905],[-0.2921884458575487,0.7903071083586448,-0.8533465524857942],[-0.29219050993419493,-0.7903071897888923,0.8533471577058398],[0.29219051584224076,-0.05668668713900855,-1.1617114295587916]]"
C        0.00000000       0.00000000       0.00000000
C        1.52222222       0.00000000       0.00000000
H       -0.56503637       0.92382805       0.00000000
H        2.08725859       0.70758969       0.59394873
H        2.08725859      -0.70758969      -0.59394873
H       -0.56503637      -0.92382805      -0.00000000
6
Properties=species:S:1:pos:R:3 REF_energy=-2121.497642660744 REF_forces="_JSON [[3.8829861829063024,-8.909581643393226e-09,1.4929184962866402e-10],[-3.882986050128226,1.259659555094031e-08,3.269990985195361e-09],[0.22594921674529464,0.07044386992114277,1.3537660730987593],[-0.2259492905423038,1.207725004879001,-0.6156663545114778],[-0.22594927785810173,-1.2077250103384665,0.6156663507060443],[0.22594921887755898,-0.07044386814840815,-1.3537660727129395]]"
C        0.00000000       0.00000000       0.00000000
C        1.52222222       0.00000000       0.00000000
H       -0.56503637       0.92382805       0.00000000
H        2.08725859       0.46177438       0.80013917
H        2.08725859      -0.46177438      -0.80013917
H       -0.56503637      -0.92382805      -0.00000000
6
Properties=species:S:1:pos:R:3 REF_energy=-2120.73953453456 REF_forces="_JSON [[2.046315955332695,7.324704682683795e-12,-2.5052234860748223e-10],[-2.046286534353193,-2.9809817155924616e-10,2.8044472400180747e-10],[0.18304021226918143,0.06641096997654508,0.7874142233057999],[-0.18305492286070063,0.787041366613769,-0.0712491161953228],[-0.18305492255235797,-0.7870413665209728,0.07124911601868646],[0.18304021216406757,-0.06641096977864827,-0.7874142231586249]]"
C        0.00000000       0.00000000       0.00000000
C        1.52222222       0.00000000       0.00000000
H       -0.56503637       0.92382805       0.00000000
H        2.08725859       0.16026227       0.90982101
H        2.08725859      -0.16026227      -0.90982101
H       -0.56503637      -0.92382805      -0.00000000
6
Properties=species:S:1:pos:R:3 REF_energy=-2120.740042843252 REF_forces="_JSON [[2.0479060286611035,3.025782370908563e-10,-7.055254104750914e-11],[-2.047948013179245,-4.058080645003345e-10,-1.12726338933495e-10],[0.18307199621117415,0.06636649587722242,-0.7887364465754173],[-0.1830510036854007,-0.788240935656949,-0.07165463453508225],[-0.18305100407925312,0.7882409359503427,0.07165463465522272],[0.18307199607075592,-0.06636649606806257,0.7887364466389493]]"
C        0.00000000       0.00000000       0.00000000
C        1.52222222       0.00000000       0.00000000
H       -0.56503637       0.92382805       0.00000000
H        2.08725859      -0.16057984       0.90976501
H        2.08725859       0.16057984      -0.90976501
H       -0.56503637      -0.92382805      -0.00000000
6
Properties=species:S:1:pos:R:3 REF_energy=-2121.498515874121 REF_forces="_JSON [[3.8845200562803948,3.339382098454508e-09,-2.297686895959554e-09],[-3.884518443698672,5.593954389035663e-09,-3.615643040884868e-09],[0.22602718078352257,0.07045185236381744,-1.3538365569826312],[-0.2260279846042847,-1.2075184231853702,-0.6160750726935961],[-0.22602798835591734,1.2075184165345942,0.6160750795197057],[0.22602717959412139,-0.07045185464666259,1.3538365560700538]]"
C        0.00000000       0.00000000       0.00000000
C        1.52222222       0.00000000       0.00000000
H       -0.56503637       0.92382805       0.00000000
H        2.08725859      -0.46205365       0.79997793
H        2.08725859       0.46205365      -0.79997793
H       -0.56503637      -0.92382805      -0.00000000
6
Properties=species:S:1:pos:R:3 REF_energy=-2122.328386955984 REF_forces="_JSON [[5.112239407794269,1.2530580846069464e-09,-9.36463281568848e-10],[-5.112225186536818,-3.792234330877658e-09,4.995865107305494e-09],[0.2922548047531953,0.0566990291550084,-1.16138057830342],[-0.29226190567711835,-0.789775603818815,-0.8532984885141386],[-0.29226191921028233,0.7897756076515484,0.8532984832723117],[0.29225479887642336,-0.056699030447867664,1.1613805794858345]]"
C        0.00000000       0.00000000       0.00000000
C        1.52222222       0.00000000       0.00000000
H       -0.56503637       0.92382805       0.00000000
H        2.08725859      -0.70779698       0.59370170
H        2.08725859       0.70779698      -0.59370170
H       -0.56503637      -0.92382805      -0.00000000
6
Properties=species:S:1:pos:R:3 REF_energy=-2122.96059208074 REF_forces="_JSON [[5.7662640040704725,1.4481768033965015e-09,-4.147429997302765e-10],[-5.76626387382244,-1.1206265524347743e-09,3.7332026185324476e-09],[0.3168262396047378,0.045967331259146996,-0.7829474338297759],[-0.3168263035479055,-0.3108531996725851,-0.7200624596648777],[-0.316826306465157,0.31085320338617267,0.7200624566021794],[0.3168262401585792,-0.04596733529997453,0.7829474335737866]]"
C        0.00000000       0.00000000       0.00000000
C        1.52222222       0.00000000       0.00000000
H       -0.56503637       0.92382805       0.00000000
H        2.08725859      -0.86816954       0.31581628
H        2.08725859       0.86816954      -0.31581628
H       -0.56503637      -0.92382805      -0.00000000
6
Properties=species:S:1:pos:R:3 REF_energy=-2123.258415802728 REF_forces="_JSON [[6.430797532912976,9.19889251326162e-10,6.12521470704706e-10],[-6.430714606708089,6.704696318578588e-10,-1.445704331786033e-09],[0.23325030476496725,0.07196644456010373,0.0005367956713913519],[-0.2332917687438184,-0.07197696889201838,0.0005241399157924232],[-0.23329176913907515,0.07197696852399374,-0.0005241393771665461],[0.23325030691382242,-0.07196644578244536,-0.0005367953768343152]]"
C        0.00000000       0.00000000       0.00000000
C        1.52222222       0.00000000       0.00000000
H       -0.56503637       0.92382805       0.00000000
H        2.08725859      -0.92382804      -0.00016124
H        2.08725859       0.92382804       0.00016124
H       -0.56503637      -0.92382805      -0.00000000
6
Properties=species:S:1:pos:R:3 REF_energy=-2121.533069708437 REF_forces="_JSON [[7.886949349321413,7.410490820860893e-11,1.5410587591275096e-09],[-7.887020511689369,4.410486330393803e-10,2.0277441121034076e-09],[0.4377577730128304,0.16574503336873256,0.000344293570833354],[-0.4377221917488223,0.16576879385299997,-0.00031538609296127173],[-0.4377221917840243,-0.16576879417306942,0.0003153841392116336],[0.4377577728886256,-0.16574503356425416,-0.0003442951858866365]]"
C        0.00000000       0.00000000       0.00000000
C        1.73333333       0.00000000       0.00000000
H       -0.56503637       0.92382805       0.00000000
H        2.29836970       0.92382804       0.00016124
H        2.29836970      -0.92382804      -0.00016124
H       -0.56503637      -0.92382805      -0.00000000
6
Properties=species:S:1:pos:R:3 REF_energy=-2121.330320120194 REF_forces="_JSON [[7.374028012110512,-5.4665443550403e-08,-2.8697938310034212e-08],[-7.374027489305391,1.4253394567218908e-07,3.22313856394025e-08],[0.49435449356278593,0.15055525199806225,0.5730039208886836],[-0.49435489487593776,0.3375391966565232,-0.48689565613234864],[-0.49435472734058883,-0.33753930483939926,0.4868956286088265],[0.49435460584824975,-0.15055523168371757,-0.573003896898546]]"
C        0.00000000       0.00000000       0.00000000
C        1.73333333       0.00000000       0.00000000
H       -0.56503637       0.92382805       0.00000000
H        2.29836970       0.86805924       0.31611931
H        2.29836970      -0.86805924      -0.31611931
H       -0.56503637      -0.92382805      -0.00000000
6
Properties=species:S:1:pos:R:3 REF_energy=-2120.863250012665 REF_forces="_JSON [[6.503111192221879,-2.8991793949110886e-09,-7.1687113983063446e-09],[-6.503186629120484,-1.4426028391645134e-08,-1.3440376174931037e-08],[0.5263467313808938,0.13863422128022856,0.8362019964237027],[-0.5263090698089488,0.6438362430520339,-0.551382050148729],[-0.5263090494727966,-0.6438362348146918,0.551382062585881],[0.5263468247978307,-0.13863421219337904,-0.8362019882517696]]"
C        0.00000000       0.00000000       0.00000000
C        1.73333333       0.00000000       0.00000000
H       -0.56503637       0.92382805       0.00000000
H        2.29836970       0.70758969       0.59394873
H        2.29836970      -0.70758969      -0.59394873
H       -0.56503637      -0.92382805      -0.00000000
6
Properties=species:S:1:pos:R:3 REF_energy=-2120.303780650638 REF_forces="_JSON [[5.364906251731572,5.231092126766163e-09,1.4959238708885975e-08],[-5.364925413333791,-1.601741209224052e-08,-1.0917376846958728e-08],[0.5141988959117095,0.13101464240130942,0.8448388402052299],[-0.5141892968951458,0.7972726943819406,-0.30886995783064314],[-0.5141899780454949,-0.7972727256827277,0.3088700429469595],[0.5141995406291056,-0.13101460031447482,-0.8448389293637305]]"
C        0.00000000       0.00000000       0.00000000
C        1.73333333       0.00000000       0.00000000
H       -0.56503637       0.92382805       0.00000000
H        2.29836970       0.46177438       0.80013917
H        2.29836970      -0.46177438      -0.80013917
H       -0.56503637      -0.92382805      -0.00000000
6
Properties=species:S:1:pos:R:3 REF_energy=-2119.87224181041 REF_forces="_JSON [[4.202909179158948,8.728203437546108e-12,2.4751331262427952e-11],[-4.20293215516645,-6.1082045128209e-12,-6.144238895266392e-11],[0.501329124158239,0.12032227655472516,0.40026299513792324],[-0.5013176361246183,0.41499163337148437,0.049141354015837725],[-0.5013176361782831,-0.4149916333730317,-0.049141353963246474],[0.5013291241530897,-0.12032227655630072,-0.4002629951536183]]"
C        0.00000000       0.00000000       0.00000000
C        1.73333333       0.00000000       0.00000000
H       -0.56503637       0.92382805       0.00000000
H        2.29836970       0.16026227       0.90982101
H        2.29836970      -0.16026227      -0.90982101
H       -0.56503637      -0.92382805      -0.00000000
6
Properties=species:S:1:pos:R:3 REF_energy=-2119.872500318577 REF_forces="_JSON [[4.203533056043556,-1.7633471600209822e-11,2.5936275947740605e-11],[-4.203624363646662,3.9417781865239244e-12,-5.3122808345891117e-11],[0.5013768359545878,0.120276740521715,-0.40095287451489103],[-0.5013311821293073,-0.4157604450159202,0.048918354865128445],[-0.50133118218231,0.4157604450185093,-0.04891835482247086],[0.5013768359603085,-0.12027674051054818,0.40095287449853834]]"
C        0.00000000       0.00000000       0.00000000
C        1.73333333       0.00000000       0.00000000
H       -0.56503637       0.92382805       0.00000000
H        2.29836970      -0.16057984       0.90976501
H        2.29836970       0.16057984      -0.90976501
H       -0.56503637      -0.92382805      -0.00000000
6
Properties=species:S:1:pos:R:3 REF_energy=-2120.3043256947 REF_forces="_JSON [[5.36566496792343,-7.422928034814473e-09,-1.6804437044987266e-08],[-5.365706694552347,-2.3131948626420405e-08,2.38178356043051e-08],[0.5142905592185698,0.13093363425759408,-0.8450755069005702],[-0.5142703604711002,-0.7973024633001226,-0.30922394890340243],[-0.5142696784725914,0.7973024380834299,0.30922385240394146],[0.5142912063536781,-0.13093357848608966,0.8450755963865677]]"
C        0.00000000       0.00000000       0.00000000
C        1.73333333       0.00000000       0.00000000
H       -0.56503637       0.92382805       0.00000000
H        2.29836970      -0.46205365       0.79997793
H        2.29836970       0.46205365      -0.79997793
H       -0.56503637      -0.92382805      -0.00000000
6
Properties=species:S:1:pos:R:3 REF_energy=-2120.863789342336 REF_forces="_JSON [[6.5040621038861985,5.513100453279839e-09,9.839742087392015e-09],[-6.504062375493185,-1.1417887377883107e-08,6.45479939994257e-09],[0.5263278159871476,0.13863270036328953,-0.8360774206704875],[-0.5263277120641836,-0.6435229112015529,-0.551473232596834],[-0.5263276811416933,0.6435229367303363,0.551473218465942],[0.5263278488255316,-0.13863271998848956,0.8360774185068833]]"
C        0.00000000       0.00000000       0.00000000
C        1.73333333       0.00000000       0.00000000
H       -0.56503637       0.92382805       0.00000000
H        2.29836970      -0.70779698       0.59370170
H        2.29836970       0.70779698      -0.59370170
H       -0.56503637      -0.92382805      -0.00000000
6
Properties=species:S:1:pos:R:3 REF_energy=-2121.330689378703 REF_forces="_JSON [[7.374790707843391,7.431810779332485e-08,-2.471864115776387e-08],[-7.3747513976842685,-8.628385929309046e-08,1.8212322542996246e-08],[0.4942974450488513,0.15061907463769467,-0.5726367031735943],[-0.4943171399296111,-0.3372821775065163,-0.48656996047106377],[-0.49431698757269116,0.3372822364081724,0.4865699476153521],[0.49429737229599446,-0.1506191215735227,0.5726367225356943]]"
C        0.00000000       0.00000000       0.00000000
C        1.73333333       0.00000000       0.00000000
H       -0.56503637       0.92382805       0.00000000
H        2.29836970      -0.86816954       0.31581628
H        2.29836970       0.86816954      -0.31581628
H       -0.56503637      -0.92382805      -0.00000000
6
Properties=species:S:1:pos:R:3 REF_energy=-2121.533069708437 REF_forces="_JSON [[7.887129631444917,6.17364959849029e-11,-1.4191289735202915e-09],[-7.887130074006057,-2.005795600940586e-10,-2.0219245664602777e-09],[0.4377327043923325,0.16570851484774043,0.00034423647885918884],[-0.43773248313019064,-0.16570910837586633,0.0003153248105240287],[-0.43773248304972795,0.1657091086033128,-0.00031532289609524194],[0.4377327043490813,-0.16570851493648106,-0.0003442349522343078]]"
C        0.00000000       0.00000000       0.00000000
C        1.73333333       0.00000000       0.00000000
H       -0.56503637       0.92382805       0.00000000
H        2.29836970      -0.92382804      -0.00016124
H        2.29836970       0.92382804       0.00016124
H       -0.56503637      -0.92382805      -0.00000000
6
Properties=species:S:1:pos:R:3 REF_energy=-2119.728390450875 REF_forces="_JSON [[6.949113765508396,7.875814839173616e-10,-4.602592661046799e-08],[-6.948938929383868,-5.83961691562278e-10,-7.366673848751954e-08],[0.5918072104681846,0.2622333815275984,0.00021624127343010345],[-0.5918946284448467,0.2621896433158186,-0.00017044956246948208],[-0.591894628454941,-0.2621896430986031,0.00017051733912779265],[0.5918072103070999,-0.2622333819479178,-0.00021618935742327578]]"
C        0.00000000       0.00000000       0.00000000
C        1.94444444       0.00000000       0.00000000
H       -0.56503637       0.92382805       0.00000000
H        2.50948081       0.92382804       0.00016124
H        2.50948081      -0.92382804      -0.00016124
H       -0.56503637      -0.92382805      -0.00000000
6
Properties=species:S:1:pos:R:3 REF_energy=-2119.598178798585 REF_forces="_JSON [[6.586173411444112,-1.8645431339027721e-07,-1.1149156706941058e-06],[-6.586269292566891,5.650202039450179e-07,-1.0100590715911747e-06],[0.6288419937679203,0.2543474464600019,0.3767607004465814],[-0.6287938709078522,0.3680449858092075,-0.2669259446047393],[-0.6287940515097469,-0.36804534482640355,0.2669269824808307],[0.628841809771763,-0.2543474660086324,-0.37675961334786756]]"
C        0.00000000       0.00000000       0.00000000
C        1.94444444       0.00000000       0.00000000
H       -0.56503637       0.92382805       0.00000000
H        2.50948081       0.86805924       0.31611931
H        2.50948081      -0.86805924      -0.31611931
H       -0.56503637      -0.92382805      -0.00000000
6
Properties=species:S:1:pos:R:3 REF_energy=-2119.288708331266 REF_forces="_JSON [[5.832998200608714,-1.3013013877508683e-07,-5.056902069461957e-07],[-5.832997591774319,3.6655342824707025e-07,-2.685482614130125e-07],[0.6750103567220734,0.24146109267977975,0.5466941770617911],[-0.6750105185737598,0.5364234205547531,-0.26349031713347654],[-0.6750106766613045,-0.5364236213499597,0.263490660785218],[0.6750102296782569,-0.24146112830800426,-0.5466937464748289]]"
C        0.00000000       0.00000000       0.00000000
C        1.94444444       0.00000000       0.00000000
H       -0.56503637       0.92382805       0.00000000
H        2.50948081       0.70758969       0.59394873
H        2.50948081      -0.70758969      -0.59394873
H       -0.56503637      -0.92382805      -0.00000000
6
Properties=species:S:1:pos:R:3 REF_energy=-2118.939218894862 REF_forces="_JSON [[4.977974758160398,-1.4216942322055074e-07,-3.881648034646544e-07],[-4.977981316377669,3.069247658436709e-07,-7.847399280751091e-08],[0.6928398576955231,0.22994266435535207,0.4987060414715286],[-0.6928365715193205,0.5468834948053438,-0.050212687527001226],[-0.6928366616937721,-0.5468836735835085,0.050212854901527486],[0.6928399337350462,-0.22994265033273284,-0.49870574220782865]]"
C        0.00000000       0.00000000       0.00000000
C        1.94444444       0.00000000       0.00000000
H       -0.56503637       0.92382805       0.00000000
H        2.50948081       0.46177438       0.80013917
H        2.50948081      -0.46177438      -0.80013917
H       -0.56503637      -0.92382805      -0.00000000
6
Properties=species:S:1:pos:R:3 REF_energy=-2118.69816438274 REF_forces="_JSON [[4.310446068491623,-8.78840214256964e-09,-2.785848640455726e-08],[-4.3104747327577355,6.1367766643492325e-09,1.0708404122877535e-08],[0.6968259986875586,0.22113615942155584,0.21004426874831303],[-0.6968116668088281,0.24532133528556793,0.18127138186269276],[-0.6968116684529047,-0.24532133639380962,-0.1812713853382609],[0.696826000839428,-0.2211361556619533,-0.2100442481222961]]"
C        0.00000000       0.00000000       0.00000000
C        1.94444444       0.00000000       0.00000000
H       -0.56503637       0.92382805       0.00000000
H        2.50948081       0.16026227       0.90982101
H        2.50948081      -0.16026227      -0.90982101
H       -0.56503637      -0.92382805      -0.00000000
6
Properties=species:S:1:pos:R:3 REF_energy=-2118.698299895442 REF_forces="_JSON [[4.310602276043712,-1.9543325425615156e-08,-1.518154420921108e-08],[-4.310489066018177,3.817804788467519e-08,-1.0194571916086375e-08],[0.696846539949683,0.22118285701777474,-0.21050027313336278],[-0.6969031405027485,-0.2457174763509037,0.1810366112762966],[-0.6969031486740698,0.24571744706511142,-0.18103660344282296],[0.6968465392015639,-0.22118284636656876,0.2105002906756544]]"
C        0.00000000       0.00000000       0.00000000
C        1.94444444       0.00000000       0.00000000
H       -0.56503637       0.92382805       0.00000000
H        2.50948081      -0.16057984       0.90976501
H        2.50948081       0.16057984      -0.90976501
H       -0.56503637      -0.92382805      -0.00000000
6
Properties=species:S:1:pos:R:3 REF_energy=-2118.939540533444 REF_forces="_JSON [[4.978542169300741,-7.85135581297635e-08,2.161665885579798e-07],[-4.97854171296119,1.1511481533904152e-07,1.8818733635920747e-09],[0.6928250501224498,0.22985469293751784,-0.4988525089936169],[-0.6928253685913955,-0.5469373979096782,-0.05046179511356595],[-0.6928253380034417,0.5469373318013866,0.05046174072433513],[0.6928252001333156,-0.22985466343011338,0.4988523453346603]]"
C        0.00000000       0.00000000       0.00000000
C        1.94444444       0.00000000       0.00000000
H       -0.56503637       0.92382805       0.00000000
H        2.50948081      -0.46205365       0.79997793
H        2.50948081       0.46205365      -0.79997793
H       -0.56503637      -0.92382805      -0.00000000
6
Properties=species:S:1:pos:R:3 REF_energy=-2119.289060990829 REF_forces="_JSON [[5.833829701069991,-1.486376079316584e-07,5.729772107797512e-07],[-5.833828933574557,4.289527083106681e-07,3.168328653800912e-07],[0.6749794063926217,0.24147336214740722,-0.546630911651215],[-0.6749798056359314,-0.5363002195483694,-0.26362165032911705],[-0.6749796250918917,0.5362999833278372,0.2636212511529337],[0.6749792568395511,-0.24147340624166208,0.5466304210171984]]"
C        0.00000000       0.00000000       0.00000000
C        1.94444444       0.00000000       0.00000000
H       -0.56503637       0.92382805       0.00000000
H        2.50948081      -0.70779698       0.59370170
H        2.50948081       0.70779698      -0.59370170
H       -0.56503637      -0.92382805      -0.00000000
6
Properties=species:S:1:pos:R:3 REF_energy=-2119.598421524148 REF_forces="_JSON [[6.58697444900578,1.2354315587472035e-07,-5.255051787942537e-07],[-6.586827695278438,-3.9043692262743754e-07,-7.774488797064003e-07],[0.6287323865980814,0.2544410914725678,-0.37645956789945073],[-0.6288057856464506,-0.3677464038193968,-0.2667545783969728],[-0.6288058734718548,0.36774665260197226,0.26675527219025935],[0.6287325187925277,-0.254441073361759,0.37646017706030616]]"
C        0.00000000       0.00000000       0.00000000
C        1.94444444       0.00000000       0.00000000
H       -0.56503637       0.92382805       0.00000000
H        2.50948081      -0.86816954       0.31581628
H        2.50948081       0.86816954      -0.31581628
H       -0.56503637      -0.92382805      -0.00000000
6
Properties=species:S:1:pos:R:3 REF_energy=-2119.728390450875 REF_forces="_JSON [[6.949122183143376,7.792419616642878e-10,8.372934683624488e-08],[-6.948907130804034,4.6529886091803237e-10,1.2388813038552953e-07],[0.59179835148527,0.26224936455894676,0.00021615515635928857],[-0.5919058778353863,-0.26219477942558544,0.00017039387319947428],[-0.5919058778911535,0.26219477895806426,-0.00017050894994077878],[0.5917983519025498,-0.2622493653367863,-0.00021624769709527935]]"
C        0.00000000       0.00000000       0.00000000
C        1.94444444       0.00000000       0.00000000
H       -0.56503637       0.92382805       0.00000000
H        2.50948081      -0.92382804      -0.00016124
H        2.50948081       0.92382804       0.00016124
H       -0.56503637      -0.92382805      -0.00000000
6
Properties=species:S:1:pos:R:3 REF_energy=-2118.137588333643 REF_forces="_JSON [[5.495954272636418,-2.0354712955669044e-09,2.642945868280359e-09],[-5.495954184718978,1.3324538914495511e-09,1.110268994905548e-10],[0.7108982055680858,0.35501052226551155,0.00013177547483797668],[-0.7108982521682028,0.35501037531859564,-6.983368665779923e-05],[-0.7108982494530611,-0.3550103756469775,6.983316934659525e-05],[0.7108982081363096,-0.3550105212331647,-0.00013177771149958028]]"
C        0.00000000       0.00000000       0.00000000
C        2.15555556       0.00000000       0.00000000
H       -0.56503637       0.92382805       0.00000000
H        2.72059193       0.92382804       0.00016124
H        2.72059193      -0.92382804      -0.00016124
H       -0.56503637      -0.92382805      -0.00000000
6
Properties=species:S:1:pos:R:3 REF_energy=-2118.057675295736 REF_forces="_JSON [[5.256181234348562,4.7680287076068195e-06,3.7273608721473567e-06],[-5.2560466292532855,-6.386378491466335e-06,5.241860666228055e-06],[0.7352464946129655,0.3516745175026565,0.23324198967298115],[-0.7353155488574684,0.4102197741374048,-0.09878928511659549],[-0.7353139760282013,-0.41021713944248095,0.09878470539491974],[0.7352484251751096,-0.3516755338479993,-0.23324637917271013]]"
C        0.00000000       0.00000000       0.00000000
C        2.15555556       0.00000000       0.00000000
H       -0.56503637       0.92382805       0.00000000
H        2.72059193       0.86805924       0.31611931
H        2.72059193      -0.86805924      -0.31611931
H       -0.56503637      -0.92382805      -0.00000000
6
Properties=species:S:1:pos:R:3 REF_energy=-2117.865446717786 REF_forces="_JSON [[4.721067600598653,2.173213228614464e-05,4.421536176721436e-05],[-4.721249894775184,-2.5658026632916196e-05,-1.5730017060866554e-05],[0.7771463693015676,0.3442149938591381,0.33726343684504345],[-0.7770653199050079,0.4805697020069279,-0.03709117610038005],[-0.7770522669730165,-0.4805606828783733,0.037089325076008206],[0.7771535117538265,-0.3442200870933834,-0.3372900711652779]]"
C        0.00000000       0.00000000       0.00000000
C        2.15555556       0.00000000       0.00000000
H       -0.56503637       0.92382805       0.00000000
H        2.72059193       0.70758969       0.59394873
H        2.72059193      -0.70758969      -0.59394873
H       -0.56503637      -0.92382805      -0.00000000
6
Properties=species:S:1:pos:R:3 REF_energy=-2117.654966646887 REF_forces="_JSON [[4.153029795934918,0.00012445138092507193,7.291573131659574e-05],[-4.152817722232907,-0.0002094054613250287,7.75588974297374e-06],[0.8048925239591237,0.33629724960553165,0.29119178265317336],[-0.805044320859122,0.42026665103158345,0.14576799278301364],[-0.8050095038129339,-0.4201564180812564,-0.14580703583079557],[0.8049492270114972,-0.3363225284753922,-0.29123341122666985]]"
C        0.00000000       0.00000000       0.00000000
C        2.15555556       0.00000000       0.00000000
H       -0.56503637       0.92382805       0.00000000
H        2.72059193       0.46177438       0.80013917
H        2.72059193      -0.46177438      -0.80013917
H       -0.56503637      -0.92382805      -0.00000000
6
Properties=species:S:1:pos:R:3 REF_energy=-2117.518071061848 REF_forces="_JSON [[3.7713544835092394,-0.00046892891205320685,-9.325825294211134e-06],[-3.77117409159391,0.00033938029191256266,4.323429269520526e-05],[0.8168782786893568,0.33112641834905954,0.11589108134905692],[-0.8168992689147723,0.17140094867414638,0.30585569784957617],[-0.8169227126624762,-0.17137062035157113,-0.3058796427217496],[0.816763310973514,-0.33102719805086106,-0.11590104494417901]]"
C        0.00000000       0.00000000       0.00000000
C        2.15555556       0.00000000       0.00000000
H       -0.56503637       0.92382805       0.00000000
H        2.72059193       0.16026227       0.90982101
H        2.72059193      -0.16026227      -0.90982101
H       -0.56503637      -0.92382805      -0.00000000
6
Properties=species:S:1:pos:R:3 REF_energy=-2117.518139906655 REF_forces="_JSON [[3.7712585747799023,-1.8267292019337066e-06,1.968104360642448e-05],[-3.7713077373930304,5.930796524012242e-05,2.3500949729578737e-06],[0.8169381677493764,0.33089723384989955,-0.11608767352085007],[-0.8169100057735935,-0.17178504985193538,0.30587013646482075],[-0.8169050439542102,0.17172920937470265,-0.3058778991265067],[0.8169260445913139,-0.33089887460894685,0.11607340504423098]]"
C        0.00000000       0.00000000       0.00000000
C        2.15555556       0.00000000       0.00000000
H       -0.56503637       0.92382805       0.00000000
H        2.72059193      -0.16057984       0.90976501
H        2.72059193       0.16057984      -0.90976501
H       -0.56503637      -0.92382805      -0.00000000
6
Properties=species:S:1:pos:R:3 REF_energy=-2117.655154405451 REF_forces="_JSON [[4.153398737745703,-1.0966823241805846e-05,1.2426396551457203e-05],[-4.15339985203673,7.1102093226946855e-06,-6.757133735158851e-06],[0.8049204480814719,0.33627807542888394,-0.2912258062563371],[-0.8049207535704337,-0.42036880752060146,0.14554114576755184],[-0.8049165275123897,0.4203695800551392,-0.14553865599379734],[0.8049179472923381,-0.33627499134966643,0.2912176472197682]]"
C        0.00000000       0.00000000       0.00000000
C        2.15555556       0.00000000       0.00000000
H       -0.56503637       0.92382805       0.00000000
H        2.72059193      -0.46205365       0.79997793
H        2.72059193       0.46205365      -0.79997793
H       -0.56503637      -0.92382805      -0.00000000
6
Properties=species:S:1:pos:R:3 REF_energy=-2117.865664408874 REF_forces="_JSON [[4.72175189091369,-2.9097725916925396e-05,4.515631885866062e-05],[-4.7217374505313945,4.221676002044499e-05,-6.401363560656538e-08],[0.777064143985332,0.3443090125454465,-0.33730997326538786],[-0.7770726188238338,-0.48050653603775356,-0.03725105372985353],[-0.777058043499992,0.4804874119880109,0.03723764133694912],[0.7770520779570781,-0.3443030075301219,0.33727829335296794]]"
C        0.00000000       0.00000000       0.00000000
C        2.15555556       0.00000000       0.00000000
H       -0.56503637       0.92382805       0.00000000
H        2.72059193      -0.70779698       0.59370170
H        2.72059193       0.70779698      -0.59370170
H       -0.56503637      -0.92382805      -0.00000000
6
Properties=species:S:1:pos:R:3 REF_energy=-2118.057825502587 REF_forces="_JSON [[5.256607228767064,3.1263773041805367e-06,1.4897364307740256e-06],[-5.256606676403148,-3.9282295398732355e-06,-2.6437527871095243e-06],[0.7352243682052997,0.3515983186754388,-0.23296140846952945],[-0.7352248946647721,-0.4100533004714835,-0.09872902464429631],[-0.7352254487060131,0.4100548431014365,0.09873091147698292],[0.7352254228020902,-0.3515990594538106,0.23296067565319267]]"
C        0.00000000       0.00000000       0.00000000
C        2.15555556       0.00000000       0.00000000
H       -0.56503637       0.92382805       0.00000000
H        2.72059193      -0.86816954       0.31581628
H        2.72059193       0.86816954      -0.31581628
H       -0.56503637      -0.92382805      -0.00000000
6
Properties=species:S:1:pos:R:3 REF_energy=-2118.137588333643 REF_forces="_JSON [[5.496163646303861,2.0388406816293755e-09,-1.7948044475613232e-08],[-5.495802334217866,-1.3273775391978606e-09,-1.3599975874906136e-08],[0.7107364001308659,0.35529804433812245,0.00013170430662448105],[-0.7109170562455871,-0.3549175796385001,6.977889802917467e-05],[-0.7109170535285274,0.354917579960122,-6.976374558284155e-05],[0.7107363975579114,-0.3552980453720218,-0.00013168791105047873]]"
C        0.00000000       0.00000000       0.00000000
C        2.15555556       0.00000000       0.00000000
H       -0.56503637       0.92382805       0.00000000
H        2.72059193      -0.92382804      -0.00016124
H        2.72059193       0.92382804       0.00016124
H       -0.56503637      -0.92382805      -0.00000000
6
Properties=species:S:1:pos:R:3 REF_energy=-2116.803006994533 REF_forces="_JSON [[4.153215634714778,-1.2217910972237566e-09,5.7427572785072074e-09],[-4.153117139648869,-7.692565842182638e-10,2.3664776843432577e-07],[0.7999971073213543,0.44078751742375266,7.833298030638703e-05],[-0.8000463544563429,0.4407747399911925,-1.5051231650575875e-06],[-0.8000463549221292,-0.4407747390320809,1.3452834577492422e-06],[0.7999971069920372,-0.4407875163917031,-7.841553112487391e-05]]"
C        0.00000000       0.00000000       0.00000000
C        2.36666667       0.00000000       0.00000000
H       -0.56503637       0.92382805       0.00000000
H        2.93170304       0.92382804       0.00016124
H        2.93170304      -0.92382804      -0.00016124
H       -0.56503637      -0.92382805      -0.00000000
6
Properties=species:S:1:pos:R:3 REF_energy=-2116.755255637996 REF_forces="_JSON [[4.003078820935107,4.718608288132317e-07,-2.4765635152533196e-06],[-4.00307854972571,3.46041649347944e-07,-2.5531265596067975e-06],[0.8160898928759811,0.43981868801673885,0.13984306246847353],[-0.8160899211964634,0.46111908924963557,0.01910014277974866],[-0.8160900407108143,-0.4611197861791936,-0.019097821402790666],[0.8160897978216834,-0.4398188089894112,-0.1398403541552888]]"
C        0.00000000       0.00000000       0.00000000
C        2.36666667       0.00000000       0.00000000
H       -0.56503637       0.92382805       0.00000000
H        2.93170304       0.86805924       0.31611931
H        2.93170304      -0.86805924      -0.31611931
H       -0.56503637      -0.92382805      -0.00000000
6
Properties=species:S:1:pos:R:3 REF_energy=-2116.639372957359 REF_forces="_JSON [[3.6562732089477787,-1.6088706772880153e-05,-8.802346296910759e-07],[-3.656456254294925,2.096231119515058e-05,4.3975320182581516e-08],[0.8486851183945149,0.4372609996996466,0.20319691205574242],[-0.8485893609901806,0.46561918485662757,0.12541005274891603],[-0.8485928172676758,-0.4656286733474456,-0.12540625933912797],[0.8486801052105132,-0.4372563848133168,-0.20319986920630714]]"
C        0.00000000       0.00000000       0.00000000
C        2.36666667       0.00000000       0.00000000
H       -0.56503637       0.92382805       0.00000000
H        2.93170304       0.70758969       0.59394873
H        2.93170304      -0.70758969      -0.59394873
H       -0.56503637      -0.92382805      -0.00000000
6
Properties=species:S:1:pos:R:3 REF_energy=-2116.513609006115 REF_forces="_JSON [[3.296189511592207,1.5012492069382954e-05,3.301510585472025e-05],[-3.296049340828893,-1.8511887235927823e-05,-2.3676108439324684e-05],[0.8756523907638993,0.4340307506808105,0.17184839619489503],[-0.875729763304793,0.3656915852565347,0.2897943944059749],[-0.8757200514863455,-0.36568362530239557,-0.28978920259994856],[0.8756572532651081,-0.43403521123936,-0.17186292699783717]]"
C        0.00000000       0.00000000       0.00000000
C        2.36666667       0.00000000       0.00000000
H       -0.56503637       0.92382805       0.00000000
H        2.93170304       0.46177438       0.80013917
H        2.93170304      -0.46177438      -0.80013917
H       -0.56503637      -0.92382805      -0.00000000
6
Properties=species:S:1:pos:R:3 REF_energy=-2116.433666035683 REF_forces="_JSON [[3.0700136583235254,-5.146304805302129e-06,1.7305557941671564e-06],[-3.0700137148191198,-5.780458719220997e-06,3.2404048982775504e-06],[0.8893770368493354,0.43145845104962294,0.06672628971395315],[-0.8893776905413076,0.1405683480747012,0.41333929649453655],[-0.8893774185391982,-0.14055903466216588,-0.4133414609018366],[0.8893781287268726,-0.4314568376985539,-0.0667290962674657]]"
C        0.00000000       0.00000000       0.00000000
C        2.36666667       0.00000000       0.00000000
H       -0.56503637       0.92382805       0.00000000
H        2.93170304       0.16026227       0.90982101
H        2.93170304      -0.16026227      -0.90982101
H       -0.56503637      -0.92382805      -0.00000000
6
Properties=species:S:1:pos:R:3 REF_energy=-2116.433709029673 REF_forces="_JSON [[3.069853031753453,-5.587312041483841e-05,-5.905234510061141e-05],[-3.069968226366673,7.640251018884434e-05,6.179558691978728e-05],[0.8894952273981978,0.43139134256963774,-0.06691565696106638],[-0.8894197780447474,-0.14087386637358015,0.41342988381038986],[-0.8894339164492256,0.14083753841735652,-0.4134498905081353],[0.8894736617083884,-0.43137554400342676,0.06693292041719623]]"
C        0.00000000       0.00000000       0.00000000
C        2.36666667       0.00000000       0.00000000
H       -0.56503637       0.92382805       0.00000000
H        2.93170304      -0.16057984       0.90976501
H        2.93170304       0.16057984      -0.90976501
H       -0.56503637      -0.92382805      -0.00000000
6
Properties=species:S:1:pos:R:3 REF_energy=-2116.51372002857 REF_forces="_JSON [[3.2966586969688656,-1.2764915280799106e-05,-3.165219905580156e-05],[-3.2964516534446,1.2023915979693431e-05,3.6721060680077116e-05],[0.8755992204347322,0.43390395166385326,-0.17199020902788686],[-0.8756970794318386,-0.36582526232566687,0.2897923654072404],[-0.8757039946430154,0.3658221877654643,-0.28980302663491464],[0.8755948101155888,-0.4339001361042325,0.17199580139427012]]"
C        0.00000000       0.00000000       0.00000000
C        2.36666667       0.00000000       0.00000000
H       -0.56503637       0.92382805       0.00000000
H        2.93170304      -0.46205365       0.79997793
H        2.93170304       0.46205365      -0.79997793
H       -0.56503637      -0.92382805      -0.00000000
6
Properties=species:S:1:pos:R:3 REF_energy=-2116.63950411624 REF_forces="_JSON [[3.656726986874226,-1.4452408888914138e-05,-6.944855422791973e-05],[-3.6567521607134585,2.0414192731508238e-05,5.953925127962057e-05],[0.8486107533424136,0.4372283488860054,-0.20325297525040661],[-0.8485899745504792,-0.4656890617244003,0.1253411332600331],[-0.8485997462046363,0.4656792721685328,-0.12536240583467048],[0.848604141251184,-0.43722452111324317,0.20328415712812237]]"
C        0.00000000       0.00000000       0.00000000
C        2.36666667       0.00000000       0.00000000
H       -0.56503637       0.92382805       0.00000000
H        2.93170304      -0.70779698       0.59370170
H        2.93170304       0.70779698      -0.59370170
H       -0.56503637      -0.92382805      -0.00000000
6
Properties=species:S:1:pos:R:3 REF_energy=-2116.755345707684 REF_forces="_JSON [[4.0033581989882565,5.530493574698127e-07,2.8189710289269462e-06],[-4.003357836722668,3.446412667539689e-07,2.668387934246269e-06],[0.8160610114905981,0.43982069537347934,-0.13973361033732704],[-0.8160612029520518,-0.46109076372833835,0.019040346176739418],[-0.8160610783959833,0.46108999913230797,-0.019042893341063696],[0.8160609075913859,-0.4398208284683373,0.13973067014284027]]"
C        0.00000000       0.00000000       0.00000000
C        2.36666667       0.00000000       0.00000000
H       -0.56503637       0.92382805       0.00000000
H        2.93170304      -0.86816954       0.31581628
H        2.93170304       0.86816954      -0.31581628
H       -0.56503637      -0.92382805      -0.00000000
6
Properties=species:S:1:pos:R:3 REF_energy=-2116.803006994533 REF_forces="_JSON [[4.153318826266523,1.6278244265864003e-09,1.7623652721223212e-07],[-4.15307593512753,3.6217829850713877e-10,2.2485170644948022e-08],[0.7999578655838433,0.44079738646344097,7.831341795969868e-05],[-0.8000793110740032,-0.4407553141669211,1.4059461592682608e-06],[-0.8000793112904643,0.44075531369156723,-1.4628020224947913e-06],[0.7999578656418114,-0.4407973879780373,-7.84552837943319e-05]]"
C        0.00000000       0.00000000       0.00000000
C        2.36666667       0.00000000       0.00000000
H       -0.56503637       0.92382805       0.00000000
H        2.93170304      -0.92382804      -0.00016124
H        2.93170304       0.92382804       0.00016124
H       -0.56503637      -0.92382805      -0.00000000
6
Properties=species:S:1:pos:R:3 REF_energy=-2115.694601525895 REF_forces="_JSON [[3.0563776120398405,7.125521003231811e-09,2.4578460770665156e-08],[-3.0565941635466776,-9.60311117005528e-09,-3.996241886527661e-08],[0.8624439842468946,0.51768380225302,4.62916735361767e-05],[-0.8623357067999595,0.5177227676637743,4.404786527797633e-05],[-0.8623357100385007,-0.5177227583601648,-4.40637768628923e-05],[0.862443984098002,-0.5176838090797005,-4.626037799315613e-05]]"
C        0.00000000       0.00000000       0.00000000
C        2.57777778       0.00000000       0.00000000
H       -0.56503637       0.92382805       0.00000000
H        3.14281415       0.92382804       0.00016124
H        3.14281415      -0.92382804      -0.00016124
H       -0.56503637      -0.92382805      -0.00000000
6
Properties=species:S:1:pos:R:3 REF_energy=-2115.666359100454 REF_forces="_JSON [[2.9647900222717083,-2.159987658365349e-05,0.00010180945042984602],[-2.9647757598916655,1.4155756266696083e-05,-0.00011031196417278853],[0.8729731870944819,0.5180895563666302,0.08296661164602458],[-0.8729804840484398,0.5151443570817548,0.09927959682277006],[-0.8729740198357313,-0.515144516418758,-0.09925447433755545],[0.8729670544106437,-0.5180819529094617,-0.08298323161759115]]"
C        0.00000000       0.00000000       0.00000000
C        2.57777778       0.00000000       0.00000000
H       -0.56503637       0.92382805       0.00000000
H        3.14281415       0.86805924       0.31611931
H        3.14281415      -0.86805924      -0.31611931
H       -0.56503637      -0.92382805      -0.00000000
6
Properties=species:S:1:pos:R:3 REF_energy=-2115.597187485067 REF_forces="_JSON [[2.7482734291063315,7.846935829265047e-06,-3.565359757989291e-05],[-2.7482522351926524,1.8432664615765497e-05,-3.343074440635066e-05],[0.896375818620896,0.5181308322836325,0.1217149900226457],[-0.8963853498318233,0.47507751151289856,0.23991943091333653],[-0.8963863052841328,-0.47510375136692556,-0.23988842275565905],[0.8963746425819002,-0.5181308720301445,-0.12167691383816039]]"
C        0.00000000       0.00000000       0.00000000
C        2.57777778       0.00000000       0.00000000
H       -0.56503637       0.92382805       0.00000000
H        3.14281415       0.70758969       0.59394873
H        3.14281415      -0.70758969      -0.59394873
H       -0.56503637      -0.92382805      -0.00000000
6
Properties=species:S:1:pos:R:3 REF_energy=-2115.521771672928 REF_forces="_JSON [[2.521902500706467,-0.00018965564371244256,0.00041746717486153165],[-2.52175388392006,-9.018318435737049e-05,0.0001116684306770801],[0.9184695908467064,0.5178145111093791,0.1026847000274739],[-0.9185431409043265,0.3479539722038386,0.39712172552483366],[-0.9185174764969025,-0.3477141870376603,-0.39724010036454654],[0.91844240976752,-0.5177744574475158,-0.10309546079332664]]"
C        0.00000000       0.00000000       0.00000000
C        2.57777778       0.00000000       0.00000000
H       -0.56503637       0.92382805       0.00000000
H        3.14281415       0.46177438       0.80013917
H        3.14281415      -0.46177438      -0.80013917
H       -0.56503637      -0.92382805      -0.00000000
6
Properties=species:S:1:pos:R:3 REF_energy=-2115.47405759599 REF_forces="_JSON [[2.382177620691531,1.9139059993669213e-05,-2.7545499038556502e-05],[-2.382308669493195,2.5438189573681212e-05,3.4005530155426496e-06],[0.9308760391349178,0.5172557662284769,0.03974440789147578],[-0.9308080569207722,0.1288221858029465,0.5027737345634042],[-0.9308124011764741,-0.12886398715163883,-0.5027707294556597],[0.9308754677637822,-0.5172585421289503,-0.03972326805302266]]"
C        0.00000000       0.00000000       0.00000000
C        2.57777778       0.00000000       0.00000000
H       -0.56503637       0.92382805       0.00000000
H        3.14281415       0.16026227       0.90982101
H        3.14281415      -0.16026227      -0.90982101
H       -0.56503637      -0.92382805      -0.00000000
6
Properties=species:S:1:pos:R:3 REF_energy=-2115.474083174692 REF_forces="_JSON [[2.382329672722074,0.00011551046457593811,0.00023887681465298958],[-2.3823944891590276,0.00019484857525963711,7.41783199383283e-05],[0.9308465571814738,0.517289901850479,-0.0399739730786167],[-0.9308214923365727,-0.12920727307031316,0.5026669100231771],[-0.9308038322116166,0.12890829057245673,-0.5027081911679392],[0.930843583803633,-0.5173012783927031,0.039702199088270766]]"
C        0.00000000       0.00000000       0.00000000
C        2.57777778       0.00000000       0.00000000
H       -0.56503637       0.92382805       0.00000000
H        3.14281415      -0.16057984       0.90976501
H        3.14281415       0.16057984      -0.90976501
H       -0.56503637      -0.92382805      -0.00000000
6
Properties=species:S:1:pos:R:3 REF_energy=-2115.52183806871 REF_forces="_JSON [[2.5221297229249173,-7.422818115947763e-05,-0.00028322083437902474],[-2.521926026124312,-0.00013675996411379026,0.00010695956299670244],[0.9184181374602245,0.5178387657061332,-0.10283357540098531],[-0.9184918795624656,-0.34788818447339204,0.39702475272568166],[-0.9185477562990648,0.34808802778845604,-0.3969896074292547],[0.9184178016011276,-0.5178276208755178,0.10297469137564949]]"
C        0.00000000       0.00000000       0.00000000
C        2.57777778       0.00000000       0.00000000
H       -0.56503637       0.92382805       0.00000000
H        3.14281415      -0.46205365       0.79997793
H        3.14281415       0.46205365      -0.79997793
H       -0.56503637      -0.92382805      -0.00000000
6
Properties=species:S:1:pos:R:3 REF_energy=-2115.597265853858 REF_forces="_JSON [[2.748275512845388,-3.8766236720821535e-06,-0.0001611782322659104],[-2.74834466448307,-7.440524212148069e-05,-0.0002701869422633707],[0.8964313666403784,0.5181574098512922,-0.12161212169862808],[-0.8964054061528527,-0.4752305582407859,0.23969605724679588],[-0.896395727614695,0.47532009668402825,-0.23955942722644155],[0.8964389187643527,-0.5181686664290273,0.12190685685294742]]"
C        0.00000000       0.00000000       0.00000000
C        2.57777778       0.00000000       0.00000000
H       -0.56503637       0.92382805       0.00000000
H        3.14281415      -0.70779698       0.59370170
H        3.14281415       0.70779698      -0.59370170
H       -0.56503637      -0.92382805      -0.00000000
6
Properties=species:S:1:pos:R:3 REF_energy=-2115.666412706885 REF_forces="_JSON [[2.9651089764767162,-2.627118414437351e-06,-1.7095974291340722e-05],[-2.965108153693921,-6.17019593439856e-06,-2.115826392915497e-05],[0.8729071611490299,0.5180069426970548,-0.08282865071741013],[-0.8729077948280735,-0.5151111304780129,0.09924965936993412],[-0.8729078193109784,0.5151198142620624,-0.09922646660225562],[0.8729076302074836,-0.5180068291669935,0.08284371218811475]]"
C        0.00000000       0.00000000       0.00000000
C        2.57777778       0.00000000       0.00000000
H       -0.56503637       0.92382805       0.00000000
H        3.14281415      -0.86816954       0.31581628
H        3.14281415       0.86816954      -0.31581628
H       -0.56503637      -0.92382805      -0.00000000
6
Properties=species:S:1:pos:R:3 REF_energy=-2115.694601525895 REF_forces="_JSON [[3.056406351011202,-7.073767377455428e-09,-2.0093975847922993e-07],[-3.0565138731520207,9.61555975154641e-09,2.2107071337657526e-07],[0.8624213607550235,0.5176951387454911,4.628238334723647e-05],[-0.86236759812904,-0.5177091596621624,-4.407805150310793e-05],[-0.8623676013768988,0.5177091503343897,4.4048975184756415e-05],[0.8624213608915491,-0.5176951319593672,-4.6273437983778405e-05]]"
C        0.00000000       0.00000000       0.00000000
C        2.57777778       0.00000000       0.00000000
H       -0.56503637       0.92382805       0.00000000
H        3.14281415      -0.92382804      -0.00016124
H        3.14281415       0.92382804       0.00016124
H       -0.56503637      -0.92382805      -0.00000000
6
Properties=species:S:1:pos:R:3 REF_energy=-2114.770848713224 REF_forces="_JSON [[2.1940088696943816,-1.854868586289396e-09,3.9088319120941937e-08],[-2.1939210892106895,-1.0744307240851849e-08,-4.053191230739159e-08],[0.9022751911955929,0.5859418693198551,2.7187939112475314e-05],[-0.902319081559101,0.5859155777770358,7.505154159355742e-05],[-0.902319085927349,-0.5859155669524695,-7.516306101930765e-05],[0.9022751958067484,-0.5859418675463544,-2.7074976093621507e-05]]"
C        0.00000000       0.00000000       0.00000000
C        2.78888889       0.00000000       0.00000000
H       -0.56503637       0.92382805       0.00000000
H        3.35392526       0.92382804       0.00016124
H        3.35392526      -0.92382804      -0.00016124
H       -0.56503637      -0.92382805      -0.00000000
6
Properties=species:S:1:pos:R:3 REF_energy=-2114.754231264007 REF_forces="_JSON [[2.1384945488069627,1.2480255118671085e-06,5.655247436994895e-06],[-2.1384947642539927,3.525930176618402e-06,-6.397718143379306e-06],[0.9091174315224501,0.5867752689839917,0.04896128192891147],[-0.9091173241722516,0.5681064440410942,0.15478014799366877],[-0.909116905278616,-0.5681108906041663,-0.1547688795884573],[0.9091170133757971,-0.5867755963768309,-0.048971807863370104]]"
C        0.00000000       0.00000000       0.00000000
C        2.78888889       0.00000000       0.00000000
H       -0.56503637       0.92382805       0.00000000
H        3.35392526       0.86805924       0.31611931
H        3.35392526      -0.86805924      -0.31611931
H       -0.56503637      -0.92382805      -0.00000000
6
Properties=species:S:1:pos:R:3 REF_energy=-2114.713100437689 REF_forces="_JSON [[2.0042800671121914,-0.00010075844575334,-8.49921594227175e-05],[-2.0041325594308255,-0.0001315995330831964,1.998403929978503e-05],[0.9253218378201347,0.588094945893679,0.07300444105924621],[-0.9253945066307481,0.4972471304372386,0.32224052383766],[-0.925385214231943,-0.49703438636215236,-0.3224701234223769],[0.9253103753612061,-0.5880753319899937,-0.07270983335459781]]"
C        0.00000000       0.00000000       0.00000000
C        2.78888889       0.00000000       0.00000000
H       -0.56503637       0.92382805       0.00000000
H        3.35392526       0.70758969       0.59394873
H        3.35392526      -0.70758969      -0.59394873
H       -0.56503637      -0.92382805      -0.00000000
6
Properties=species:S:1:pos:R:3 REF_energy=-2114.667828310533 REF_forces="_JSON [[1.8615857170420333,6.822353159888966e-05,4.365740291256412e-05],[-1.8614916884125148,6.411266481546093e-05,5.1373932288429525e-06],[0.9417491568524321,0.5891150041540348,0.06199795500469935],[-0.9417992780052353,0.34800661266723176,0.479376980112397],[-0.9418007153549627,-0.34812343052691547,-0.479315572263534],[0.9417568078781647,-0.5891305224907151,-0.062108157649935006]]"
C        0.00000000       0.00000000       0.00000000
C        2.78888889       0.00000000       0.00000000
H       -0.56503637       0.92382805       0.00000000
H        3.35392526       0.46177438       0.80013917
H        3.35392526      -0.46177438      -0.80013917
H       -0.56503637      -0.92382805      -0.00000000
6
Properties=species:S:1:pos:R:3 REF_energy=-2114.63903948046 REF_forces="_JSON [[1.7731067756025047,1.042246094386448e-06,-4.416891942522146e-05],[-1.7729990127281474,-2.0355529354918034e-05,1.5099393617929152e-05],[0.9514933921902329,0.589736675830749,0.024012053089848148],[-0.9515451521678573,0.1259196570799296,0.5764625962908355],[-0.9515508885470437,-0.12589776645442116,-0.5764744152632335],[0.9514948856506709,-0.5897392531725566,-0.023971164591777325]]"
C        0.00000000       0.00000000       0.00000000
C        2.78888889       0.00000000       0.00000000
H       -0.56503637       0.92382805       0.00000000
H        3.35392526       0.16026227       0.90982101
H        3.35392526      -0.16026227      -0.90982101
H       -0.56503637      -0.92382805      -0.00000000
6
Properties=species:S:1:pos:R:3 REF_energy=-2114.639054990951 REF_forces="_JSON [[1.773220927421039,-1.3494361095685274e-05,6.716297936164921e-05],[-1.773039934912303,-1.2085846164522424e-05,-1.9051798589428646e-05],[0.9514641807929667,0.5898199836971706,-0.0240609359577175],[-0.9515582944066971,-0.12614672583383207,0.5763861952018573],[-0.9515502133738425,0.12616963330119788,-0.576369703967957],[0.9514633344781477,-0.5898173109572983,0.0239963335431682]]"
C        0.00000000       0.00000000       0.00000000
C        2.78888889       0.00000000       0.00000000
H       -0.56503637       0.92382805       0.00000000
H        3.35392526      -0.16057984       0.90976501
H        3.35392526       0.16057984      -0.90976501
H       -0.56503637      -0.92382805      -0.00000000
6
Properties=species:S:1:pos:R:3 REF_energy=-2114.66786831127 REF_forces="_JSON [[1.861665583145543,0.00010354237338438251,0.00010208700744414926],[-1.8614230050241192,-0.0001454200691869107,-4.85767597039268e-05],[0.9417260395831802,0.5892525696809155,-0.062041899010015666],[-0.9418616808130839,-0.34818962088744787,0.4789578731713569],[-0.9418614947093725,0.34827588094364365,-0.4789115785340454],[0.9417545578175847,-0.5892969520410996,0.06194209412487143]]"
C        0.00000000       0.00000000       0.00000000
C        2.78888889       0.00000000       0.00000000
H       -0.56503637       0.92382805       0.00000000
H        3.35392526      -0.46205365       0.79997793
H        3.35392526       0.46205365      -0.79997793
H       -0.56503637      -0.92382805      -0.00000000
6
Properties=species:S:1:pos:R:3 REF_energy=-2114.713147513387 REF_forces="_JSON [[2.0047241139149117,-2.8180613501255367e-05,-4.930258673386581e-05],[-2.004380925698766,1.4609886251360016e-05,5.280815465621427e-05],[0.9251816619315988,0.5881936179854168,-0.07285369066612396],[-0.9253466896911655,-0.4971743968093384,0.3221621608822545],[-0.9253527205020626,0.49717571919379644,-0.32217638330670445],[0.9251745600456892,-0.5881813696427746,0.07286440752253649]]"
C        0.00000000       0.00000000       0.00000000
C        2.78888889       0.00000000       0.00000000
H       -0.56503637       0.92382805       0.00000000
H        3.35392526      -0.70779698       0.59370170
H        3.35392526       0.70779698      -0.59370170
H       -0.56503637      -0.92382805      -0.00000000
6
Properties=species:S:1:pos:R:3 REF_energy=-2114.754263101328 REF_forces="_JSON [[2.1384652962463986,6.0531303767246e-06,3.2566725775635886e-05],[-2.1384605610888228,-5.905598475756118e-06,-3.168039931761661e-05],[0.9091419989844864,0.5868355398888497,-0.0489821860001745],[-0.9091461055892847,-0.5681954164747007,0.15454722698504753],[-0.9091444258140581,0.5681978564162824,-0.15453380897375424],[0.9091437972614449,-0.5868381273630775,0.04896788166255952]]"
C        0.00000000       0.00000000       0.00000000
C        2.78888889       0.00000000       0.00000000
H       -0.56503637       0.92382805       0.00000000
H        3.35392526      -0.86816954       0.31581628
H        3.35392526       0.86816954      -0.31581628
H       -0.56503637      -0.92382805      -0.00000000
6
Properties=species:S:1:pos:R:3 REF_energy=-2114.770848713224 REF_forces="_JSON [[2.193999299216978,1.949790241111842e-09,-1.7156143136029244e-07],[-2.19387820220291,1.0829477048921632e-08,1.7218573843216778e-07],[0.9022743865858496,0.5859372699755175,2.70838166011707e-05],[-0.9023349305618047,-0.5859109975386239,-7.505453901643911e-05],[-0.9023349349743117,0.5859109866186645,7.515663776399031e-05],[0.9022743819351042,-0.585937271834307,-2.7186539655870264e-05]]"
C        0.00000000       0.00000000       0.00000000
C        2.78888889       0.00000000       0.00000000
H       -0.56503637       0.92382805       0.00000000
H        3.35392526      -0.92382804      -0.00016124
H        3.35392526       0.92382804       0.00016124
H       -0.56503637      -0.92382805      -0.00000000
6
Properties=species:S:1:pos:R:3 REF_energy=-2113.995594148479 REF_forces="_JSON [[1.5203796458287426,1.933121360180134e-09,1.2146724761257713e-13],[-1.5203909594883709,-3.231540492839685e-09,5.862261199199253e-13],[0.9238978795680063,0.6459604289642064,1.5825467507593515e-05],[-0.9238922189060705,0.645963404634803,9.679842552644564e-05],[-0.9238922246740632,-0.6459634016918512,-9.679842618915216e-05],[0.9238978776720489,-0.6459604306088692,-1.5825467552558876e-05]]"
C        0.00000000       0.00000000       0.00000000
C        3.00000000       0.00000000       0.00000000
H       -0.56503637       0.92382805       0.00000000
H        3.56503637       0.92382804       0.00016124
H        3.56503637      -0.92382804      -0.00016124
H       -0.56503637      -0.92382805      -0.00000000
6
Properties=species:S:1:pos:R:3 REF_energy=-2113.985870431797 REF_forces="_JSON [[1.486556630237121,-4.5678302883111144e-07,3.545064274393413e-07],[-1.4865703631649991,-2.6709331661591795e-07,-6.348008007964475e-07],[0.9283197278731365,0.6469269067160616,0.02880343202813485],[-0.9283128585816549,0.6177266735133123,0.194371015748987],[-0.9283128362945803,-0.6177261398421057,-0.19437190588387623],[0.9283196999324422,-0.6469267165106845,-0.028802261598869713]]"
C        0.00000000       0.00000000       0.00000000
C        3.00000000       0.00000000       0.00000000
H       -0.56503637       0.92382805       0.00000000
H        3.56503637       0.86805924       0.31611931
H        3.56503637      -0.86805924      -0.31611931
H       -0.56503637      -0.92382805      -0.00000000
6
Properties=species:S:1:pos:R:3 REF_energy=-2113.961602773512 REF_forces="_JSON [[1.403400903513262,-8.77603082384719e-06,9.666126622046194e-06],[-1.403477742231835,4.576963062041117e-07,-2.333781212268238e-05],[0.9392198657826851,0.6483679954252914,0.04322188809806618],[-0.9391817960111564,0.5244573247842513,0.3838619974584782],[-0.9391791519768252,-0.5244522267595058,-0.38385983957572767],[0.939217920924255,-0.6483647751147147,-0.043210374295497435]]"
C        0.00000000       0.00000000       0.00000000
C        3.00000000       0.00000000       0.00000000
H       -0.56503637       0.92382805       0.00000000
H        3.56503637       0.70758969       0.59394873
H        3.56503637      -0.70758969      -0.59394873
H       -0.56503637      -0.92382805      -0.00000000
6
Properties=species:S:1:pos:R:3 REF_energy=-2113.934624316953 REF_forces="_JSON [[1.313441224697045,-2.853588271269789e-05,2.106433389388655e-05],[-1.3133302900418566,-4.593415332347867e-07,-2.1371337405389343e-05],[0.9506782310214361,0.6501375599568214,0.0370985191777758],[-0.950732844743339,0.3570715627977172,0.5443542902087086],[-0.9507289607242856,-0.35705240970694985,-0.5443572001193157],[0.9506726397913186,-0.6501277178234609,-0.03709530226378306]]"
C        0.00000000       0.00000000       0.00000000
C        3.00000000       0.00000000       0.00000000
H       -0.56503637       0.92382805       0.00000000
H        3.56503637       0.46177438       0.80013917
H        3.56503637      -0.46177438      -0.80013917
H       -0.56503637      -0.92382805      -0.00000000
6
Properties=species:S:1:pos:R:3 REF_energy=-2113.917342093575 REF_forces="_JSON [[1.2569680879049794,3.593561767365208e-07,4.380654304348794e-07],[-1.256908957013038,7.396537093602749e-07,6.564100506876264e-07],[0.9577273082519933,0.6510778106866624,0.014360858853201347],[-0.9577568289376076,0.1272285467352746,0.6385668295187418],[-0.9577569430126144,-0.12722950132740918,-0.6385670132665923],[0.9577273328059068,-0.6510779551045248,-0.014361769580977748]]"
C        0.00000000       0.00000000       0.00000000
C        3.00000000       0.00000000       0.00000000
H       -0.56503637       0.92382805       0.00000000
H        3.56503637       0.16026227       0.90982101
H        3.56503637      -0.16026227      -0.90982101
H       -0.56503637      -0.92382805      -0.00000000
6
Properties=species:S:1:pos:R:3 REF_energy=-2113.91735161756 REF_forces="_JSON [[1.2568146098668023,8.798479938523599e-07,1.0895466858259797e-06],[-1.2569613586794592,-9.386576974541974e-07,-2.1902208372061287e-06],[0.9578048311849086,0.6508561768679456,-0.014487714098120639],[-0.9577317336282736,-0.12741598149825709,0.6386535866278937],[-0.9577313782030289,0.12741644691973444,-0.6386526107205492],[0.9578050294587268,-0.6508565834801764,0.014487838864863578]]"
C        0.00000000       0.00000000       0.00000000
C        3.00000000       0.00000000       0.00000000
H       -0.56503637       0.92382805       0.00000000
H        3.56503637      -0.16057984       0.90976501
H        3.56503637       0.16057984      -0.90976501
H       -0.56503637      -0.92382805      -0.00000000
6
Properties=species:S:1:pos:R:3 REF_energy=-2113.934648262973 REF_forces="_JSON [[1.3134957682056478,-2.9801747431018294e-05,-2.8269305182701345e-05],[-1.3134584851252158,-3.2054019873240837e-06,6.868816795102004e-06],[0.9506821126860376,0.6501002001514771,-0.037061784691876626],[-0.9506968867099044,-0.3573106981385404,0.54424910616617],[-0.9506986066775185,0.3573336138614804,-0.5442406026994042],[0.9506760976210763,-0.650090108724871,0.037074681713462135]]"
C        0.00000000       0.00000000       0.00000000
C        3.00000000       0.00000000       0.00000000
H       -0.56503637       0.92382805       0.00000000
H        3.56503637      -0.46205365       0.79997793
H        3.56503637       0.46205365      -0.79997793
H       -0.56503637      -0.92382805      -0.00000000
6
Properties=species:S:1:pos:R:3 REF_energy=-2113.961630801241 REF_forces="_JSON [[1.4036236279002385,-1.0620244601507562e-05,7.261480020832283e-06],[-1.4035916046508736,-8.649778041042415e-06,8.201106929802318e-06],[0.9391542078569559,0.6484452707141751,-0.043238481199701],[-0.9391680974054615,-0.5245161797440644,0.383710085899808],[-0.9391702278025361,0.5245318871546973,-0.3836972639637612],[0.9391520941016512,-0.6484417081019591,0.043210196676634366]]"
C        0.00000000       0.00000000       0.00000000
C        3.00000000       0.00000000       0.00000000
H       -0.56503637       0.92382805       0.00000000
H        3.56503637      -0.70779698       0.59370170
H        3.56503637       0.70779698      -0.59370170
H       -0.56503637      -0.92382805      -0.00000000
6
Properties=species:S:1:pos:R:3 REF_energy=-2113.985889207653 REF_forces="_JSON [[1.4866680375206578,-4.939223422780501e-07,-7.474159213714671e-07],[-1.4866737775432983,-3.774159311066755e-07,6.096541681401475e-08],[0.9282972349768401,0.6469381843765252,-0.028707105836485388],[-0.9282943324120861,-0.6177969364809237,0.1941199704969298],[-0.9282943574186016,0.6177975953725254,-0.19411865673217754],[0.9282971948766215,-0.6469379719299831,0.028706478522191516]]"
C        0.00000000       0.00000000       0.00000000
C        3.00000000       0.00000000       0.00000000
H       -0.56503637       0.92382805       0.00000000
H        3.56503637      -0.86816954       0.31581628
H        3.56503637       0.86816954      -0.31581628
H       -0.56503637      -0.92382805      -0.00000000
6
Properties=species:S:1:pos:R:3 REF_energy=-2113.995594148479 REF_forces="_JSON [[1.5204070158634002,-1.930640598345193e-09,-2.652627335206943e-13],[-1.5204157913106733,3.2268350714511694e-09,-2.869170489509791e-13],[0.9238907531289595,0.6459557104501745,1.58179308829491e-05],[-0.9238863634700355,-0.6459740025894569,-9.679456104167497e-05],[-0.9238863692361101,0.6459739996506241,9.679456176354515e-05],[0.923890755024701,-0.6459557088072497,-1.5817931052587517e-05]]"
C        0.00000000       0.00000000       0.00000000
C        3.00000000       0.00000000       0.00000000
H       -0.56503637       0.92382805       0.00000000
H        3.56503637      -0.92382804      -0.00016124
H        3.56503637       0.92382804       0.00016124
H       -0.56503637      -0.92382805      -0.00000000
