6
Properties=species:S:1:pos:R:3 REF_energy=-2114.036077888037 REF_forces="_JSON [[0.6321600030801747,2.443236506673972e-08,-4.681800351053283e-13],[-0.6321601529316938,-2.4300608789843838e-08,3.930120974909304e-13],[-1.6562270836318154,0.900620940057054,-6.966980496794155e-13],[1.656227156372191,0.9006209385111986,-8.108827555047482e-13],[1.6562271585821982,-0.9006209286604377,7.594883130490257e-13],[-1.656227081468777,-0.9006209500397381,8.232604297495319e-13]]"
C       -0.65867623      -0.00000000       0.00000000
C        0.65867623       0.00000000       0.00000000
H       -1.22717751       0.91632134      -0.00000000
H        1.22717751       0.91632134      -0.00000000
H        1.22717751      -0.91632134       0.00000000
H       -1.22717751      -0.91632134      -0.00000000
6
Properties=species:S:1:pos:R:3 REF_energy=-2110.037901592402 REF_forces="_JSON [[-19.941153431626653,9.120020860168035e-06,-3.460634390426526e-05],[19.941162378395372,-6.5673610214725656e-06,3.5771534645904806e-05],[-2.4241052149623235,0.8625498535432263,-0.8888413534007765],[2.424102664715754,0.8623843808859412,0.8889957059022477],[2.424100404617057,-0.8623929292485167,-0.8889970276764777],[-2.424106801137314,-0.8625438578404835,0.8888415099843492]]"
C        0.00000000       0.00000000       0.00000000
C        1.10000000       0.00000000       0.00000000
H       -0.56503637       0.92382805       0.00000000
H        1.66503637       0.92382804       0.00016124
H        1.66503637      -0.92382804      -0.00016124
H       -0.56503637      -0.92382805      -0.00000000
6
Properties=species:S:1:pos:R:3 REF_energy=-2111.338701900559 REF_forces="_JSON [[-28.755136113479747,1.0451235110097908e-09,9.512247805660463e-10],[28.755111656750692,-2.240525028800139e-09,-1.3982735146923124e-09],[-1.638949831583851,0.47704988168762535,-2.2694553069040304],[1.6389620595676486,-0.3282745401908773,2.2956841638831835],[1.6389620593425023,0.3282745412267178,-2.2956841631785574],[-1.6389498305976324,-0.47704988153001165,2.2694553066467607]]"
C        0.00000000       0.00000000       0.00000000
C        1.10000000       0.00000000       0.00000000
H       -0.56503637       0.92382805       0.00000000
H        1.66503637       0.86805924       0.31611931
H        1.66503637      -0.86805924      -0.31611931
H       -0.56503637      -0.92382805      -0.00000000
6
Properties=species:S:1:pos:R:3 REF_energy=-2112.637035768688 REF_forces="_JSON [[-28.661451459899762,-2.7457232807583216e-09,4.554146155758574e-09],[28.66137609851812,2.0578519118857037e-09,-3.1776034593822077e-09],[-1.5940214048999348,0.45502255689629956,-1.7303172046520252],[1.5940590866923683,-0.7639030109261339,1.6178703354788566],[1.5940590862434743,0.7639030112127245,-1.6178703348791366],[-1.5940214066537048,-0.45502255649566514,1.7303172026759985]]"
C        0.00000000       0.00000000       0.00000000
C        1.10000000       0.00000000       0.00000000
H       -0.56503637       0.92382805       0.00000000
H        1.66503637       0.70758969       0.59394873
H        1.66503637      -0.70758969      -0.59394873
H       -0.56503637      -0.92382805      -0.00000000
6
Properties=species:S:1:pos:R:3 REF_energy=-2113.548588628549 REF_forces="_JSON [[-28.528962135272778,-7.07679487485825e-10,-1.3368469938398034e-09],[28.528962382598777,-9.045335019726803e-10,-2.725266123494461e-10],[-1.532132976782065,0.4074346745551864,-1.0826042219227596],[1.5321328531057303,-0.7340014943442119,0.8940227724793189],[1.5321328526787523,0.7340014950993861,-0.8940227711801301],[-1.53213297632826,-0.4074346736971928,1.0826042222328707]]"
C        0.00000000       0.00000000       0.00000000
C        1.10000000       0.00000000       0.00000000
H       -0.56503637       0.92382805       0.00000000
H        1.66503637       0.46177438       0.80013917
H        1.66503637      -0.46177438      -0.80013917
H       -0.56503637      -0.92382805      -0.00000000
6
Properties=species:S:1:pos:R:3 REF_energy=-2114.019008185584 REF_forces="_JSON [[-28.442308953475006,3.188114167923591e-10,2.9808371855003836e-10],[28.44230891364466,-5.554394904550529e-10,6.50455834616004e-10],[-1.4900271851288514,0.3817795517205358,-0.36845474912733067],[1.4900272053258763,-0.29663854781290805,0.43990920651753906],[1.490027205034637,0.2966385480984892,-0.4399092071032822],[-1.4900271854003035,-0.381779551769359,0.36845474876426315]]"
C        0.00000000       0.00000000       0.00000000
C        1.10000000       0.00000000       0.00000000
H       -0.56503637       0.92382805       0.00000000
H        1.66503637       0.16026227       0.90982101
H        1.66503637      -0.16026227      -0.90982101
H       -0.56503637      -0.92382805      -0.00000000
6
Properties=species:S:1:pos:R:3 REF_energy=-2114.01877035807 REF_forces="_JSON [[-28.44235583775114,-3.634384210838528e-10,-6.1010450649835e-11],[28.442355727106584,2.451000675012741e-10,4.394303879920255e-10],[-1.4900503927797089,0.3817924841361543,0.36918841350124787],[1.4900504481357955,0.2972052079752565,0.4401530868123607],[1.490050447981159,-0.2972052080331685,-0.44015308710852097],[-1.490050392694086,-0.381792483960226,-0.3691884135831915]]"
C        0.00000000       0.00000000       0.00000000
C        1.10000000       0.00000000       0.00000000
H       -0.56503637       0.92382805       0.00000000
H        1.66503637      -0.16057984       0.90976501
H        1.66503637       0.16057984      -0.90976501
H       -0.56503637      -0.92382805      -0.00000000
6
Properties=species:S:1:pos:R:3 REF_energy=-2113.547890384384 REF_forces="_JSON [[-28.529090559086068,-3.3071237482733677e-10,-1.3562568834693965e-09],[28.529090761540406,-1.2632093367172595e-10,1.2375554608843076e-09],[-1.5321906513485541,0.4074736797303547,1.0832916248938225],[1.532190549751004,0.7342650778869767,0.8946565923575985],[1.5321905500223068,-0.7342650776198852,-0.8946565925581548],[-1.5321906508800271,-0.4074736795403136,-1.083291624574728]]"
C        0.00000000       0.00000000       0.00000000
C        1.10000000       0.00000000       0.00000000
H       -0.56503637       0.92382805       0.00000000
H        1.66503637      -0.46205365       0.79997793
H        1.66503637       0.46205365      -0.79997793
H       -0.56503637      -0.92382805      -0.00000000
6
Properties=species:S:1:pos:R:3 REF_energy=-2112.635919557633 REF_forces="_JSON [[-28.66273446216386,-2.47091237060501e-09,-1.6864467672677347e-09],[28.662735061440795,1.760053482355515e-10,1.9028912881837876e-09],[-1.5942143491633567,0.4552664032195562,1.730928775011901],[1.5942140491116203,0.7635829633792529,1.6187411220539738],[1.5942140489696799,-0.7635829630800999,-1.6187411225606918],[-1.5942143481914797,-0.45526640122394246,-1.7309287747213662]]"
C        0.00000000       0.00000000       0.00000000
C        1.10000000       0.00000000       0.00000000
H       -0.56503637       0.92382805       0.00000000
H        1.66503637      -0.70779698       0.59370170
H        1.66503637       0.70779698      -0.59370170
H       -0.56503637      -0.92382805      -0.00000000
6
Properties=species:S:1:pos:R:3 REF_energy=-2111.337237927991 REF_forces="_JSON [[-28.755062320383676,-3.4198886837018303e-09,-2.200519302448921e-09],[28.755022390325625,1.2936544862385663e-09,1.879411719109511e-09],[-1.638979010788214,0.4769926159391089,2.2698781831332546],[1.6389989748418008,0.3276674497922048,2.2961761518611907],[1.6389989770252538,-0.32766744883816296,-2.2961761521886515],[-1.6389790110230382,-0.47699261476709764,-2.2698781824845966]]"
C        0.00000000       0.00000000       0.00000000
C        1.10000000       0.00000000       0.00000000
H       -0.56503637       0.92382805       0.00000000
H        1.66503637      -0.86816954       0.31581628
H        1.66503637       0.86816954      -0.31581628
H       -0.56503637      -0.92382805      -0.00000000
6
Properties=species:S:1:pos:R:3 REF_energy=-2110.037901592402 REF_forces="_JSON [[-19.938543640701727,-1.2814325149264102e-05,2.9541264508759697e-05],[19.938759290192266,9.375183287220214e-06,-2.630866198928385e-05],[-2.424185184855151,0.8626906171418893,-0.8887182255625434],[2.4240775726549164,-0.8622201196211046,-0.8888862537901141],[2.4240762576999164,0.8622246688030769,0.8888861971603698],[-2.424184294987908,-0.8626917271821379,0.8887150495897133]]"
C        0.00000000       0.00000000       0.00000000
C        1.10000000       0.00000000       0.00000000
H       -0.56503637       0.92382805       0.00000000
H        1.66503637      -0.92382804      -0.00016124
H        1.66503637       0.92382804       0.00016124
H       -0.56503637      -0.92382805      -0.00000000
6
Properties=species:S:1:pos:R:3 REF_energy=-2113.83602222701 REF_forces="_JSON [[-9.522427692331863,-1.8074092273364767e-10,-1.9907457683229935e-08],[9.522427840725612,1.3549743493835892e-09,1.454617136399462e-08],[-0.0549912639939732,-0.1741036772246325,-0.003883515132095214],[0.05499119020129118,-0.17410447305204668,0.0038530899873472605],[0.054991190120086485,0.17410447216776864,-0.0038530883370984825],[-0.05499126471930152,0.17410367693466142,0.00388351884313266]]"
C        0.00000000       0.00000000       0.00000000
C        1.31111111       0.00000000       0.00000000
H       -0.56503637       0.92382805       0.00000000
H        1.87614748       0.92382804       0.00016124
H        1.87614748      -0.92382804      -0.00016124
H       -0.56503637      -0.92382805      -0.00000000
6
Properties=species:S:1:pos:R:3 REF_energy=-2114.840157201884 REF_forces="_JSON [[-4.270177407797607,-3.321793991507634e-08,8.111920162036838e-09],[4.270095961366732,-2.2614544870978715e-08,-2.0585697310725145e-08],[-0.6789403177553712,0.1438538441687105,-1.8540624659325962],[0.6789810348715576,-0.4992160152155775,1.7913399181209477],[0.67898103359628,0.49921604233390343,-1.7913399057558121],[-0.6789403042810568,-0.14385381545398906,1.854062466041431]]"
C        0.00000000       0.00000000       0.00000000
C        1.31111111       0.00000000       0.00000000
H       -0.56503637       0.92382805       0.00000000
H        1.87614748       0.86805924       0.31611931
H        1.87614748      -0.86805924      -0.31611931
H       -0.56503637      -0.92382805      -0.00000000
6
Properties=species:S:1:pos:R:3 REF_energy=-2115.928551961467 REF_forces="_JSON [[-2.4429793238680326,-1.0042823138476986e-09,-2.1557716938555042e-10],[2.4429407152014995,4.763352135017281e-10,6.654055935463731e-10],[-0.8218590342284614,0.23207098010592184,-1.4765437555240888],[0.821878339218964,-0.7714966821199201,1.2801811193066244],[0.8218783377472643,0.7714966817705741,-1.2801811199729567],[-0.8218590340713054,-0.23207097922858577,1.4765437557407248]]"
C        0.00000000       0.00000000       0.00000000
C        1.31111111       0.00000000       0.00000000
H       -0.56503637       0.92382805       0.00000000
H        1.87614748       0.70758969       0.59394873
H        1.87614748      -0.70758969      -0.59394873
H       -0.56503637      -0.92382805      -0.00000000
6
Properties=species:S:1:pos:R:3 REF_energy=-2116.710855091534 REF_forces="_JSON [[-1.5456628833570527,-4.2525225490068225e-09,-6.721486315657923e-10],[1.5456619960970943,8.736210160853069e-10,2.6904953405791476e-10],[-0.8507621799228878,0.2587336456041903,-0.9325280763306052],[0.850762618562587,-0.6783465568733467,0.6902157496789328],[0.8507626215279075,0.6783465561272638,-0.6902157499150681],[-0.8507621729070565,-0.25873364147944067,0.9325280769696991]]"
C        0.00000000       0.00000000       0.00000000
C        1.31111111       0.00000000       0.00000000
H       -0.56503637       0.92382805       0.00000000
H        1.87614748       0.46177438       0.80013917
H        1.87614748      -0.46177438      -0.80013917
H       -0.56503637      -0.92382805      -0.00000000
6
Properties=species:S:1:pos:R:3 REF_energy=-2117.11640433697 REF_forces="_JSON [[-1.1504911538398555,-1.954109246152287e-10,-1.3051132467688258e-09],[1.1504911715319415,6.363919629526946e-10,3.5293740912770327e-10],[-0.8500103091340147,0.26610713756524323,-0.3177845746993465],[0.8500103003651689,-0.2668030618020832,0.31720050237978215],[0.8500103004627578,0.26680306156547945,-0.3172005020499389],[-0.8500103093849286,-0.266107137769648,0.3177845753216502]]"
C        0.00000000       0.00000000       0.00000000
C        1.31111111       0.00000000       0.00000000
H       -0.56503637       0.92382805       0.00000000
H        1.87614748       0.16026227       0.90982101
H        1.87614748      -0.16026227      -0.90982101
H       -0.56503637      -0.92382805      -0.00000000
6
Properties=species:S:1:pos:R:3 REF_energy=-2117.11619916312 REF_forces="_JSON [[-1.150495070178331,-2.284509879682283e-10,1.2127253739722394e-09],[1.1505377297700539,5.066322449130074e-10,-5.62184619375563e-10],[-0.8499940570056351,0.26614240196814004,0.3184069513379219],[0.8499727272528421,0.2673645451045803,0.31732621196669863],[0.84997272720684,-0.2673645452684629,-0.31732621202874395],[-0.8499940570463305,-0.2661424020828452,-0.31840695192657087]]"
C        0.00000000       0.00000000       0.00000000
C        1.31111111       0.00000000       0.00000000
H       -0.56503637       0.92382805       0.00000000
H        1.87614748      -0.16057984       0.90976501
H        1.87614748       0.16057984      -0.90976501
H       -0.56503637      -0.92382805      -0.00000000
6
Properties=species:S:1:pos:R:3 REF_energy=-2116.710253447789 REF_forces="_JSON [[-1.5462794540043374,-3.433553283390834e-09,8.672507725321265e-11],[1.5462784868931077,1.1620642135104184e-09,-7.441697039461247e-10],[-0.8507576473589953,0.2587214098026966,0.9331162663193228],[0.850758129167566,0.6786210046508123,0.6907361575111391],[0.850758125712903,-0.6786210059111312,-0.6907361565618363],[-0.8507576404133859,-0.258721406271317,-0.9331162666118371]]"
C        0.00000000       0.00000000       0.00000000
C        1.31111111       0.00000000       0.00000000
H       -0.56503637       0.92382805       0.00000000
H        1.87614748      -0.46205365       0.79997793
H        1.87614748       0.46205365      -0.79997793
H       -0.56503637      -0.92382805      -0.00000000
6
Properties=species:S:1:pos:R:3 REF_energy=-2115.927599562957 REF_forces="_JSON [[-2.443496571784623,-4.369980632743175e-10,-4.433372620120762e-11],[2.4435856470112656,-1.2477655009254453e-09,1.301285869167352e-09],[-0.8220293046453284,0.23224533222760485,1.4770405220554688],[0.8219847669523879,0.7714342157992369,1.2807859722061636],[0.8219847671751431,-0.7714342146289631,-1.2807859732447402],[-0.8220293047080582,-0.23224533171329317,-1.4770405222736218]]"
C        0.00000000       0.00000000       0.00000000
C        1.31111111       0.00000000       0.00000000
H       -0.56503637       0.92382805       0.00000000
H        1.87614748      -0.70779698       0.59370170
H        1.87614748       0.70779698      -0.59370170
H       -0.56503637      -0.92382805      -0.00000000
6
Properties=species:S:1:pos:R:3 REF_energy=-2114.838961261468 REF_forces="_JSON [[-4.272690423934758,-1.658736376712975e-08,-3.187418257346749e-09],[4.272584649882241,-1.3026297431226838e-08,1.021771781157549e-08],[-0.678715367752508,0.14366611243618402,1.8542533111950363],[0.6787682544831903,0.49876621090925155,1.791702488512432],[0.6787682464979141,-0.49876619747253537,-1.791702495480739],[-0.6787153591742582,-0.14366609625937765,-1.8542533112570359]]"
C        0.00000000       0.00000000       0.00000000
C        1.31111111       0.00000000       0.00000000
H       -0.56503637       0.92382805       0.00000000
H        1.87614748      -0.86816954       0.31581628
H        1.87614748       0.86816954      -0.31581628
H       -0.56503637      -0.92382805      -0.00000000
6
Properties=species:S:1:pos:R:3 REF_energy=-2113.83602222701 REF_forces="_JSON [[-9.522400654405818,3.257106217246834e-10,1.2778043069607193e-08],[9.522305465635819,-1.3554635220185152e-09,-1.296282479986714e-08],[-0.05493807611667225,-0.17426504032789472,-0.003897520155053757],[0.054985670306453155,0.17400267478649162,-0.0038666364685467237],[0.05498567059591055,-0.17400267381317625,0.0038666374672060243],[-0.05493807601360186,0.17426504038509869,0.0038975193411761584]]"
C        0.00000000       0.00000000       0.00000000
C        1.31111111       0.00000000       0.00000000
H       -0.56503637       0.92382805       0.00000000
H        1.87614748      -0.92382804      -0.00016124
H        1.87614748       0.92382804       0.00016124
H       -0.56503637      -0.92382805      -0.00000000
6
Properties=species:S:1:pos:R:3 REF_energy=-2114.399341455932 REF_forces="_JSON [[1.8171633251734198,-3.0293998116148613e-10,-5.142487808734214e-09],[-1.8174711479046326,3.9419627819024516e-10,1.2468027688401168e-09],[0.25581903881505375,-0.017831089548890587,-0.0011775527844717281],[-0.25566512627904725,-0.017393696120637268,0.0011742274863360234],[-0.25566512709372086,0.017393695665675953,-0.001174226843969371],[0.25581903728940425,0.017831089911937117,0.0011775560377900783]]"
C        0.00000000       0.00000000       0.00000000
C        1.52222222       0.00000000       0.00000000
H       -0.56503637       0.92382805       0.00000000
H        2.08725859       0.92382804       0.00016124
H        2.08725859      -0.92382804      -0.00016124
H       -0.56503637      -0.92382805      -0.00000000
6
Properties=species:S:1:pos:R:3 REF_energy=-2114.859677833876 REF_forces="_JSON [[3.9399118837506197,-2.77812935003844e-09,1.866837746247556e-09],[-3.9399118800512127,-8.058371010923234e-09,1.0394643972768577e-09],[-0.02863302044690654,0.09338007807667872,-1.1325157576346139],[0.02863301565032205,-0.2997858968260425,1.0961022881299307],[0.028633020016197056,0.2997859064083642,-1.0961022885089677],[-0.028633018919692953,-0.09338007682286886,1.1325157551073477]]"
C        0.00000000       0.00000000       0.00000000
C        1.52222222       0.00000000       0.00000000
H       -0.56503637       0.92382805       0.00000000
H        2.08725859       0.86805924       0.31611931
H        2.08725859      -0.86805924      -0.31611931
H       -0.56503637      -0.92382805      -0.00000000
6
Properties=species:S:1:pos:R:3 REF_energy=-2115.605072528395 REF_forces="_JSON [[5.905946049731842,-5.066172184149155e-09,-3.927874360945005e-10],[-5.90594606320072,-1.9215953250600035e-09,-3.3382040136630897e-09],[-0.24340847799522594,0.1830289211805639,-1.0867640361024753],[0.24340848835344597,-0.5585159806012444,0.9500608237405963],[0.2434084715810661,0.5585159814231542,-0.9500608218503158],[-0.24340846846897793,-0.18302891501434534,1.0867640379430512]]"
C        0.00000000       0.00000000       0.00000000
C        1.52222222       0.00000000       0.00000000
H       -0.56503637       0.92382805       0.00000000
H        2.08725859       0.70758969       0.59394873
H        2.08725859      -0.70758969      -0.59394873
H       -0.56503637      -0.92382805      -0.00000000
6
Properties=species:S:1:pos:R:3 REF_energy=-2116.196977046221 REF_forces="_JSON [[6.978551386033483,-1.4631529205267785e-07,-9.944615451286736e-08],[-6.978550958352499,-1.476396208690604e-07,-7.513158098480648e-08],[-0.3263493452680687,0.224193176589318,-0.7212737399785817],[0.3263491260082889,-0.5126417466299842,0.5547041672062304],[0.3263454404557132,0.5126412014791734,-0.5547028836017371],[-0.3263456488764381,-0.2241923374834189,0.721272630951857]]"
C        0.00000000       0.00000000       0.00000000
C        1.52222222       0.00000000       0.00000000
H       -0.56503637       0.92382805       0.00000000
H        2.08725859       0.46177438       0.80013917
H        2.08725859      -0.46177438      -0.80013917
H       -0.56503637      -0.92382805      -0.00000000
6
Properties=species:S:1:pos:R:3 REF_energy=-2116.51333934128 REF_forces="_JSON [[7.459551626368627,-8.576021772273959e-11,-3.5011951272767534e-10],[-7.4593928015474225,-3.3136102009466547e-10,2.2895262719120724e-10],[-0.3526915433350407,0.24093127745882653,-0.24977016297047663],[0.3526121307409907,-0.20432575652586263,0.28029299809931973],[0.352612131070891,0.20432575658576677,-0.28029299825261766],[-0.3526915432965163,-0.24093127710199133,0.24977016324509774]]"
C        0.00000000       0.00000000       0.00000000
C        1.52222222       0.00000000       0.00000000
H       -0.56503637       0.92382805       0.00000000
H        2.08725859       0.16026227       0.90982101
H        2.08725859      -0.16026227      -0.90982101
H       -0.56503637      -0.92382805      -0.00000000
6
Properties=species:S:1:pos:R:3 REF_energy=-2116.51317797776 REF_forces="_JSON [[7.4590641355990535,-4.716616620035543e-12,-9.180298135495732e-11],[-7.459183903067136,-5.834189654585179e-10,-3.6857975316334505e-10],[-0.35263094393038225,0.24065685627326416,0.250339138815363],[0.3526908279375877,0.20459945076156086,0.2807352964134904],[0.3526908274891688,-0.20459945017440778,-0.2807352960976689],[-0.3526309440255624,-0.24065685627273864,-0.25033913867154267]]"
C        0.00000000       0.00000000       0.00000000
C        1.52222222       0.00000000       0.00000000
H       -0.56503637       0.92382805       0.00000000
H        2.08725859      -0.16057984       0.90976501
H        2.08725859       0.16057984      -0.90976501
H       -0.56503637      -0.92382805      -0.00000000
6
Properties=species:S:1:pos:R:3 REF_energy=-2116.196511459407 REF_forces="_JSON [[6.978192369375033,-1.508215692126293e-07,9.719567981655267e-08],[-6.978152732600166,-1.5221690936101948e-07,7.372728020987434e-08],[-0.3263407997103247,0.22419479885541907,0.7217298942497564],[0.3263172802482565,0.5128283327917077,0.5550594280619189],[0.3263209782340217,-0.5128288787219336,-0.5550607087257641],[-0.3263370955454732,-0.22419394988633864,-0.7217287845085067]]"
C        0.00000000       0.00000000       0.00000000
C        1.52222222       0.00000000       0.00000000
H       -0.56503637       0.92382805       0.00000000
H        2.08725859      -0.46205365       0.79997793
H        2.08725859       0.46205365      -0.79997793
H       -0.56503637      -0.92382805      -0.00000000
6
Properties=species:S:1:pos:R:3 REF_energy=-2115.604371563091 REF_forces="_JSON [[5.904790817625837,2.5155553021276985e-09,-1.6132138383501554e-09],[-5.904755259692578,-1.476156256159249e-09,2.263898704166275e-09],[-0.24327708201364312,0.1830070655998915,1.0869505386727119],[0.2432593141023881,0.5583321007376563,0.9502816092237818],[0.24325929905812144,-0.558332098764684,-0.9502816117931625],[-0.24327708907892562,-0.18300706861250574,-1.0869505367539642]]"
C        0.00000000       0.00000000       0.00000000
C        1.52222222       0.00000000       0.00000000
H       -0.56503637       0.92382805       0.00000000
H        2.08725859      -0.70779698       0.59370170
H        2.08725859       0.70779698      -0.59370170
H       -0.56503637      -0.92382805      -0.00000000
6
Properties=species:S:1:pos:R:3 REF_energy=-2114.858947480275 REF_forces="_JSON [[3.9373686538293726,-1.0598537617460406e-09,-2.0525930524959786e-09],[-3.9373684873615478,-3.4055659160137996e-10,2.882651225499898e-09],[-0.028317394575764588,0.09325424634667741,1.1322037989421923],[0.02831731176554032,0.29941503207434955,1.0958706245053214],[0.028317307251722434,-0.2994150311427324,-1.0958706263240223],[-0.0283173909103492,-0.09325424587844813,-1.1322037979533408]]"
C        0.00000000       0.00000000       0.00000000
C        1.52222222       0.00000000       0.00000000
H       -0.56503637       0.92382805       0.00000000
H        2.08725859      -0.86816954       0.31581628
H        2.08725859       0.86816954      -0.31581628
H       -0.56503637      -0.92382805      -0.00000000
6
Properties=species:S:1:pos:R:3 REF_energy=-2114.399341455932 REF_forces="_JSON [[1.8173081171197454,6.087665211808523e-10,1.645639508141689e-09],[-1.8175042798424264,5.732142395796565e-10,-1.7212623279630025e-09],[0.25576452183988063,-0.01775788386749457,-0.001176706888267529],[-0.25566644149767564,0.017495801626925562,-0.001173485082050528],[-0.2556664417959704,-0.017495801867251477,0.0011734854738966807],[0.2557645241774404,0.01775788292601257,0.0011767065720442312]]"
C        0.00000000       0.00000000       0.00000000
C        1.52222222       0.00000000       0.00000000
H       -0.56503637       0.92382805       0.00000000
H        2.08725859      -0.92382804      -0.00016124
H        2.08725859       0.92382804       0.00016124
H       -0.56503637      -0.92382805      -0.00000000
6
Properties=species:S:1:pos:R:3 REF_energy=-2113.384622612465 REF_forces="_JSON [[5.559388966733265,5.990906522948071e-11,-3.082794247016e-09],[-5.559040202021163,3.45414054564291e-10,-2.5529885825110252e-09],[0.4722507345306974,0.1328905012683833,-0.00045703805562467825],[-0.4724251167857189,0.13251028406640125,0.0004801321856608686],[-0.472425116873375,-0.13251028429788952,-0.0004801293709507503],[0.472250734416038,-0.1328905014425766,0.0004570408766974475]]"
C        0.00000000       0.00000000       0.00000000
C        1.73333333       0.00000000       0.00000000
H       -0.56503637       0.92382805       0.00000000
H        2.29836970       0.92382804       0.00016124
H        2.29836970      -0.92382804      -0.00016124
H       -0.56503637      -0.92382805      -0.00000000
6
Properties=species:S:1:pos:R:3 REF_energy=-2113.623573684446 REF_forces="_JSON [[6.51376449506966,-7.250519996956102e-08,-5.214944224274498e-09],[-6.513763389383838,1.1506430994118995e-07,6.04826717175608e-08],[0.33853845289476603,0.1718066250434789,-0.6495755537438151],[-0.3385391442879677,-0.060839827603757994,0.669151893542715],[-0.33853898882762573,0.06083975026857532,-0.6691519478641021],[0.3385385745354362,-0.1718065902673335,0.6495755527974897]]"
C        0.00000000       0.00000000       0.00000000
C        1.73333333       0.00000000       0.00000000
H       -0.56503637       0.92382805       0.00000000
H        2.29836970       0.86805924       0.31611931
H        2.29836970      -0.86805924      -0.31611931
H       -0.56503637      -0.92382805      -0.00000000
6
Properties=species:S:1:pos:R:3 REF_energy=-2114.09487570673 REF_forces="_JSON [[7.911314933628241,-4.2834708309968516e-08,3.106043690385435e-08],[-7.911325770409585,-6.928749809160932e-09,3.3392591623353686e-08],[0.1663747385674778,0.22533249317580475,-0.7365577282963707],[-0.16636938425334236,-0.3009628952440025,0.7090728182686603],[-0.16636935728323332,0.3009629121345477,-0.7090728487506487],[0.1663748397505085,-0.22533246030303894,0.7365576943252614]]"
C        0.00000000       0.00000000       0.00000000
C        1.73333333       0.00000000       0.00000000
H       -0.56503637       0.92382805       0.00000000
H        2.29836970       0.70758969       0.59394873
H        2.29836970      -0.70758969      -0.59394873
H       -0.56503637      -0.92382805      -0.00000000
6
Properties=species:S:1:pos:R:3 REF_energy=-2114.510234656828 REF_forces="_JSON [[8.84535013711394,-4.031102512204704e-09,1.8087648237476863e-08],[-8.845380410362848,-3.2645247583102836e-08,-8.06354771945234e-09],[0.07241714593631592,0.25897601319624575,-0.520676280503787],[-0.0724020000477372,-0.3215416790782837,0.4846116271499425],[-0.07240364229154576,0.3215415298478269,-0.48461136136698074],[0.07241876965124601,-0.2589758272896095,0.52067600469682]]"
C        0.00000000       0.00000000       0.00000000
C        1.73333333       0.00000000       0.00000000
H       -0.56503637       0.92382805       0.00000000
H        2.29836970       0.46177438       0.80013917
H        2.29836970      -0.46177438      -0.80013917
H       -0.56503637      -0.92382805      -0.00000000
6
Properties=species:S:1:pos:R:3 REF_energy=-2114.741318100769 REF_forces="_JSON [[9.29122766465285,1.551744886426073e-11,-1.0233508208103416e-10],[-9.29118928964289,-5.6481281659762156e-11,6.176350663460428e-12],[0.035032760103841994,0.27470674092212555,-0.18446035690352458],[-0.0350519475891879,-0.13397238312203874,0.3024755022269867],[-0.035051947625097474,0.13397238316613522,-0.3024755022234468],[0.03503276009918346,-0.2747067409251857,0.18446035699620977]]"
C        0.00000000       0.00000000       0.00000000
C        1.73333333       0.00000000       0.00000000
H       -0.56503637       0.92382805       0.00000000
H        2.29836970       0.16026227       0.90982101
H        2.29836970      -0.16026227      -0.90982101
H       -0.56503637      -0.92382805      -0.00000000
6
Properties=species:S:1:pos:R:3 REF_energy=-2114.741199187012 REF_forces="_JSON [[9.290485846295818,-4.3838968793284877e-11,-1.0071024243446039e-10],[-9.290609047525086,5.278173511416659e-11,1.9821172804433085e-11],[0.035166747100772236,0.27450587389794706,0.1848206338662172],[-0.03510514647834356,0.1342215119747117,0.30265272760127654],[-0.03510514651090767,-0.13422151201525437,-0.30265272761212403],[0.035166747116083724,-0.2745058738668902,-0.18482063377480212]]"
C        0.00000000       0.00000000       0.00000000
C        1.73333333       0.00000000       0.00000000
H       -0.56503637       0.92382805       0.00000000
H        2.29836970      -0.16057984       0.90976501
H        2.29836970       0.16057984      -0.90976501
H       -0.56503637      -0.92382805      -0.00000000
6
Properties=species:S:1:pos:R:3 REF_energy=-2114.509898596211 REF_forces="_JSON [[8.844220925739569,-2.294210096545422e-08,-2.0656318318944802e-08],[-8.844245286852887,-1.6903366382600365e-08,-1.3466570225281964e-08],[0.07254978673418992,0.25888770718537424,0.5210001805376482],[-0.07253923141431126,0.32164937601697,0.48479292578374356],[-0.07253760524434152,-0.32164953487809245,-0.4847931699349298],[0.07255141103971584,-0.2588875084782778,-0.520999902263368]]"
C        0.00000000       0.00000000       0.00000000
C        1.73333333       0.00000000       0.00000000
H       -0.56503637       0.92382805       0.00000000
H        2.29836970      -0.46205365       0.79997793
H        2.29836970       0.46205365      -0.79997793
H       -0.56503637      -0.92382805      -0.00000000
6
Properties=species:S:1:pos:R:3 REF_energy=-2114.09440059593 REF_forces="_JSON [[7.910068853683892,-5.090952601020356e-09,-7.909463765813156e-11],[-7.910068270768687,-2.085296692028677e-09,6.511316766680029e-09],[0.1665137084593978,0.22528531518483566,0.7367055367944996],[-0.16651403232724044,0.30084284852727355,0.7092123743350986],[-0.1665140169988822,-0.3008428407302689,-0.7092123828228354],[0.16651375795147494,-0.2252853158054033,-0.7367055347389847]]"
C        0.00000000       0.00000000       0.00000000
C        1.73333333       0.00000000       0.00000000
H       -0.56503637       0.92382805       0.00000000
H        2.29836970      -0.70779698       0.59370170
H        2.29836970       0.70779698      -0.59370170
H       -0.56503637      -0.92382805      -0.00000000
6
Properties=species:S:1:pos:R:3 REF_energy=-2113.623154629102 REF_forces="_JSON [[6.512399019943998,7.452467397514937e-08,-1.4422149306207874e-08],[-6.512364657759227,-7.608697417404224e-08,3.7051088565534994e-08],[0.338721004261192,0.17174224106785982,0.6492076894820556],[-0.3387382233535722,0.060548500401406,0.6687294447239214],[-0.3387380750655564,-0.0605484535167532,-0.6687294751188934],[0.338720931973185,-0.17174228639043929,-0.6492076817158888]]"
C        0.00000000       0.00000000       0.00000000
C        1.73333333       0.00000000       0.00000000
H       -0.56503637       0.92382805       0.00000000
H        2.29836970      -0.86816954       0.31581628
H        2.29836970       0.86816954      -0.31581628
H       -0.56503637      -0.92382805      -0.00000000
6
Properties=species:S:1:pos:R:3 REF_energy=-2113.384622612465 REF_forces="_JSON [[5.559283509373498,9.345068955206665e-11,3.1355417245213696e-09],[-5.559283944896089,-1.3494664373037798e-10,2.6375929861909487e-09],[0.4722562380845497,0.13277917784101506,-0.00045719650195580834],[-0.47225602031392716,-0.13277962829084705,-0.0004803615684855948],[-0.4722560202688835,0.13277962845485516,0.00048035869199848094],[0.47225623802259586,-0.132779177963233,0.0004571936053081834]]"
C        0.00000000       0.00000000       0.00000000
C        1.73333333       0.00000000       0.00000000
H       -0.56503637       0.92382805       0.00000000
H        2.29836970      -0.92382804      -0.00016124
H        2.29836970       0.92382804       0.00016124
H       -0.56503637      -0.92382805      -0.00000000
6
Properties=species:S:1:pos:R:3 REF_energy=-2111.865807944846 REF_forces="_JSON [[6.315018347817025,5.554773895027324e-10,4.2774925206095415e-08],[-6.315106260251351,-3.459507015929001e-10,5.0372332716045585e-08],[0.6308438136850063,0.26936241696245505,-0.00023659732223462127],[-0.630799857521641,0.26939025946591244,0.00028350973100730166],[-0.6307998573787134,-0.2693902594387148,-0.0002835640507940895],[0.6308438136495302,-0.2693624171985564,0.00023655849476345852]]"
C        0.00000000       0.00000000       0.00000000
C        1.94444444       0.00000000       0.00000000
H       -0.56503637       0.92382805       0.00000000
H        2.50948081       0.92382804       0.00016124
H        2.50948081      -0.92382804      -0.00016124
H       -0.56503637      -0.92382805      -0.00000000
6
Properties=species:S:1:pos:R:3 REF_energy=-2112.000342942148 REF_forces="_JSON [[6.800221300687902,8.276103020518824e-08,4.596300554817114e-07],[-6.800355164813559,-2.3854459598675565e-07,4.1826366875421884e-07],[0.5626947430643892,0.282987547364947,-0.38088287008873567],[-0.5626278536307112,0.13574157970479414,0.4547833918330887],[-0.5626278120240472,-0.13574140509719762,-0.45478381598385265],[0.5626947867157591,-0.2829875661887866,0.3808824163457852]]"
C        0.00000000       0.00000000       0.00000000
C        1.94444444       0.00000000       0.00000000
H       -0.56503637       0.92382805       0.00000000
H        2.50948081       0.86805924       0.31611931
H        2.50948081      -0.86805924      -0.31611931
H       -0.56503637      -0.92382805      -0.00000000
6
Properties=species:S:1:pos:R:3 REF_energy=-2112.293572021605 REF_forces="_JSON [[7.690467580531357,6.731274765433986e-08,3.9854752419466855e-07],[-7.69046737869018,-3.178060811571954e-07,2.2693551074939563e-07],[0.4475461598542393,0.30838683391260835,-0.4808897313428576],[-0.4475463610420771,-0.07297065679960164,0.5665970847882031],[-0.4475462705324945,0.07297087130357097,-0.5665973562913952],[0.4475462698793402,-0.3083867979234379,0.4808893773632532]]"
C        0.00000000       0.00000000       0.00000000
C        1.94444444       0.00000000       0.00000000
H       -0.56503637       0.92382805       0.00000000
H        2.50948081       0.70758969       0.59394873
H        2.50948081      -0.70758969      -0.59394873
H       -0.56503637      -0.92382805      -0.00000000
6
Properties=species:S:1:pos:R:3 REF_energy=-2112.573236769356 REF_forces="_JSON [[8.391571430028788,1.154148361485374e-08,2.994139191286222e-07],[-8.391591343260213,-2.3723871852330493e-07,6.42685860721078e-08],[0.36778816086953753,0.3285183482929976,-0.3599074444898562],[-0.36777837980544803,-0.14751089237252168,0.46449678325590055],[-0.3677782690879942,0.14751104619024846,-0.4644969135247138],[0.36778840125650863,-0.32851827641296655,0.35990721107592666]]"
C        0.00000000       0.00000000       0.00000000
C        1.94444444       0.00000000       0.00000000
H       -0.56503637       0.92382805       0.00000000
H        2.50948081       0.46177438       0.80013917
H        2.50948081      -0.46177438      -0.80013917
H       -0.56503637      -0.92382805      -0.00000000
6
Properties=species:S:1:pos:R:3 REF_energy=-2112.734893355109 REF_forces="_JSON [[8.750454787794391,1.3713224292021037e-09,2.1150946683764413e-08],[-8.750465944429424,-5.534054684278073e-09,-2.064642137499786e-08],[0.3313363984770096,0.33916838484649725,-0.13042268130973808],[-0.3313308173644784,-0.06965709063302268,0.3567061285393795],[-0.33133082398114805,0.06965709480500862,-0.3567061123324753],[0.33133639950440036,-0.33916838485542616,0.13042266459794322]]"
C        0.00000000       0.00000000       0.00000000
C        1.94444444       0.00000000       0.00000000
H       -0.56503637       0.92382805       0.00000000
H        2.50948081       0.16026227       0.90982101
H        2.50948081      -0.16026227      -0.90982101
H       -0.56503637      -0.92382805      -0.00000000
6
Properties=species:S:1:pos:R:3 REF_energy=-2112.734809271926 REF_forces="_JSON [[8.749875474358706,2.7189451930990205e-08,1.307910065513101e-08],[-8.749795276845806,-2.4108774657195194e-08,-1.5368111695638184e-08],[0.3314033391057791,0.3391484997938068,0.13070474244281785],[-0.331443431161624,0.069804309567722,0.3565883316568934],[-0.3314434344901857,-0.06980429059119798,-0.3565883187437834],[0.3314033290328832,-0.3391485218511307,-0.13070475306694807]]"
C        0.00000000       0.00000000       0.00000000
C        1.94444444       0.00000000       0.00000000
H       -0.56503637       0.92382805       0.00000000
H        2.50948081      -0.16057984       0.90976501
H        2.50948081       0.16057984      -0.90976501
H       -0.56503637      -0.92382805      -0.00000000
6
Properties=species:S:1:pos:R:3 REF_energy=-2112.573004656233 REF_forces="_JSON [[8.391100909238071,2.5411358962616496e-08,-1.5430523436447323e-07],[-8.391101115264544,-8.248168650771291e-08,-6.99896950237877e-09],[0.3678638516537813,0.32853025751346,0.3600839628628269],[-0.3678638121297377,0.14749565016614224,0.4645833055570383],[-0.3678638708308704,-0.14749559114464286,-0.4645832619617842],[0.367864037332754,-0.3285302594647721,-0.36008384515412506]]"
C        0.00000000       0.00000000       0.00000000
C        1.94444444       0.00000000       0.00000000
H       -0.56503637       0.92382805       0.00000000
H        2.50948081      -0.46205365       0.79997793
H        2.50948081       0.46205365      -0.79997793
H       -0.56503637      -0.92382805      -0.00000000
6
Properties=species:S:1:pos:R:3 REF_energy=-2112.293261811804 REF_forces="_JSON [[7.6896212891557205,8.056605916948216e-08,-4.557363966151182e-07],[-7.689620878737484,-3.687658259979544e-07,-2.672706374214514e-07],[0.44764862866675537,0.30836280022293033,0.48092177059347385],[-0.44764884466273647,0.07281221667502355,0.5666317868267168],[-0.44764894894378787,-0.0728119678823319,-0.5666314704415115],[0.4476487545218188,-0.3083627608161496,-0.4809213639713438]]"
C        0.00000000       0.00000000       0.00000000
C        1.94444444       0.00000000       0.00000000
H       -0.56503637       0.92382805       0.00000000
H        2.50948081      -0.70779698       0.59370170
H        2.50948081       0.70779698      -0.59370170
H       -0.56503637      -0.92382805      -0.00000000
6
Properties=species:S:1:pos:R:3 REF_energy=-2112.000097495446 REF_forces="_JSON [[6.799715298350432,-8.315598932054057e-08,4.42284211643834e-07],[-6.799756873484694,3.043077634482664e-07,6.353997069988645e-07],[0.562712843799862,0.28315898547083124,0.38064829695615576],[-0.5626920388817535,-0.1359969769566558,0.4544830865914553],[-0.5626920071588838,0.13599674554411273,-0.4544836563905094],[0.5627127773754275,-0.28315897521064587,-0.38064880484101915]]"
C        0.00000000       0.00000000       0.00000000
C        1.94444444       0.00000000       0.00000000
H       -0.56503637       0.92382805       0.00000000
H        2.50948081      -0.86816954       0.31581628
H        2.50948081       0.86816954      -0.31581628
H       -0.56503637      -0.92382805      -0.00000000
6
Properties=species:S:1:pos:R:3 REF_energy=-2111.865807944846 REF_forces="_JSON [[6.315019377093204,1.6571185287344635e-10,-6.364515980503194e-08],[-6.315132425718004,9.000643647170355e-10,-8.755623349974115e-08],[0.6308501287605818,0.26935152036707954,-0.00023653192200279792],[-0.6307936046999906,-0.2693852155417523,-0.00028346701807863297],[-0.6307936048461423,0.2693852147848077,0.00028355367885044274],[0.6308501294102533,-0.26935152067575335,0.00023659646262427214]]"
C        0.00000000       0.00000000       0.00000000
C        1.94444444       0.00000000       0.00000000
H       -0.56503637       0.92382805       0.00000000
H        2.50948081      -0.92382804      -0.00016124
H        2.50948081       0.92382804       0.00016124
H       -0.56503637      -0.92382805      -0.00000000
6
Properties=species:S:1:pos:R:3 REF_energy=-2110.267897669357 REF_forces="_JSON [[5.94585433901438,-1.3039248946182154e-08,-2.732194675662878e-09],[-5.945854251215211,1.2327277708321524e-08,-1.7956235443592447e-10],[0.7487553192963938,0.3879464164775761,-0.00013448274919056498],[-0.7487553714346469,0.3879462119348351,0.00020217480586659772],[-0.7487553631294174,-0.38794622170578213,-0.00020217366715060835],[0.7487553274688565,-0.3879464059941233,0.00013448452223161747]]"
C        0.00000000       0.00000000       0.00000000
C        2.15555556       0.00000000       0.00000000
H       -0.56503637       0.92382805       0.00000000
H        2.72059193       0.92382804       0.00016124
H        2.72059193      -0.92382804      -0.00016124
H       -0.56503637      -0.92382805      -0.00000000
6
Properties=species:S:1:pos:R:3 REF_energy=-2110.347052870163 REF_forces="_JSON [[6.2133518881835474,-3.19133174264324e-06,-2.2381792770369837e-06],[-6.213416031777856,4.255262590224834e-06,-3.4900513919429067e-06],[0.7118732056426029,0.392165954591849,-0.22860925573728302],[-0.7118399794007849,0.2902836547178286,0.34898102400873426],[-0.7118409951630905,-0.29028540257104646,-0.3489780387621137],[0.7118719125163266,-0.3921652706693028,0.22861199872147148]]"
C        0.00000000       0.00000000       0.00000000
C        2.15555556       0.00000000       0.00000000
H       -0.56503637       0.92382805       0.00000000
H        2.72059193       0.86805924       0.31611931
H        2.72059193      -0.86805924      -0.31611931
H       -0.56503637      -0.92382805      -0.00000000
6
Properties=species:S:1:pos:R:3 REF_energy=-2110.529528887363 REF_forces="_JSON [[6.767856122570064,-1.4473776583167583e-05,-2.9305514743841855e-05],[-6.767781011490266,1.7024739795481638e-05,1.0629897856913725e-05],[0.6393273519772725,0.40162902159568337,-0.3088901861987706],[-0.6393581035890669,0.10898069215407334,0.49485021184698186],[-0.6393667880479335,-0.10898659923301668,-0.494849010050718],[0.639322428580607,-0.40162566547987016,0.3089076600191203]]"
C        0.00000000       0.00000000       0.00000000
C        2.15555556       0.00000000       0.00000000
H       -0.56503637       0.92382805       0.00000000
H        2.72059193       0.70758969       0.59394873
H        2.72059193      -0.70758969      -0.59394873
H       -0.56503637      -0.92382805      -0.00000000
6
Properties=species:S:1:pos:R:3 REF_energy=-2110.713560579501 REF_forces="_JSON [[7.258126713843169,-8.034624527846164e-05,-4.747305398278778e-05],[-7.2582081971873285,0.00013578647040968383,-5.143674351945027e-06],[0.5803237092607895,0.41076659606075305,-0.24203743248196818],[-0.580253429622324,-0.004304695802957556,0.4767220144908051],[-0.5802759598595875,0.0042329255624603025,-0.47669650368358524],[0.5802871635646901,-0.4107502660450824,0.24206453840296283]]"
C        0.00000000       0.00000000       0.00000000
C        2.15555556       0.00000000       0.00000000
H       -0.56503637       0.92382805       0.00000000
H        2.72059193       0.46177438       0.80013917
H        2.72059193      -0.46177438      -0.80013917
H       -0.56503637      -0.92382805      -0.00000000
6
Properties=species:S:1:pos:R:3 REF_energy=-2110.823433353421 REF_forces="_JSON [[7.524881187168406,0.0003166948010435119,5.5601718159348835e-06],[-7.525053504890001,-0.0002336272238890049,-3.3233321095427365e-05],[0.5504101359982917,0.41599831729310177,-0.08958553701457574],[-0.5503707947196042,-0.01593733980399688,0.4254455486152845],[-0.5503556343693938,0.015921230888364134,-0.42542862519567015],[0.5504886108133646,-0.4160652759550719,0.08959628674438197]]"
C        0.00000000       0.00000000       0.00000000
C        2.15555556       0.00000000       0.00000000
H       -0.56503637       0.92382805       0.00000000
H        2.72059193       0.16026227       0.90982101
H        2.72059193      -0.16026227      -0.90982101
H       -0.56503637      -0.92382805      -0.00000000
6
Properties=species:S:1:pos:R:3 REF_energy=-2110.823378658535 REF_forces="_JSON [[7.524723155670656,0.0005046917605932541,-0.0002626336808896017],[-7.5248344941268295,-0.0005385246378122864,0.00020675151935820022],[0.5503784661147488,0.415991146531176,0.08981498210553276],[-0.5503534413661326,0.01604928759406002,0.4253893607361597],[-0.5504460362315489,-0.01591532903145949,-0.42542338363905263],[0.5505323499386857,-0.4160912722165836,-0.08972507704106907]]"
C        0.00000000       0.00000000       0.00000000
C        2.15555556       0.00000000       0.00000000
H       -0.56503637       0.92382805       0.00000000
H        2.72059193      -0.16057984       0.90976501
H        2.72059193       0.16057984      -0.90976501
H       -0.56503637      -0.92382805      -0.00000000
6
Properties=species:S:1:pos:R:3 REF_energy=-2110.713404386145 REF_forces="_JSON [[7.257741969000165,7.245474708464941e-06,-8.092826281293957e-06],[-7.25774181717713,-4.891363787060434e-06,4.281736323082416e-06],[0.5803631244086854,0.41074237764524224,0.24211283076857007],[-0.5803626172627551,0.0042187086381374845,0.47676937172426476],[-0.5803653068070864,-0.004219037933739747,-0.47677088771835896],[0.5803646478401152,-0.4107444024610291,-0.2421075036843171]]"
C        0.00000000       0.00000000       0.00000000
C        2.15555556       0.00000000       0.00000000
H       -0.56503637       0.92382805       0.00000000
H        2.72059193      -0.46205365       0.79997793
H        2.72059193       0.46205365      -0.79997793
H       -0.56503637      -0.92382805      -0.00000000
6
Properties=species:S:1:pos:R:3 REF_energy=-2110.529329700017 REF_forces="_JSON [[6.767246074221547,1.943398237909854e-05,-2.9923649522003417e-05],[-6.767266318901773,-2.8236164084638152e-05,-9.30152871909677e-08],[0.6394184211591989,0.40157149392147723,0.3089360625197322],[-0.6394075427103278,-0.10916687955600528,0.4948188239183539],[-0.6394172521655971,0.10917966940991387,-0.49480983171491044],[0.6394266183974352,-0.4015754815942055,-0.30891503805830145]]"
C        0.00000000       0.00000000       0.00000000
C        2.15555556       0.00000000       0.00000000
H       -0.56503637       0.92382805       0.00000000
H        2.72059193      -0.70779698       0.59370170
H        2.72059193       0.70779698      -0.59370170
H       -0.56503637      -0.92382805      -0.00000000
6
Properties=species:S:1:pos:R:3 REF_energy=-2110.346905656565 REF_forces="_JSON [[6.212851018999418,-2.1455652434888385e-06,-9.237180841155601e-07],[-6.212851976254107,2.5918269705963515e-06,1.6248134821749435e-06],[0.7119347799290869,0.3921940474260244,0.2283843863404969],[-0.7119341790109291,-0.2904912004430314,0.34869794579073843],[-0.7119337663296809,0.29049020911051426,-0.34869912825407395],[0.7119341226656002,-0.392193502354945,-0.2283839049725439]]"
C        0.00000000       0.00000000       0.00000000
C        2.15555556       0.00000000       0.00000000
H       -0.56503637       0.92382805       0.00000000
H        2.72059193      -0.86816954       0.31581628
H        2.72059193       0.86816954      -0.31581628
H       -0.56503637      -0.92382805      -0.00000000
6
Properties=species:S:1:pos:R:3 REF_energy=-2110.267897669357 REF_forces="_JSON [[5.945716533466367,1.2867920258304324e-08,1.2558928677975837e-08],[-5.945915513308941,-1.217037196135086e-08,9.766438689591312e-09],[0.7488478579048037,0.38778278701763025,-0.0001344317400429725],[-0.7487483680533888,-0.38799666786725795,-0.000202131280064982],[-0.7487483598310878,0.3879966775020569,0.00020212044867580966],[0.7488478498223501,-0.38778279735061694,0.0001344202460647208]]"
C        0.00000000       0.00000000       0.00000000
C        2.15555556       0.00000000       0.00000000
H       -0.56503637       0.92382805       0.00000000
H        2.72059193      -0.92382804      -0.00016124
H        2.72059193       0.92382804       0.00016124
H       -0.56503637      -0.92382805      -0.00000000
6
Properties=species:S:1:pos:R:3 REF_energy=-2108.754490176256 REF_forces="_JSON [[5.1843107880828185,-1.4851028232890164e-09,-2.1290782121048814e-07],[-5.184582280890289,-5.000884078010187e-10,-2.1370029851862947e-07],[0.8330775256608052,0.4884783718112006,-7.891489082010553e-05],[-0.8329417790991529,0.4886754109044323,0.0001644277645228893],[-0.8329417793359619,-0.48867541034517914,-0.00016421478838674747],[0.8330775255816667,-0.4884783703852991,7.912852280363303e-05]]"
C        0.00000000       0.00000000       0.00000000
C        2.36666667       0.00000000       0.00000000
H       -0.56503637       0.92382805       0.00000000
H        2.93170304       0.92382804       0.00016124
H        2.93170304      -0.92382804      -0.00016124
H       -0.56503637      -0.92382805      -0.00000000
6
Properties=species:S:1:pos:R:3 REF_energy=-2108.802093774967 REF_forces="_JSON [[5.339521059622526,-3.1649980119335404e-07,1.6582120103616352e-06],[-5.339521915641563,-1.7661586723327644e-07,1.4226470033821265e-06],[0.8121490640395532,0.4893039365957834,-0.13906508608907941],[-0.8121486885778799,0.41218098111929197,0.2981007918896279],[-0.8121486271575169,-0.4121805464117433,-0.29810220486303435],[0.812149107715143,-0.48930387818731624,0.1390634182035604]]"
C        0.00000000       0.00000000       0.00000000
C        2.36666667       0.00000000       0.00000000
H       -0.56503637       0.92382805       0.00000000
H        2.93170304       0.86805924       0.31611931
H        2.93170304      -0.86805924      -0.31611931
H       -0.56503637      -0.92382805      -0.00000000
6
Properties=species:S:1:pos:R:3 REF_energy=-2108.915647433074 REF_forces="_JSON [[5.68498017893003,1.0155007978741127e-05,1.3314579398515015e-07],[-5.684880476484425,-1.2645235674088685e-05,-4.081865852157993e-07],[0.7672969770170579,0.49120369116043144,-0.196405637368511],[-0.7673492690083243,0.24991914657093073,0.4662807181832273],[-0.7673472378268218,-0.24991377215895863,-0.4662825215280943],[0.7672998273732442,-0.4912065753449213,0.19640771575395263]]"
C        0.00000000       0.00000000       0.00000000
C        2.36666667       0.00000000       0.00000000
H       -0.56503637       0.92382805       0.00000000
H        2.93170304       0.70758969       0.59394873
H        2.93170304      -0.70758969      -0.59394873
H       -0.56503637      -0.92382805      -0.00000000
6
Properties=species:S:1:pos:R:3 REF_energy=-2109.034769357104 REF_forces="_JSON [[6.01599332637552,-9.23202452870388e-06,-1.9941280622484923e-05],[-6.01606499067602,1.1017790904515075e-05,1.4587754748741677e-05],[0.7266109926582482,0.493582690031867,-0.15941326706478007],[-0.7265712047477874,0.10869827813539414,0.5073005235746623],[-0.726577033898759,-0.10870285440425755,-0.5073039185053703],[0.7266089102893484,-0.4935798995290379,0.15942201552057453]]"
C        0.00000000       0.00000000       0.00000000
C        2.36666667       0.00000000       0.00000000
H       -0.56503637       0.92382805       0.00000000
H        2.93170304       0.46177438       0.80013917
H        2.93170304      -0.46177438      -0.80013917
H       -0.56503637      -0.92382805      -0.00000000
6
Properties=species:S:1:pos:R:3 REF_energy=-2109.107783764426 REF_forces="_JSON [[6.20535277339758,3.130042287686045e-06,-1.0748929967795012e-06],[-6.205353896326147,3.649249897988223e-06,-1.9766735276224556e-06],[0.7043884513659383,0.4953790726219281,-0.0600251044825573],[-0.7043874898202013,0.02681783094378222,0.49828229915372535],[-0.7043876438885304,-0.026823629620760982,-0.4982809721687642],[0.7043878052717,-0.4953800532367865,0.06002682906446831]]"
C        0.00000000       0.00000000       0.00000000
C        2.36666667       0.00000000       0.00000000
H       -0.56503637       0.92382805       0.00000000
H        2.93170304       0.16026227       0.90982101
H        2.93170304      -0.16026227      -0.90982101
H       -0.56503637      -0.92382805      -0.00000000
6
Properties=species:S:1:pos:R:3 REF_energy=-2109.107744852144 REF_forces="_JSON [[6.205436662063384,3.3392682141971653e-05,3.631791452739849e-05],[-6.205377575122834,-4.661177328080878e-05,-3.736833764875688e-05],[0.7043234724962134,0.4954358713945301,0.060173090878500486],[-0.7043639396023514,-0.026859746079646894,0.4982295360337861],[-0.7043552381793501,0.02688239236047532,-0.4982173590419422],[0.7043366183445994,-0.4954452985844181,-0.060184217447420335]]"
C        0.00000000       0.00000000       0.00000000
C        2.36666667       0.00000000       0.00000000
H       -0.56503637       0.92382805       0.00000000
H        2.93170304      -0.16057984       0.90976501
H        2.93170304       0.16057984      -0.90976501
H       -0.56503637      -0.92382805      -0.00000000
6
Properties=species:S:1:pos:R:3 REF_energy=-2109.034666498065 REF_forces="_JSON [[6.0156400435382595,7.586654573816225e-06,1.9563504770784157e-05],[-6.01574377194739,-7.242473497289639e-06,-2.2089875188763164e-05],[0.7266598125768522,0.4936459812720282,0.15952459958309156],[-0.7266118454223868,-0.1088245820059881,0.5072139911347467],[-0.7266075158198195,0.10882647776853267,-0.507207479774246],[0.7266632770740209,-0.4936482212150585,-0.15952858457321956]]"
C        0.00000000       0.00000000       0.00000000
C        2.36666667       0.00000000       0.00000000
H       -0.56503637       0.92382805       0.00000000
H        2.93170304      -0.46205365       0.79997793
H        2.93170304       0.46205365      -0.79997793
H       -0.56503637      -0.92382805      -0.00000000
6
Properties=species:S:1:pos:R:3 REF_energy=-2108.915520900129 REF_forces="_JSON [[5.684572653797322,8.811124486201448e-06,4.354577728381024e-05],[-5.684558327890606,-1.299315891989699e-05,-3.689689503386366e-05],[0.7673659080165237,0.4912203203012005,0.1964344114848313],[-0.7673782598191564,-0.2500676061463929,0.46614590544137896],[-0.7673721822232132,0.2500741036395813,-0.4661323576735118],[0.7673702081185803,-0.49122263575988734,-0.19645460813502455]]"
C        0.00000000       0.00000000       0.00000000
C        2.36666667       0.00000000       0.00000000
H       -0.56503637       0.92382805       0.00000000
H        2.93170304      -0.70779698       0.59370170
H        2.93170304       0.70779698      -0.59370170
H       -0.56503637      -0.92382805      -0.00000000
6
Properties=species:S:1:pos:R:3 REF_energy=-2108.802004249507 REF_forces="_JSON [[5.339235685904573,-3.450290766103135e-07,-1.7948875865675134e-06],[-5.339236275785307,-1.9778030800000476e-07,-1.563503088110629e-06],[0.8121868685695036,0.4893027461094525,0.1389585766209653],[-0.8121865625441737,-0.4123197835058473,0.29785777339981734],[-0.8121866335030679,0.4123202618977106,-0.29785622397122624],[0.8121869173593316,-0.48930268169215224,-0.13895676765915488]]"
C        0.00000000       0.00000000       0.00000000
C        2.36666667       0.00000000       0.00000000
H       -0.56503637       0.92382805       0.00000000
H        2.93170304      -0.86816954       0.31581628
H        2.93170304       0.86816954      -0.31581628
H       -0.56503637      -0.92382805      -0.00000000
6
Properties=species:S:1:pos:R:3 REF_energy=-2108.754490176256 REF_forces="_JSON [[5.184529120350222,1.4500003984200419e-09,-1.3978081487720136e-07],[-5.184679906286401,6.042134498488644e-10,3.6699438704013165e-08],[0.8329767110265377,0.4885801766385847,-7.903465234458937e-05],[-0.8329013179735195,-0.48860679744595253,-0.00016433663225716406],[-0.8329013181975399,0.48860679681111213,0.0001643623975236408],[0.8329767110808395,-0.48858017805811504,7.911196845438263e-05]]"
C        0.00000000       0.00000000       0.00000000
C        2.36666667       0.00000000       0.00000000
H       -0.56503637       0.92382805       0.00000000
H        2.93170304      -0.92382804      -0.00016124
H        2.93170304       0.92382804       0.00016124
H       -0.56503637      -0.92382805      -0.00000000
6
Properties=species:S:1:pos:R:3 REF_energy=-2107.385714193126 REF_forces="_JSON [[4.329917446102646,7.376901902718365e-09,-3.4031835412349627e-09],[-4.3297499198415075,-1.0723211374162041e-08,1.272829663742782e-08],[0.8884880951684816,0.5736980903977666,-4.736007531673302e-05],[-0.8885718562213294,0.5736726003567202,0.00014750619641110645],[-0.8885718600848235,-0.573672589949588,-0.0001474988402883399],[0.8884880948762605,-0.5736980974586953,4.734339408080706e-05]]"
C        0.00000000       0.00000000       0.00000000
C        2.57777778       0.00000000       0.00000000
H       -0.56503637       0.92382805       0.00000000
H        3.14281415       0.92382804       0.00016124
H        3.14281415      -0.92382804      -0.00016124
H       -0.56503637      -0.92382805      -0.00000000
6
Properties=species:S:1:pos:R:3 REF_energy=-2107.414592820773 REF_forces="_JSON [[4.422338195286748,1.2994808049071138e-05,-6.348416998799952e-05],[-4.422336183389812,-9.32134666445949e-06,6.86425408208957e-05],[0.8764233687966874,0.5732035501914765,-0.08499686822669784],[-0.8764242709730665,0.5095464882800765,0.2760295623750823],[-0.8764282052142582,-0.5095454414114714,-0.2760476769031487],[0.8764270954938757,-0.5732082705216895,0.08500982438375615]]"
C        0.00000000       0.00000000       0.00000000
C        2.57777778       0.00000000       0.00000000
H       -0.56503637       0.92382805       0.00000000
H        3.14281415       0.86805924       0.31611931
H        3.14281415      -0.86805924      -0.31611931
H       -0.56503637      -0.92382805      -0.00000000
6
Properties=species:S:1:pos:R:3 REF_energy=-2107.484994935036 REF_forces="_JSON [[4.6376512915349375,-4.740119023644801e-06,2.1342610405415487e-05],[-4.637635814566158,-1.1006678509086719e-05,2.0062405860903484e-05],[0.8489659797357011,0.572087532922865,-0.12345916733220183],[-0.8489743544459666,0.35881681014319455,0.46234773912676563],[-0.8489737835945125,-0.35880110362120066,-0.4623663510509049],[0.8489666813361426,-0.5720874926468291,0.12343637424019446]]"
C        0.00000000       0.00000000       0.00000000
C        2.57777778       0.00000000       0.00000000
H       -0.56503637       0.92382805       0.00000000
H        3.14281415       0.70758969       0.59394873
H        3.14281415      -0.70758969      -0.59394873
H       -0.56503637      -0.92382805      -0.00000000
6
Properties=species:S:1:pos:R:3 REF_energy=-2107.560942185544 REF_forces="_JSON [[4.856585344889456,0.00014000368874668014,-0.00029174129737998255],[-4.856644997118476,7.57278040764155e-05,-0.00011160750407594889],[0.8219231555389503,0.5713774150499868,-0.10288610131108378],[-0.8218957881207862,0.19632012071628283,0.5463632370300928],[-0.8219092621073536,-0.19650766466322872,-0.5462617224131069],[0.8219415469186055,-0.5714056025952434,0.10318793549566325]]"
C        0.00000000       0.00000000       0.00000000
C        2.57777778       0.00000000       0.00000000
H       -0.56503637       0.92382805       0.00000000
H        3.14281415       0.46177438       0.80013917
H        3.14281415      -0.46177438      -0.80013917
H       -0.56503637      -0.92382805      -0.00000000
6
Properties=species:S:1:pos:R:3 REF_energy=-2107.608419523424 REF_forces="_JSON [[4.986977135321242,-7.618907828316515e-06,7.753709689289315e-06],[-4.986929230427967,-8.654262268461803e-06,-5.175378627875958e-06],[0.8063091733755005,0.5711970266651064,-0.03939065468284119],[-0.8063345178565491,0.06031508332815816,0.569238373457839],[-0.8063327733615346,-0.06030087958647593,-0.5692384322071085],[0.8063102129489537,-0.571194957237485,0.03938813510106034]]"
C        0.00000000       0.00000000       0.00000000
C        2.57777778       0.00000000       0.00000000
H       -0.56503637       0.92382805       0.00000000
H        3.14281415       0.16026227       0.90982101
H        3.14281415      -0.16026227      -0.90982101
H       -0.56503637      -0.92382805      -0.00000000
6
Properties=species:S:1:pos:R:3 REF_energy=-2107.608393944721 REF_forces="_JSON [[4.986939729699813,0.00012934681128812527,0.0001843505217465218],[-4.986853683207422,-1.7764012080211002e-05,-8.114225821208301e-05],[0.8062905237901632,0.5712285597808889,0.039411485396013385],[-0.8063614087070435,-0.06047605618462138,0.5692090739783359],[-0.806329015477022,0.06040035791005469,-0.5691864237067984],[0.8063138539023493,-0.5712644443055582,-0.03953734393066988]]"
C        0.00000000       0.00000000       0.00000000
C        2.57777778       0.00000000       0.00000000
H       -0.56503637       0.92382805       0.00000000
H        3.14281415      -0.16057984       0.90976501
H        3.14281415       0.16057984      -0.90976501
H       -0.56503637      -0.92382805      -0.00000000
6
Properties=species:S:1:pos:R:3 REF_energy=-2107.560875789762 REF_forces="_JSON [[4.856608931645646,7.708808322179033e-05,0.00044826167719459715],[-4.856567210306523,0.0002544484376507838,4.470946958886637e-05],[0.8218822140730984,0.5714468493949939,0.1028594221500612],[-0.8219262327508721,-0.1967409226241121,0.5461906505448173],[-0.8218689787419287,0.1964055813337302,-0.5463100254412627],[0.8218712760810012,-0.571443044625697,-0.10323301840036574]]"
C        0.00000000       0.00000000       0.00000000
C        2.57777778       0.00000000       0.00000000
H       -0.56503637       0.92382805       0.00000000
H        3.14281415      -0.46205365       0.79997793
H        3.14281415       0.46205365      -0.79997793
H       -0.56503637      -0.92382805      -0.00000000
6
Properties=species:S:1:pos:R:3 REF_energy=-2107.484915205675 REF_forces="_JSON [[4.637544417184796,-6.892356486829827e-05,0.0002402888270587838],[-4.6376353848673775,2.5719404632076433e-05,-0.0004121687929214226],[0.8489545992127612,0.5719899009358731,0.12346532635249588],[-0.8489437351126575,-0.359019300590756,0.4624653059767329],[-0.8488708510055983,0.3590504416572695,-0.4622873992582163],[0.8489509545890024,-0.5719778378419732,-0.12347135310495409]]"
C        0.00000000       0.00000000       0.00000000
C        2.57777778       0.00000000       0.00000000
H       -0.56503637       0.92382805       0.00000000
H        3.14281415      -0.70779698       0.59370170
H        3.14281415       0.70779698      -0.59370170
H       -0.56503637      -0.92382805      -0.00000000
6
Properties=species:S:1:pos:R:3 REF_energy=-2107.414538125887 REF_forces="_JSON [[4.422076120951309,1.6906840739500827e-06,1.024530124047172e-05],[-4.422074547308015,3.627314113083383e-06,1.2766304110421557e-05],[0.8764742769375188,0.5732441847523213,0.08489378651733216],[-0.8764749275482242,-0.509686782834538,0.2757434124559493],[-0.8764748415539443,0.5096816353693956,-0.2757574393716649],[0.8764739185217928,-0.5732443552851324,-0.08490277120706029]]"
C        0.00000000       0.00000000       0.00000000
C        2.57777778       0.00000000       0.00000000
H       -0.56503637       0.92382805       0.00000000
H        3.14281415      -0.86816954       0.31581628
H        3.14281415       0.86816954      -0.31581628
H       -0.56503637      -0.92382805      -0.00000000
6
Properties=species:S:1:pos:R:3 REF_energy=-2107.385714193126 REF_forces="_JSON [[4.329831064192,-7.402228819937461e-09,-8.013029414603318e-08],[-4.329525683942768,1.0691569968718962e-08,7.374586396913296e-08],[0.8885121765014089,0.5737920770834366,-4.7308692158030816e-05],[-0.8886648648555759,-0.5736213534865046,-0.0001474914866303271],[-0.8886648687060859,0.5736213431086419,0.00014743109478276197],[0.8885121768115558,-0.5737920699942363,4.7375468435667154e-05]]"
C        0.00000000       0.00000000       0.00000000
C        2.57777778       0.00000000       0.00000000
H       -0.56503637       0.92382805       0.00000000
H        3.14281415      -0.92382804      -0.00016124
H        3.14281415       0.92382804       0.00016124
H       -0.56503637      -0.92382805      -0.00000000
6
Properties=species:S:1:pos:R:3 REF_energy=-2106.176499791139 REF_forces="_JSON [[3.510903966190409,-7.2614004368992614e-09,-3.3227406047437624e-08],[-3.511009279980243,-1.8104417486275605e-08,3.805254038470041e-08],[0.9214432504832046,0.6460683018534537,-2.8595938438963823e-05],[-0.9213905931452323,0.6460868697403107,0.0001413325252163155],[-0.9213906016348202,-0.6460868515955714,-0.00014127442874809079],[0.9214432580863172,-0.6460682946324636,2.8533016836410636e-05]]"
C        0.00000000       0.00000000       0.00000000
C        2.78888889       0.00000000       0.00000000
H       -0.56503637       0.92382805       0.00000000
H        3.35392526       0.92382804       0.00016124
H        3.35392526      -0.92382804      -0.00016124
H       -0.56503637      -0.92382805      -0.00000000
6
Properties=species:S:1:pos:R:3 REF_energy=-2106.194008141134 REF_forces="_JSON [[3.56700065106447,-7.253417108229721e-07,-3.4137304870438384e-06],[-3.5669983552526845,-2.064561569670201e-06,3.769650451324416e-06],[0.9142186903297116,0.645480088121769,-0.05173980027184374],[-0.914219841007529,0.5888094871628154,0.2694889584057588],[-0.9142200818300841,-0.5888068806636673,-0.2694955894234191],[0.9142189366973343,-0.645479904717706,0.051746075369494104]]"
C        0.00000000       0.00000000       0.00000000
C        2.78888889       0.00000000       0.00000000
H       -0.56503637       0.92382805       0.00000000
H        3.35392526       0.86805924       0.31611931
H        3.35392526      -0.86805924      -0.31611931
H       -0.56503637      -0.92382805      -0.00000000
6
Properties=species:S:1:pos:R:3 REF_energy=-2106.23733111671 REF_forces="_JSON [[3.701329005910405,5.837681525064085e-05,4.707525920704545e-05],[-3.701446145668152,7.40040587922738e-05,-9.785328441399905e-06],[0.8973926625325083,0.6434662422959978,-0.07685062864066403],[-0.8973347037646722,0.44352038867217125,0.4725408541841953],[-0.897340230136409,-0.44364128726495594,-0.4724105320362693],[0.8973994111263506,-0.6434777245771666,0.07668301656192651]]"
C        0.00000000       0.00000000       0.00000000
C        2.78888889       0.00000000       0.00000000
H       -0.56503637       0.92382805       0.00000000
H        3.35392526       0.70758969       0.59394873
H        3.35392526      -0.70758969      -0.59394873
H       -0.56503637      -0.92382805      -0.00000000
6
Properties=species:S:1:pos:R:3 REF_energy=-2106.284973083476 REF_forces="_JSON [[3.8433717696399428,-3.9712103102680766e-05,-2.505150704373262e-05],[-3.8434556765881425,-3.618080942584096e-05,-3.377179695276159e-06],[0.8799506734249938,0.6416999657586258,-0.06518530190950146],[-0.8799069123771806,0.26438020079110514,0.5883076349198222],[-0.879906030186867,-0.2643133415025049,-0.5883426614760027],[0.8799461760879478,-0.6416909321343128,0.06524875715209702]]"
C        0.00000000       0.00000000       0.00000000
C        2.78888889       0.00000000       0.00000000
H       -0.56503637       0.92382805       0.00000000
H        3.35392526       0.46177438       0.80013917
H        3.35392526      -0.46177438      -0.80013917
H       -0.56503637      -0.92382805      -0.00000000
6
Properties=species:S:1:pos:R:3 REF_energy=-2106.315208198715 REF_forces="_JSON [[3.9305693036847584,2.8845404084144776e-05,-9.316304594411234e-05],[-3.9304786337716986,0.00011649745906451004,-4.827057553455615e-05],[0.8694316882305527,0.6406917698895794,-0.02510830830472626],[-0.86947664257488,0.08623578577535326,0.6352571353507517],[-0.869476032566319,-0.08638583645327252,-0.6352329195110256],[0.8694303169979001,-0.6406870620749217,0.025225526085821615]]"
C        0.00000000       0.00000000       0.00000000
C        2.78888889       0.00000000       0.00000000
H       -0.56503637       0.92382805       0.00000000
H        3.35392526       0.16026227       0.90982101
H        3.35392526      -0.16026227      -0.90982101
H       -0.56503637      -0.92382805      -0.00000000
6
Properties=species:S:1:pos:R:3 REF_energy=-2106.315191871883 REF_forces="_JSON [[3.930592133913389,8.070764299314633e-05,0.00010832598392792613],[-3.9305209378035175,0.0001352788656862127,0.00010756306416014748],[0.8694148888736261,0.6407405084883907,0.025128730249746344],[-0.8694487168164204,-0.08659801814621024,0.6352654908653033],[-0.8694592067268786,0.08638958665870984,-0.635314640513324],[0.8694218385594318,-0.6407480635091086,-0.025295469649546876]]"
C        0.00000000       0.00000000       0.00000000
C        2.78888889       0.00000000       0.00000000
H       -0.56503637       0.92382805       0.00000000
H        3.35392526      -0.16057984       0.90976501
H        3.35392526       0.16057984      -0.90976501
H       -0.56503637      -0.92382805      -0.00000000
6
Properties=species:S:1:pos:R:3 REF_energy=-2106.284930905827 REF_forces="_JSON [[3.8432845343415107,-5.8785004511542514e-05,-5.779053668053682e-05],[-3.843417835358412,8.169834107372024e-05,2.6281277727689545e-05],[0.8799635814803661,0.6416304647621813,0.06522865426261001],[-0.8798888304115283,-0.26456311810603206,0.5883772672252608],[-0.8798889564440375,0.26451526565433287,-0.5884029802239262],[0.8799475063917975,-0.6416055256469493,-0.06517143200466927]]"
C        0.00000000       0.00000000       0.00000000
C        2.78888889       0.00000000       0.00000000
H       -0.56503637       0.92382805       0.00000000
H        3.35392526      -0.46205365       0.79997793
H        3.35392526       0.46205365      -0.79997793
H       -0.56503637      -0.92382805      -0.00000000
6
Properties=species:S:1:pos:R:3 REF_energy=-2106.237281591988 REF_forces="_JSON [[3.700925462254871,5.862220791682009e-05,-0.00010364713294576061],[-3.7011943814217907,0.0001163869310248541,4.1629056645425605e-05],[0.897511134972715,0.6434109385181135,0.07689299272227539],[-0.8973813916135908,-0.44385633418971476,0.47225289041234214],[-0.8973764054144707,0.4436892109789272,-0.47243796289195555],[0.8975155812222151,-0.6434188244463227,-0.07664590216609514]]"
C        0.00000000       0.00000000       0.00000000
C        2.78888889       0.00000000       0.00000000
H       -0.56503637       0.92382805       0.00000000
H        3.35392526      -0.70779698       0.59370170
H        3.35392526       0.70779698      -0.59370170
H       -0.56503637      -0.92382805      -0.00000000
6
Properties=species:S:1:pos:R:3 REF_energy=-2106.19397467113 REF_forces="_JSON [[3.5669806129411805,-3.4512426204016e-06,-1.9529380913256844e-05],[-3.5669570753087174,3.727663200579809e-06,1.8970139863152936e-05],[0.9142060088226943,0.6454547675805056,0.051729786981293914],[-0.9142167100207079,-0.5888925926868793,0.26927972374057757],[-0.9142177428049003,0.5888908339407378,-0.2692883807051828],[0.9142049063708826,-0.6454532852548992,-0.05172057077566744]]"
C        0.00000000       0.00000000       0.00000000
C        2.78888889       0.00000000       0.00000000
H       -0.56503637       0.92382805       0.00000000
H        3.35392526      -0.86816954       0.31581628
H        3.35392526       0.86816954      -0.31581628
H       -0.56503637      -0.92382805      -0.00000000
6
Properties=species:S:1:pos:R:3 REF_energy=-2106.176499791139 REF_forces="_JSON [[3.510623347046649,6.918106416612776e-09,-7.710845797307968e-08],[-3.511100288083691,1.7588205464994778e-08,7.503200191701753e-08],[0.9215556071027973,0.64613026380434,-2.8481220165220247e-05],[-0.9213171287798645,-0.6463220901079701,-0.00014143294634376367],[-0.92131713696924,0.6463220724806449,0.00014129444030444149],[0.9215555996828502,-0.646130270683111,2.862180266060859e-05]]"
C        0.00000000       0.00000000       0.00000000
C        2.78888889       0.00000000       0.00000000
H       -0.56503637       0.92382805       0.00000000
H        3.35392526      -0.92382804      -0.00016124
H        3.35392526       0.92382804       0.00016124
H       -0.56503637      -0.92382805      -0.00000000
6
Properties=species:S:1:pos:R:3 REF_energy=-2105.121579390187 REF_forces="_JSON [[2.77784663749402,1.8517114578333206e-09,5.816654385353488e-13],[-2.7776408010781632,-3.7982520809878405e-09,2.528966919302644e-13],[0.9367167118485571,0.7080371690059546,-1.7126555413449592e-05],[-0.9368196260997296,0.7078510247645253,0.00014058060286699112],[-0.9368196321668084,-0.7078510212398716,-0.00014058060351887584],[0.9367167100028493,-0.7080371705837585,1.712655523069685e-05]]"
C        0.00000000       0.00000000       0.00000000
C        3.00000000       0.00000000       0.00000000
H       -0.56503637       0.92382805       0.00000000
H        3.56503637       0.92382804       0.00016124
H        3.56503637      -0.92382804      -0.00016124
H       -0.56503637      -0.92382805      -0.00000000
6
Properties=species:S:1:pos:R:3 REF_energy=-2105.132129788776 REF_forces="_JSON [[2.8120390249369205,2.845182144940913e-07,-2.695166149663984e-07],[-2.8120988771804987,1.3489716432820285e-07,4.490139041830478e-07],[0.9324357824669737,0.7073947724671451,-0.03131586041076994],[-0.9324058561811713,0.6539801181544739,0.27145110508397613],[-0.9324058612015592,-0.6539804037859251,-0.2714506942279747],[0.9324357871592168,-0.7073949062513097,0.03131527005733876]]"
C        0.00000000       0.00000000       0.00000000
C        3.00000000       0.00000000       0.00000000
H       -0.56503637       0.92382805       0.00000000
H        3.56503637       0.86805924       0.31611931
H        3.56503637      -0.86805924      -0.31611931
H       -0.56503637      -0.92382805      -0.00000000
6
Properties=species:S:1:pos:R:3 REF_energy=-2105.158481295002 REF_forces="_JSON [[2.8956313071292636,4.6953165736087436e-06,-6.491571289192919e-06],[-2.8956134671293055,-3.368700933337867e-07,1.3228400997819486e-05],[0.9221105511228705,0.7056776456035356,-0.0469502500718365],[-0.9221192978155046,0.5102929910335814,0.48960293081666423],[-0.9221207780247689,-0.5102956116558749,-0.48960433648560414],[0.9221116847170686,-0.7056793834277144,0.046944918911270374]]"
C        0.00000000       0.00000000       0.00000000
C        3.00000000       0.00000000       0.00000000
H       -0.56503637       0.92382805       0.00000000
H        3.56503637       0.70758969       0.59394873
H        3.56503637      -0.70758969      -0.59394873
H       -0.56503637      -0.92382805      -0.00000000
6
Properties=species:S:1:pos:R:3 REF_energy=-2105.187838843042 REF_forces="_JSON [[2.9863873907198513,1.607558528714819e-05,-1.2002811861300145e-05],[-2.986420342209235,-9.534772086421831e-07,1.211703065598601e-05],[0.9110795235236738,0.7039158354978274,-0.04037824135079423],[-0.9110633996335067,0.31688725780481375,0.6299434693085366],[-0.9110656574206998,-0.31689684481679714,-0.6299420977545988],[0.9110824850205592,-0.7039213705942384,0.04037675557806134]]"
C        0.00000000       0.00000000       0.00000000
C        3.00000000       0.00000000       0.00000000
H       -0.56503637       0.92382805       0.00000000
H        3.56503637       0.46177438       0.80013917
H        3.56503637      -0.46177438      -0.80013917
H       -0.56503637      -0.92382805      -0.00000000
6
Properties=species:S:1:pos:R:3 REF_energy=-2105.20666830583 REF_forces="_JSON [[3.043341001407189,-2.793934280305631e-07,-6.137414641147965e-08],[-3.0433595535511238,-3.1368725288917716e-07,-4.7108121100976926e-07],[0.9042429021973084,0.7029193295915535,-0.015682544440519534],[-0.9042336533305791,0.10641837496223691,0.695048249825857],[-0.9042335964387314,-0.1064178810685564,-0.6950481306073529],[0.9042428997161885,-0.7029192304044796,0.01568295767745579]]"
C        0.00000000       0.00000000       0.00000000
C        3.00000000       0.00000000       0.00000000
H       -0.56503637       0.92382805       0.00000000
H        3.56503637       0.16026227       0.90982101
H        3.56503637      -0.16026227      -0.90982101
H       -0.56503637      -0.92382805      -0.00000000
6
Properties=species:S:1:pos:R:3 REF_energy=-2105.206657965503 REF_forces="_JSON [[3.043175403607459,-3.524708921200228e-08,1.4014301124838345e-06],[-3.0433543864240877,-8.65049170816657e-07,1.989288225394953e-07],[0.9043077717104897,0.7027895943336416,0.015797135544035168],[-0.9042183501938664,-0.1067064539272058,0.6950096382019018],[-0.9042182653676697,0.10670736071095806,-0.6950095537813531],[0.9043078266680193,-0.70278960082106,-0.01579882032350144]]"
C        0.00000000       0.00000000       0.00000000
C        3.00000000       0.00000000       0.00000000
H       -0.56503637       0.92382805       0.00000000
H        3.56503637      -0.16057984       0.90976501
H        3.56503637       0.16057984      -0.90976501
H       -0.56503637      -0.92382805      -0.00000000
6
Properties=species:S:1:pos:R:3 REF_energy=-2105.187812720112 REF_forces="_JSON [[2.986320859313565,1.7259508145387522e-05,1.5950045613990142e-05],[-2.986316516422116,-6.778259213397123e-07,-5.093063118710816e-06],[0.9110816938074369,0.7039361896862508,0.0403685014244997],[-0.9110860402640701,-0.31707513771827256,0.629829323455826],[-0.9110851626167058,0.31706439493712973,-0.6298327273639311],[0.9110851661816847,-0.7039420285875149,-0.04037595449886647]]"
C        0.00000000       0.00000000       0.00000000
C        3.00000000       0.00000000       0.00000000
H       -0.56503637       0.92382805       0.00000000
H        3.56503637      -0.46205365       0.79997793
H        3.56503637       0.46205365      -0.79997793
H       -0.56503637      -0.92382805      -0.00000000
6
Properties=species:S:1:pos:R:3 REF_energy=-2105.158451090364 REF_forces="_JSON [[2.895458427700216,6.111823186340609e-06,-1.528728115704959e-06],[-2.8955204129186782,3.6391588032590057e-06,-6.254317021168816e-06],[0.9221556025673944,0.7056404012584673,0.04695712578891043],[-0.9221258967290736,-0.5105006644823672,0.4894066917750359],[-0.9221246237286076,0.5104929570042046,-0.48941251782261025],[0.9221569031086043,-0.7056424447623684,-0.04694351669591215]]"
C        0.00000000       0.00000000       0.00000000
C        3.00000000       0.00000000       0.00000000
H       -0.56503637       0.92382805       0.00000000
H        3.56503637      -0.70779698       0.59370170
H        3.56503637       0.70779698      -0.59370170
H       -0.56503637      -0.92382805      -0.00000000
6
Properties=species:S:1:pos:R:3 REF_energy=-2105.132109652351 REF_forces="_JSON [[2.812010699576143,2.8823979121845247e-07,5.065837961561808e-07],[-2.811952065016982,1.5893486990833782e-07,-1.6434742032320683e-07],[0.9324206880551102,0.7073945428228938,0.03125331281382998],[-0.9324500315842216,-0.6540710394514718,0.27122653016341836],[-0.9324500089636132,0.6540707161940106,-0.27122714319739205],[0.9324207179333471,-0.7073946667394568,-0.031253042016187824]]"
C        0.00000000       0.00000000       0.00000000
C        3.00000000       0.00000000       0.00000000
H       -0.56503637       0.92382805       0.00000000
H        3.56503637      -0.86816954       0.31581628
H        3.56503637       0.86816954      -0.31581628
H       -0.56503637      -0.92382805      -0.00000000
6
Properties=species:S:1:pos:R:3 REF_energy=-2105.121579390187 REF_forces="_JSON [[2.777844427409145,-1.8427686585716752e-09,-7.21843684404855e-13],[-2.7777653804892717,3.792382409968619e-09,3.207011590367193e-13],[0.936730563455712,0.707907866601011,-1.7120371787868042e-05],[-0.936770084804405,-0.7078965797411705,-0.00014059869781546058],[-0.9367700908684449,0.7078965762230578,0.00014059869669570598],[0.9367305652970128,-0.7079078650327922,1.712037330880279e-05]]"
C        0.00000000       0.00000000       0.00000000
C        3.00000000       0.00000000       0.00000000
H       -0.56503637       0.92382805       0.00000000
H        3.56503637      -0.92382804      -0.00016124
H        3.56503637       0.92382804       0.00016124
H       -0.56503637      -0.92382805      -0.00000000
