           6
  t=         0.00000    2    2
C       0.003451251     -0.051378413     -0.019221288
C       1.342141651      0.058524412      0.020724220
H      -0.613847343      0.895713367     -0.019231797
H       1.722678201      0.910580130      0.010284268
H       1.929943822     -0.870760778     -0.171374188
H      -0.372665732     -1.020618864      0.162426648
           6
  t=         0.50000    2    2
C       0.003286760     -0.049940359     -0.019139752
C       1.342188325      0.056938165      0.020612026
H      -0.613305215      0.895043348     -0.020586162
H       1.723975268      0.913449170      0.011877735
H       1.930239990     -0.870639148     -0.171079339
H      -0.373397232     -1.021173706      0.162258005
           6
  t=         1.00000    2    2
C       0.002794201     -0.048371284     -0.018897285
C       1.342332330      0.054926642      0.020281371
H      -0.612799605      0.893088968     -0.024642788
H       1.728895150      0.921921069      0.016632604
H       1.931135555     -0.870287942     -0.172403005
H      -0.375565022     -1.022770352      0.163934256
           6
  t=         1.50000    2    2
C       0.001981969     -0.046686991     -0.018498538
C       1.342580940      0.052518191      0.019745571
H      -0.612382624      0.889940049     -0.031408938
H       1.737249588      0.935612954      0.024508688
H       1.932634231     -0.869689639     -0.175413598
H      -0.379119184     -1.025282795      0.167467991
           6
  t=         2.00000    2    2
C       0.000865770     -0.044908059     -0.017949156
C       1.342945496      0.049759868      0.019022025
H      -0.612130341      0.885716430     -0.040914943
H       1.748722352      0.953873226      0.035469780
H       1.934738895     -0.868802789     -0.180220177
H      -0.383992568     -1.028536193      0.172894752
           6
  t=         2.50000    2    2
C      -0.000532068     -0.043059386     -0.017254178
C       1.343442706      0.046721063      0.018128771
H      -0.612141741      0.880559831     -0.053229378
H       1.762865568      0.975759045      0.049505860
H       1.937456181     -0.867572133     -0.186969171
H      -0.390110078     -1.032314847      0.180284705
           6
  t=         3.00000    2    2
C      -0.002179850     -0.041169571     -0.016416882
C       1.344090313      0.043491969      0.017082049
H      -0.612533448      0.874622392     -0.068477226
H       1.779119465      1.000073201      0.066651899
H       1.940798334     -0.865937830     -0.195847657
H      -0.397396657     -1.036367453      0.189760452
           6
  t=         3.50000    2    2
C      -0.004031256     -0.039270807     -0.015438353
C       1.344896449      0.040173980      0.015894974
H      -0.613430155      0.868060115     -0.086831705
H       1.796870338      1.025496616      0.086977754
H       1.944781340     -0.863845210     -0.207065055
H      -0.405778739     -1.040410185      0.201491444
           6
  t=         4.00000    2    2
C      -0.006028474     -0.037399280     -0.014318211
C       1.345854774      0.036865619      0.014576571
H      -0.614965091      0.861022183     -0.108511908
H       1.815550179      1.050772629      0.110593775
H       1.949432717     -0.861244330     -0.220848280
H      -0.415195903     -1.044128306      0.215701256
           6
  t=         4.50000    2    2
C      -0.008101428     -0.035594384     -0.013055352
C       1.346937475      0.033651536      0.013130140
H      -0.617275800      0.853640068     -0.133747807
H       1.834711677      1.074844788      0.137632223
H       1.954792994     -0.858086276     -0.237402853
H      -0.425607436     -1.047184987      0.232640670
           6
  t=         5.00000    2    2
C      -0.010168206     -0.033897247     -0.011648591
C       1.348092505      0.030597173      0.011552240
H      -0.620498095      0.846015087     -0.162743146
H       1.854065225      1.096920155      0.168226580
H       1.960913385     -0.854317428     -0.256875415
H      -0.436994989     -1.049231966      0.252553454
           6
  t=         5.50000    2    2
C      -0.012136629     -0.032348145     -0.010098397
C       1.349244235      0.027747742      0.009834305
H      -0.624755584      0.838206860     -0.195616641
H       1.873479818      1.116474063      0.202463383
H       1.967848868     -0.849876123     -0.279308148
H      -0.449356125     -1.049924654      0.275621632
           6
  t=         6.00000    2    2
C      -0.013911508     -0.030984313     -0.008408354
C       1.350303406      0.025134065      0.007965975
H      -0.630152426      0.830213515     -0.232378463
H       1.892942917      1.133157464      0.240354222
H       1.975652754     -0.844676246     -0.304632424
H      -0.462698128     -1.048921837      0.301941312
           6
  t=         6.50000    2    2
C      -0.015406508     -0.029838284     -0.006584358
C       1.351184114      0.022782514      0.005937463
H      -0.636758283      0.821954512     -0.272890576
H       1.912487547      1.146658861      0.281777488
H       1.984361245     -0.838592700     -0.332631716
H      -0.477025688     -1.045883171      0.331466389
           6
  t=         7.00000    2    2
C      -0.016560148     -0.028933768     -0.004635507
C       1.351824754      0.020720778      0.003744102
H      -0.644587456      0.813268009     -0.316803032
H       1.932115828      1.156615153      0.326391263
H       1.993972269     -0.831461314     -0.362894195
H      -0.492323064     -1.040495283      0.363941049
           6
  t=         7.50000    2    2
C      -0.017322184     -0.028284706     -0.002574406
C       1.352178371      0.018981344      0.001389955
H      -0.653601548      0.803932172     -0.363647925
H       1.951746039      1.162552786      0.373696448
H       2.004446409     -0.823087601     -0.394919777
H      -0.508546740     -1.032478279      0.398998199
           6
  t=         8.00000    2    2
C      -0.017661442     -0.027893366     -0.000416554
C       1.352223265      0.017602288     -0.001109801
H      -0.663708978      0.793645456     -0.412895359
H       1.971186962      1.163857114      0.423067057
H       2.015705181     -0.813236962     -0.428183974
H      -0.525631469     -1.021577239      0.436213230
           6
  t=         8.50000    2    2
C      -0.017583528     -0.027750512      0.001819794
C       1.351981837      0.016623355     -0.003727305
H      -0.674757124      0.781985316     -0.464006749
H       1.990132360      1.159785278      0.473799701
H       2.027612275     -0.801606463     -0.462208410
H      -0.543487431     -1.007513301      0.475158159
           6
  t=         9.00000    2    2
C      -0.017122262     -0.027840315      0.004115628
C       1.351514003      0.016084683     -0.006427040
H      -0.686511598      0.768364047     -0.516533155
H       2.008153913      1.149473374      0.525241943
H       2.039919167     -0.787799672     -0.496652710
H      -0.561983138     -0.989898222      0.515499374
           6
  t=         9.50000    2    2
C      -0.016340877     -0.028146751      0.006449345
C       1.350923179      0.016020960     -0.009173898
H      -0.698607507      0.751909405     -0.570162509
H       2.024688352      1.131954257      0.576950374
H       2.052142857     -0.771246884     -0.531387825
H      -0.580916013     -0.968066561      0.557078268
           6
  t=        10.00000    2    2
C      -0.015267109     -0.028657254      0.008782553
C       1.350281053      0.016442799     -0.011934268
H      -0.710624092      0.731735657     -0.624418106
H       2.039219244      1.106581396      0.628554800
H       2.063664966     -0.751395441     -0.566284742
H      -0.600095734     -0.941314899      0.599716284
           6
  t=        10.50000    3    3
C      -0.013885612     -0.029365591      0.011059083
C       1.349599010      0.017325482     -0.014670217
H      -0.722204036      0.707311403     -0.678455526
H       2.051468428      1.073349855      0.679536491
H       2.073932387     -0.727920984     -0.601000753
H      -0.619366861     -0.909211013      0.642962325
           6
  t=        11.00000    3    3
C      -0.012661044     -0.030163899      0.012998754
C       1.349003881      0.018383668     -0.017057965
H      -0.730949730      0.681222316     -0.724504522
H       2.060948434      1.037209596      0.722973241
H       2.081851014     -0.702789317     -0.630319699
H      -0.635519996     -0.875209966      0.680232655
           6
  t=        11.50000    3    3
C      -0.011751584     -0.031074112      0.014857989
C       1.348457470      0.019608594     -0.019350221
H      -0.737060244      0.651134550     -0.766910545
H       2.069495219      0.995034727      0.762490024
H       2.089078677     -0.673123254     -0.656502885
H      -0.649509904     -0.836363411      0.714464822
           6
  t=        12.00000    3    3
C      -0.011168225     -0.032056854      0.016640033
C       1.347991674      0.021023528     -0.021486655
H      -0.740660906      0.617762981     -0.805549559
H       2.076707872      0.947059315      0.797271441
H       2.095960144     -0.639645548     -0.679477014
H      -0.661404212     -0.793643994      0.745519336
           6
  t=        12.50000    3    3
C      -0.010924697     -0.033097337      0.018333294
C       1.347634789      0.022627845     -0.023441238
H      -0.741774788      0.581291737     -0.840186614
H       2.082463072      0.893541532      0.826965329
H       2.102505766     -0.602636447     -0.699156949
H      -0.671240426     -0.747382531      0.773256273
           6
  t=        13.00000    3    3
C      -0.011034157     -0.034203361      0.019906246
C       1.347408437      0.024385403     -0.025212045
H      -0.740338124      0.541780028     -0.870181740
H       2.086881389      0.835100608      0.851418178
H       2.108295518     -0.562220139     -0.715178507
H      -0.678883726     -0.697609669      0.797177696
           6
  t=        13.50000    3    3
C      -0.011514049     -0.035394113      0.021304732
C       1.347349623      0.026240262     -0.026792435
H      -0.736283538      0.499686617     -0.894371666
H       2.090110508      0.772994160      0.870349690
H       2.112563194     -0.518921623     -0.726866023
H      -0.684016058     -0.644621608      0.816291122
           6
  t=        14.00000    3    3
C      -0.012393972     -0.036672242      0.022453294
C       1.347541383      0.028163008     -0.028129071
H      -0.729675541      0.456179590     -0.911380880
H       2.092002643      0.709033452      0.883145203
H       2.114693040     -0.474198536     -0.733679410
H      -0.686446106     -0.589558011      0.829559239
           6
  t=        14.50000    3    3
C      -0.013695292     -0.037999546      0.023265946
C       1.348085310      0.030171695     -0.029118776
H      -0.720779815      0.412804675     -0.920350908
H       2.092117339      0.645107907      0.889217136
H       2.114787540     -0.430230334     -0.735896271
H      -0.686526185     -0.534344896      0.836783916
           6
  t=        15.00000    3    3
C      -0.015398803     -0.039309577      0.023671206
C       1.349042437      0.032298140     -0.029660024
H      -0.709987199      0.370841307     -0.921485351
H       2.090004439      0.582682454      0.888632751
H       2.113593067     -0.389002777     -0.734768134
H      -0.685117756     -0.480911765      0.838994985
           6
  t=        15.50000    3    3
C      -0.017478891     -0.040539656      0.023608404
C       1.350460732      0.034555947     -0.029670711
H      -0.697681009      0.331532344     -0.915312348
H       2.085315339      0.523240248      0.881741287
H       2.111815699     -0.352313261     -0.731649832
H      -0.683071778     -0.431096174      0.837470817
           6
  t=        16.00000    3    3
C      -0.019905628     -0.041647988      0.023058200
C       1.352370306      0.036937885     -0.029111995
H      -0.684348115      0.295967901     -0.902766815
H       2.077922862      0.468055268      0.869134449
H       2.110094348     -0.321485957     -0.727722100
H      -0.681128487     -0.386349944      0.833502966
           6
  t=        16.50000    3    3
C      -0.022654150     -0.042616509      0.022049843
C       1.354800209      0.039415720     -0.027988365
H      -0.670653785      0.265216416     -0.885123392
H       2.067926433      0.418303683      0.851501445
H       2.108938702     -0.297479841     -0.723808303
H      -0.679874196     -0.347837475      0.828205196
           6
  t=        17.00000    3    3
C      -0.025695728     -0.043444346      0.020657649
C       1.357761878      0.041939874     -0.026356823
H      -0.657496442      0.240389576     -0.863988736
H       2.055806115      0.375202425      0.829746600
H       2.108782111     -0.281029375     -0.720362240
H      -0.679802451     -0.316572614      0.822527318
           6
  t=        17.50000    3    3
C      -0.028988464     -0.044139215      0.018987111
C       1.361223473      0.044447716     -0.024333422
H      -0.645887569      0.222434889     -0.841133844
H       2.042486546      0.339882666      0.805180226
H       2.110003721     -0.272613644     -0.717587541
H      -0.681325441     -0.293316694      0.817259499
           6
  t=        18.00000    3    3
C      -0.032475411     -0.044707372      0.017144079
C       1.365110797      0.046878653     -0.022058870
H      -0.636699688      0.211870513     -0.818077165
H       2.029059024      0.313100871      0.779260872
H       2.112868947     -0.272357863     -0.715537255
H      -0.684721790     -0.278422599      0.812930032
           6
  t=        18.50000    3    3
C      -0.036091402     -0.045148876      0.015211577
C       1.369333948      0.049183895     -0.019655568
H      -0.630573684      0.208914716     -0.795854488
H       2.016467369      0.295300680      0.753183958
H       2.117525038     -0.280218795     -0.714155709
H      -0.690146953     -0.272013367      0.809792833
           6
  t=        19.00000    3    3
C      -0.039750371     -0.045458709      0.013250414
C       1.373782645      0.051320300     -0.017220099
H      -0.627931500      0.213593104     -0.775093881
H       2.005433567      0.286721894      0.727863949
H       2.123986567     -0.296042170     -0.713342476
H      -0.697627002     -0.274054431      0.807887317
           6
  t=        19.50000    3    3
C      -0.043337308     -0.045630495      0.011307536
C       1.378318402      0.053242832     -0.014834226
H      -0.629009346      0.225821577     -0.756150291
H       1.996504216      0.287498727      0.704047880
H       2.132116137     -0.319575741     -0.712959113
H      -0.707055210     -0.284387497      0.807097848
           6
  t=        20.00000    3    3
C      -0.046711483     -0.045659615      0.009423528
C       1.382778461      0.054899442     -0.012576136
H      -0.633888371      0.245457436     -0.739216390
H       1.990102029      0.297711291      0.682377397
H       2.141605547     -0.350452973     -0.712785528
H      -0.718202447     -0.302751334      0.807203414
           6
  t=        20.50000    3    3
C      -0.049697149     -0.045545677      0.007639028
C       1.386965866      0.056228137     -0.010528777
H      -0.642457034      0.272170846     -0.724416720
H       1.986529658      0.317234195      0.663449045
H       2.151909922     -0.388002518     -0.712501205
H      -0.730685317     -0.328628043      0.807915623
           6
  t=        21.00000    2    2
C      -0.052115934     -0.045290596      0.005995996
C       1.390686299      0.057155386     -0.008771915
H      -0.654461682      0.305458576     -0.711815983
H       1.985956663      0.345750125      0.647696804
H       2.162295265     -0.431238884     -0.711660742
H      -0.744003034     -0.361283596      0.808870306
           6
  t=        21.50000    2    2
C      -0.053789363     -0.044917452      0.004453957
C       1.393789634      0.057671027     -0.007345975
H      -0.670068230      0.346578851     -0.700815195
H       1.988541342      0.384297722      0.635361204
H       2.172648978     -0.481459549     -0.709978469
H      -0.758373177     -0.401321290      0.809906245
           6
  t=        22.00000    2    2
C      -0.054419682     -0.044489568      0.003151864
C       1.395797452      0.057673803     -0.006458438
H      -0.687500311      0.392149408     -0.691907243
H       1.994167523      0.429915395      0.628114948
H       2.181988755     -0.534265532     -0.707469707
H      -0.772320879     -0.444835139      0.810675494
           6
  t=        22.50000    3    3
C      -0.054022041     -0.043953904      0.002148411
C       1.396855992      0.057016247     -0.006054520
H      -0.707236985      0.442667522     -0.684995237
H       2.002365468      0.483185507      0.624121743
H       2.189083176     -0.589004727     -0.702637913
H      -0.785227953     -0.492431744      0.810068774
           6
  t=        23.00000    3    3
C      -0.052609509     -0.043322497      0.001441292
C       1.396807442      0.055739899     -0.006121670
H      -0.727630940      0.495397682     -0.679810658
H       2.012579709      0.541581454      0.623810938
H       2.194184432     -0.643429066     -0.696425784
H      -0.796402265     -0.541448605      0.808208811
           6
  t=        23.50000    3    3
C      -0.050293977     -0.042500218      0.000903173
C       1.395617180      0.053877756     -0.006515925
H      -0.747147382      0.549828785     -0.675600681
H       2.024016028      0.605221880      0.626762069
H       2.198143896     -0.698403828     -0.690033273
H      -0.805689955     -0.592154700      0.805765050
           6
  t=        24.00000    3    3
C      -0.047118925     -0.041412165      0.000495409
C       1.393346178      0.051482099     -0.007073574
H      -0.765165779      0.604921955     -0.672084719
H       2.035602114      0.672644274      0.631434818
H       2.200943664     -0.753317151     -0.683644985
H      -0.812829785     -0.644175954      0.802691603
           6
  t=        24.50000    3    3
C      -0.043385379     -0.040195404      0.000235230
C       1.390426646      0.048646555     -0.007967590
H      -0.782871333      0.657817958     -0.666904193
H       2.049152818      0.740129389      0.636306628
H       2.201231097     -0.804181400     -0.673704670
H      -0.818661895     -0.694403936      0.796451967
           6
  t=        25.00000    3    3
C      -0.039346410     -0.038789049      0.000078325
C       1.387117085      0.045454799     -0.009072153
H      -0.798339990      0.706639380     -0.658522736
H       2.062484968      0.805152954      0.639073588
H       2.198318660     -0.849475832     -0.659520277
H      -0.822304332     -0.741680224      0.786150400
           6
  t=        25.50000    3    3
C      -0.035183302     -0.037127827     -0.000012038
C       1.383648164      0.042038183     -0.010190741
H      -0.810115196      0.749879878     -0.646541850
H       2.073208201      0.865118389      0.637949666
H       2.191778984     -0.888308945     -0.641520283
H      -0.822984383     -0.785136346      0.771698909
           6
  t=        26.00000    3    3
C      -0.031023335     -0.035194874     -0.000057840
C       1.380160572      0.038470916     -0.011211179
H      -0.817653314      0.786630047     -0.631358124
H       2.080443990      0.918602715      0.632628740
H       2.181433376     -0.920112018     -0.620483976
H      -0.820348255     -0.824093816      0.753504772
           6
  t=        26.50000    3    3
C      -0.026989674     -0.033009112     -0.000069638
C       1.376754440      0.034766383     -0.012110406
H      -0.820856981      0.816370657     -0.613551623
H       2.084312424      0.965168715      0.623686269
H       2.167233003     -0.944438746     -0.597084762
H      -0.814290089     -0.857976516      0.732097009
           6
  t=        27.00000    3    3
C      -0.023206307     -0.030607286     -0.000050859
C       1.373524257      0.030922265     -0.012906007
H      -0.819801951      0.838863977     -0.593669829
H       2.085195517      1.004795743      0.611911467
H       2.149241065     -0.961014416     -0.571845175
H      -0.804827828     -0.886335315      0.708006786
           6
  t=        27.50000    3    3
C      -0.019800786     -0.028024168     -0.000003004
C       1.370569235      0.026946132     -0.013622683
H      -0.814572320      0.853878088     -0.572194145
H       2.083425425      1.037399191      0.598028370
H       2.127642749     -0.969623780     -0.545231798
H      -0.792057047     -0.908744801      0.681770277
           6
  t=        28.00000    3    3
C      -0.016900841     -0.025290570      0.000074331
C       1.367984471      0.022852572     -0.014287332
H      -0.805243262      0.861156769     -0.549618667
H       2.079304831      1.062809828      0.582740811
H       2.102729087     -0.970072874     -0.517722868
H      -0.776107454     -0.924780168      0.653971669
           6
  t=        28.50000    3    3
C      -0.014624561     -0.022437158      0.000184454
C       1.365861846      0.018660675     -0.014928718
H      -0.791911431      0.860452245     -0.526388775
H       2.073077745      1.080756425      0.566650473
H       2.074836810     -0.962136850     -0.489719912
H      -0.757150823     -0.934009320      0.625159516
           6
  t=        29.00000    3    3
C      -0.013065033     -0.019497202      0.000333451
C       1.364275106      0.014389929     -0.015573545
H      -0.774730860      0.851568894     -0.502941866
H       2.064972271      1.090918450      0.550276617
H       2.044324209     -0.945560166     -0.461574752
H      -0.735389066     -0.936007409      0.595849452
           6
  t=        29.50000    3    3
C      -0.012276619     -0.016516276      0.000532128
C       1.363259603      0.010070459     -0.016236022
H      -0.753976731      0.834461198     -0.479792591
H       2.055240068      1.092984931      0.534092808
H       2.011628063     -0.920215421     -0.433704221
H      -0.711008935     -0.930361300      0.566539949
           6
  t=        30.00000    3    3
C      -0.012230209     -0.013570683      0.000801114
C       1.362752284      0.005786159     -0.016898881
H      -0.730271916      0.809611317     -0.457756046
H       2.044255699      1.086861265      0.518641915
H       1.977630424     -0.886781524     -0.406906438
H      -0.684239691     -0.916870042      0.537849778
