           6
  t=         0.00000    2    2
C      -0.662791123      0.001798478     -0.013219349
C       0.643579212     -0.004114348      0.003013712
H      -1.162201952      0.904735193      0.054568521
H      -1.188066742     -0.896405160      0.040932910
H       1.268919670      0.938233888      0.006841700
H       1.310271879     -0.918968779      0.019263918
           6
  t=         0.50000    2    2
C      -0.664673848      0.002667833     -0.013280462
C       0.644848399     -0.005104633      0.003500640
H      -1.165601074      0.893566758      0.052687324
H      -1.186987903     -0.891093110      0.041720932
H       1.276689111      0.946403438      0.005899521
H       1.312134386     -0.919840377      0.016225580
           6
  t=         1.00000    2    2
C      -0.667840760      0.003400741     -0.013392737
C       0.648508274     -0.006006138      0.003977737
H      -1.172908623      0.887473970      0.051728108
H      -1.189086915     -0.889483439      0.042156432
H       1.281538165      0.950967292      0.004512696
H       1.310818854     -0.917911567      0.013789217
           6
  t=         1.50000    1    1
C      -0.672164748      0.003968815     -0.013557675
C       0.654441690     -0.006766975      0.004443639
H      -1.184261447      0.886942581      0.051606981
H      -1.194362418     -0.891752803      0.042337502
H       1.283266046      0.951613321      0.002787790
H       1.306542829     -0.913459341      0.011868171
           6
  t=         2.00000    1    1
C      -0.681887491     -0.000657612     -0.018733917
C       0.656744162     -0.012354848     -0.000129508
H      -1.259062470      0.832006049     -0.008126317
H      -1.262283050     -0.957604091     -0.017489653
H       1.222044583      0.888734240     -0.058846439
H       1.239906620     -0.967079358     -0.049764212
           6
  t=         2.50000    1    1
C      -0.691511710     -0.006105021     -0.023881149
C       0.659182669     -0.018236332     -0.004818306
H      -1.337547517      0.784050309     -0.068003308
H      -1.328420157     -1.021246163     -0.077126831
H       1.161776440      0.827383407     -0.119882976
H       1.171422668     -1.018136514     -0.111008178
           6
  t=         3.00000    1    1
C      -0.701235157     -0.012658358     -0.029090174
C       0.661103626     -0.025154103     -0.009631341
H      -1.418646521      0.742760742     -0.127842734
H      -1.389800295     -1.079200193     -0.135643257
H       1.107972148      0.775327729     -0.180866047
H       1.101681179     -1.065317086     -0.171247265
           6
  t=         3.50000    1    1
C      -0.711320032     -0.020352068     -0.034492433
C       0.661857532     -0.033937773     -0.014470683
H      -1.499824212      0.706422523     -0.187150809
H      -1.444391338     -1.129495476     -0.191881785
H       1.066164000      0.741148462     -0.243690099
H       1.031446006     -1.107162422     -0.229838641
           6
  t=         4.00000    1    1
C      -0.722063475     -0.029129869     -0.040243369
C       0.661006934     -0.045147013     -0.019202589
H      -1.578093720      0.673085646     -0.245024409
H      -1.490750838     -1.170973491     -0.244721803
H       1.039793998      0.730315871     -0.310838534
H       0.961598983     -1.142353056     -0.286064073
           6
  t=         4.50000    1    1
C      -0.733709861     -0.038907276     -0.046494455
C       0.658450965     -0.058769537     -0.023799712
H      -1.650587576      0.641083890     -0.300330545
H      -1.528028244     -1.202982008     -0.293312282
H       1.028317522      0.741968402     -0.383529737
H       0.893080500     -1.170166545     -0.339210130
           6
  t=         5.00000    1    1
C      -0.746426597     -0.049560119     -0.053373038
C       0.654383896     -0.074246833     -0.028446286
H      -1.714875173      0.609188822     -0.351962138
H      -1.556015719     -1.225542567     -0.337125277
H       1.027821499      0.769193124     -0.460227999
H       0.826845097     -1.190574606     -0.388734877
           6
  t=         5.50000    1    1
C      -0.760319611     -0.060959311     -0.061002515
C       0.649072525     -0.090885945     -0.033440998
H      -1.769110603      0.576608850     -0.398900518
H      -1.574788167     -1.238988615     -0.375746733
H       1.033774472      0.803694833     -0.537676563
H       0.763736349     -1.203952184     -0.434298360
           6
  t=         6.00000    1    1
C      -0.775466264     -0.073018772     -0.069503987
C       0.642719401     -0.108125653     -0.039060166
H      -1.811962239      0.543025023     -0.440252005
H      -1.584423347     -1.243635713     -0.408753476
H       1.042689219      0.839039724     -0.612637627
H       0.704495908     -1.210943979     -0.475719728
           6
  t=         6.50000    1    1
C      -0.791914644     -0.085697200     -0.078985853
C       0.635402963     -0.125577286     -0.045534217
H      -1.842465446      0.508599610     -0.475241688
H      -1.584892222     -1.239832565     -0.435640368
H       1.052398922      0.870932416     -0.682487009
H       0.649935266     -1.212191591     -0.512865866
           6
  t=         7.00000    1    1
C      -0.809572073     -0.098981929     -0.089532612
C       0.627083640     -0.142933138     -0.053048978
H      -1.860159035      0.473733132     -0.503372120
H      -1.576331020     -1.228056912     -0.455878466
H       1.061379626      0.896310774     -0.745014627
H       0.600620621     -1.208373137     -0.545752139
           6
  t=         7.50000    1    1
C      -0.828237362     -0.112879724     -0.101148076
C       0.617673268     -0.159968031     -0.061742081
H      -1.865417292      0.439359258     -0.524709711
H      -1.559037058     -1.209064145     -0.469152621
H       1.068434479      0.913091689     -0.798642110
H       0.557073646     -1.200186292     -0.574520241
           6
  t=         8.00000    1    1
C      -0.847687403     -0.127393996     -0.113771822
C       0.607089016     -0.176565700     -0.071643251
H      -1.859246690      0.406605927     -0.539692546
H      -1.533342522     -1.183724995     -0.475480038
H       1.072822371      0.920434464     -0.842929203
H       0.519702630     -1.188392310     -0.599520947
           6
  t=         8.50000    1    1
C      -0.867676850     -0.142492582     -0.127343803
C       0.595297404     -0.192658673     -0.082682268
H      -1.843137675      0.376615857     -0.548800154
H      -1.500125542     -1.153439953     -0.475102463
H       1.074196665      0.918443709     -0.878136568
H       0.488698252     -1.174025256     -0.621324513
           6
  t=         9.00000    1    1
C      -0.887927962     -0.158093711     -0.141770682
C       0.582299285     -0.208155487     -0.094771797
H      -1.819169143      0.350824499     -0.552635915
H      -1.460817034     -1.120419396     -0.468518833
H       1.072385897      0.907358344     -0.904551387
H       0.464422139     -1.158613326     -0.640694278
           6
  t=         9.50000    1    1
C      -0.908077741     -0.174062946     -0.156896456
C       0.568092834     -0.222916362     -0.107853624
H      -1.790152987      0.330947636     -0.552054400
H      -1.417237992     -1.087703855     -0.456565741
H       1.067287775      0.887173010     -0.922173315
H       0.447305861     -1.144093878     -0.658491976
           6
  t=        10.00000    1    1
C      -0.927620106     -0.190150254     -0.172473789
C       0.552657490     -0.236770420     -0.121905299
H      -1.759622399      0.319012369     -0.548234413
H      -1.371827211     -1.060016487     -0.440707170
H       1.058824513      0.857657180     -0.930735813
H       0.437613906     -1.132555759     -0.675556034
           6
  t=        10.50000    1    1
C      -0.945893174     -0.205932393     -0.188166982
C       0.535958452     -0.249534668     -0.136919431
H      -1.731556802      0.317280613     -0.542597483
H      -1.328058576     -1.044548890     -0.423207701
H       1.046937575      0.818535727     -0.929893681
H       0.435385989     -1.126017889     -0.692633681
           6
  t=        11.00000    1    1
C      -0.962231394     -0.220895629     -0.203651420
C       0.517965547     -0.261042243     -0.152879005
H      -1.709501635      0.327728519     -0.536415356
H      -1.289748518     -1.049561176     -0.406490401
H       1.031562640      0.769680330     -0.919422032
H       0.440477345     -1.126177743     -0.710325752
           6
  t=        11.50000    1    1
C      -0.976190996     -0.234619725     -0.218723092
C       0.498681183     -0.271184471     -0.169756786
H      -1.695596527      0.351252304     -0.530468115
H      -1.259956995     -1.081386725     -0.392128639
H       1.012703442      0.711363860     -0.899355426
H       0.452767358     -1.134173334     -0.728999691
           6
  t=        12.00000    1    1
C      -0.987706229     -0.247083711     -0.233375478
C       0.478113670     -0.279965116     -0.187549098
H      -1.690170718      0.387210913     -0.524866876
H      -1.239459903     -1.140173209     -0.379956360
H       0.990614499      0.644489671     -0.870013027
H       0.472224109     -1.150324361     -0.748512754
           6
  t=        12.50000    1    1
C      -0.997031029     -0.258736602     -0.247764469
C       0.456252888     -0.287552909     -0.206289095
H      -1.691987260      0.433555050     -0.519046599
H      -1.226908390     -1.219043206     -0.368512921
H       0.965997401      0.570894950     -0.832116289
H       0.498706629     -1.173935235     -0.767916582
           6
  t=        13.00000    1    1
C      -1.004640848     -0.270201135     -0.262074928
C       0.433150315     -0.294342489     -0.225935172
H      -1.698360170      0.486604464     -0.512157389
H      -1.220529005     -1.307536226     -0.356475940
H       0.940291822      0.494060155     -0.787591721
H       0.531367746     -1.203143958     -0.785749926
           6
  t=        13.50000    1    1
C      -1.010973872     -0.281947956     -0.276437498
C       0.408805917     -0.300884582     -0.246387862
H      -1.706309805      0.542005150     -0.503296411
H      -1.219320721     -1.396367711     -0.343277527
H       0.915951853      0.418966564     -0.739244527
H       0.568994399     -1.235692022     -0.800306808
           6
  t=        14.00000    1    1
C      -1.016417065     -0.294204821     -0.290911390
C       0.383095427     -0.307930418     -0.267434721
H      -1.713358791      0.595799126     -0.491776100
H      -1.222766582     -1.479354319     -0.328929494
H       0.897400742      0.352681432     -0.691160862
H       0.610260648     -1.269206731     -0.810002709
           6
  t=        14.50000    1    1
C      -1.021333167     -0.307032635     -0.305506595
C       0.355774335     -0.316352120     -0.288778724
H      -1.717775590      0.644582917     -0.477179314
H      -1.230645666     -1.552544401     -0.313720081
H       0.891143094      0.303737415     -0.648004127
H       0.653945242     -1.301651303     -0.813723363
           6
  t=        15.00000    1    1
C      -1.026106452     -0.320440451     -0.320222454
C       0.326710121     -0.326882922     -0.310202849
H      -1.718443817      0.685645660     -0.459257640
H      -1.243080422     -1.613047385     -0.298032171
H       0.903318052      0.279177598     -0.612882325
H       0.699073043     -1.331403644     -0.810820059
           6
  t=        15.50000    1    1
C      -1.031099916     -0.334439358     -0.335025053
C       0.296250683     -0.339708285     -0.331732542
H      -1.714749319      0.717160506     -0.438318442
H      -1.260050985     -1.658960600     -0.282349619
H       0.935055873      0.279852288     -0.585088792
H       0.744059674     -1.357047891     -0.801309185
           6
  t=        16.00000    1    1
C      -1.036582651     -0.348985191     -0.349839345
C       0.265231534     -0.354402385     -0.353620722
H      -1.706502987      0.738032792     -0.415133122
H      -1.281082589     -1.689820728     -0.267064489
H       0.981025384      0.299775655     -0.560762156
H       0.786823157     -1.377567070     -0.785769168
           6
  t=        16.50000    1    1
C      -1.042834460     -0.363984121     -0.364591858
C       0.234726796     -0.370321100     -0.376091035
H      -1.693782385      0.747506890     -0.390324644
H      -1.305480283     -1.705809627     -0.252586949
H       1.032863938      0.330430819     -0.536496161
H       0.825643890     -1.392300044     -0.764783724
           6
  t=        17.00000    1    1
C      -1.050202438     -0.379339681     -0.379200761
C       0.205741192     -0.386952055     -0.399227511
H      -1.676809258      0.745111757     -0.364466805
H      -1.332540036     -1.707275188     -0.239285684
H       1.083507333      0.364900031     -0.510718624
H       0.859267724     -1.400764842     -0.738956317
           6
  t=        17.50000    1    1
C      -1.059067113     -0.394958510     -0.393582630
C       0.179116078     -0.403964238     -0.423005229
H      -1.655957399      0.730688255     -0.338123821
H      -1.361566521     -1.694675141     -0.227452713
H       1.128057654      0.398621636     -0.483143881
H       0.886779945     -1.402839653     -0.709007403
           6
  t=        18.00000    1    1
C      -1.069781574     -0.410758281     -0.407654032
C       0.155529296     -0.421157692     -0.447329773
H      -1.631765532      0.704449031     -0.311871926
H      -1.391981647     -1.668620087     -0.217349342
H       1.163287235      0.428909791     -0.454185133
H       0.907499214     -1.398804307     -0.675805428
           6
  t=        18.50000    1    1
C      -1.082590491     -0.426677458     -0.421332163
C       0.135447154     -0.438412317     -0.472069683
H      -1.604967618      0.667049764     -0.286329066
H      -1.423407647     -1.629968739     -0.209169254
H       1.187332788      0.454295747     -0.424537088
H       0.921004070     -1.389151299     -0.640397166
           6
  t=        19.00000    1    1
C      -1.097573071     -0.442670234     -0.434541928
C       0.119095175     -0.455666684     -0.497088255
H      -1.576551330      0.619698547     -0.262071632
H      -1.455725953     -1.580029194     -0.203024264
H       1.199499421      0.474217637     -0.394937062
H       0.927115013     -1.374496569     -0.603880797
           6
  t=        19.50000    1    1
C      -1.114624683     -0.458689855     -0.447232273
C       0.106495946     -0.472892091     -0.522258804
H      -1.547821079      0.564414093     -0.239545993
H      -1.489183413     -1.521002363     -0.198851288
H       1.199836354      0.488730965     -0.366024818
H       0.925818222     -1.355612537     -0.567351169
           6
  t=        20.00000    1    1
C      -1.133442183     -0.474688209     -0.459401714
C       0.097481412     -0.490056546     -0.547458888
H      -1.520348756      0.504107663     -0.218897875
H      -1.524400211     -1.456025390     -0.196379784
H       1.188694201      0.498117855     -0.338389724
H       0.917345451     -1.333509905     -0.531820403
           6
  t=        20.50000    1    1
C      -1.153529035     -0.490618324     -0.471138149
C       0.091709540     -0.507081919     -0.572545488
H      -1.495831690      0.442676310     -0.199614910
H      -1.562451893     -1.389346328     -0.195229126
H       1.166463303      0.502515903     -0.312904615
H       0.902238267     -1.309465989     -0.497965445
           6
  t=        21.00000    1    1
C      -1.174226271     -0.506378580     -0.482651243
C       0.088747458     -0.523844341     -0.597360305
H      -1.476196036      0.385229981     -0.180611053
H      -1.605327747     -1.327041620     -0.194334616
H       1.133435458      0.501814413     -0.290492127
H       0.881426193     -1.285090413     -0.466402339
           6
  t=        21.50000    1    1
C      -1.194787918     -0.521831391     -0.494234443
C       0.088126798     -0.540185636     -0.621749349
H      -1.463328779      0.337857499     -0.160472594
H      -1.655997757     -1.276428028     -0.191975076
H       1.089723844      0.495609500     -0.272014833
H       0.856345194     -1.262275583     -0.437741694
           6
  t=        22.00000    1    1
C      -1.214505561     -0.536856529     -0.506190505
C       0.089320319     -0.555893931     -0.645577824
H      -1.458394309      0.305397759     -0.137805819
H      -1.717721243     -1.243342460     -0.186338984
H       1.035343309      0.483266630     -0.258315306
H       0.829245320     -1.243346137     -0.412344806
           6
  t=        22.50000    1    1
C      -1.232963500     -0.551426931     -0.518667560
C       0.091789846     -0.570730723     -0.668755815
H      -1.461332426      0.289715473     -0.111983460
H      -1.791944100     -1.229482057     -0.176705954
H       0.970295498      0.464221904     -0.250136107
H       0.802969973     -1.231070165     -0.390123069
           6
  t=        23.00000    1    1
C      -1.250143840     -0.565593946     -0.531539439
C       0.095036816     -0.584486356     -0.691246434
H      -1.471140019      0.289556884     -0.083713055
H      -1.876866141     -1.232351880     -0.164224139
H       0.894723196      0.438258992     -0.248072193
H       0.780300579     -1.228358838     -0.370568809
           6
  t=        23.50000    1    1
C      -1.266320468     -0.579399999     -0.544464664
C       0.098640265     -0.597060442     -0.713046657
H      -1.486431166      0.301325821     -0.054871506
H      -1.968106977     -1.247213811     -0.151365458
H       0.809264910      0.405803414     -0.252486358
H       0.763111927     -1.237470295     -0.353075330
           6
  t=        24.00000    1    1
C      -1.281822711     -0.592841231     -0.557045338
C       0.102214353     -0.608509756     -0.734143906
H      -1.505704236      0.320411264     -0.027857345
H      -2.060615227     -1.269179579     -0.140841774
H       0.715297787      0.367952697     -0.263428432
H       0.751995538     -1.259148787     -0.337373556
           6
  t=        24.50000    1    1
C      -1.296928886     -0.605873608     -0.568943082
C       0.105440036     -0.619025142     -0.754485026
H      -1.527523292      0.342172416     -0.004940427
H      -2.150068612     -1.294312588     -0.134891743
H       0.614865701      0.326172354     -0.280779903
H       0.746267307     -1.292406293     -0.323738827
           6
  t=        25.00000    1    1
C      -1.311838028     -0.618465369     -0.579933109
C       0.108059431     -0.628933768     -0.774013505
H      -1.550781304      0.362869808      0.012191547
H      -2.233314929     -1.319807716     -0.134976235
H       0.510708579      0.282514396     -0.303933639
H       0.744372550     -1.334840483     -0.312981598
           6
  t=        25.50000    1    1
C      -1.326679208     -0.630632401     -0.589897229
C       0.109817249     -0.638714315     -0.792732260
H      -1.574667699      0.380170165      0.022511790
H      -2.308001377     -1.343794703     -0.141943198
H       0.406046907      0.240352307     -0.331277903
H       0.744507303     -1.383468741     -0.306212421
           6
  t=        26.00000    1    1
C      -1.341503840     -0.642393296     -0.598795333
C       0.110479224     -0.648986895     -0.810750370
H      -1.598623149      0.392749921      0.025466911
H      -2.372742069     -1.365306843     -0.156079058
H       0.303973601      0.204665833     -0.360059896
H       0.745037524     -1.435303359     -0.304522458
           6
  t=        26.50000    1    1
C      -1.356338043     -0.653783473     -0.606616987
C       0.109880029     -0.660430200     -0.828261976
H      -1.622375040      0.399741955      0.020810245
H      -2.426891397     -1.383874307     -0.177459388
H       0.207305551      0.181401642     -0.386908262
H       0.744509315     -1.487384567     -0.308771827
           6
  t=        27.00000    1    1
C      -1.371220242     -0.664894228     -0.613388559
C       0.107985879     -0.673550060     -0.845445020
H      -1.645793672      0.400573157      0.008600878
H      -2.470263062     -1.399127459     -0.205948447
H       0.117901442      0.175123028     -0.409091780
H       0.741608391     -1.536957066     -0.319452082
           6
  t=        27.50000    1    1
C      -1.386225438     -0.675846272     -0.619171538
C       0.104839770     -0.688436365     -0.862312809
H      -1.668532999      0.394764031     -0.011068975
H      -2.502587214     -1.410665614     -0.241224343
H       0.036469289      0.186373480     -0.425982498
H       0.735392241     -1.581976054     -0.336714048
           6
  t=        28.00000    1    1
C      -1.401441049     -0.686770793     -0.624057286
C       0.100433209     -0.704763755     -0.878695038
H      -1.690372085      0.382167553     -0.037959910
H      -2.523506816     -1.418260431     -0.282883674
H      -0.035907568      0.211395724     -0.439265345
H       0.725342368     -1.621079286     -0.360456253
           6
  t=        28.50000    1    1
C      -1.416906854     -0.697786001     -0.628152589
C       0.094670639     -0.722030607     -0.894354778
H      -1.711568639      0.363121141     -0.071560087
H      -2.532743141     -1.421921716     -0.330483359
H      -0.097455709      0.244544502     -0.451660101
H       0.711276957     -1.653517711     -0.390464587
           6
  t=        29.00000    1    1
C      -1.432590377     -0.708986007     -0.631576585
C       0.087408617     -0.739752686     -0.909103001
H      -1.732503759      0.338335503     -0.111245452
H      -2.530265951     -1.421864014     -0.383461095
H      -0.146621254      0.280476671     -0.465512068
H       0.693315241     -1.679092970     -0.426412883
           6
  t=        29.50000    1    1
C      -1.448390871     -0.720439252     -0.634470042
C       0.078494855     -0.757537154     -0.922833515
H      -1.753459092      0.308726243     -0.156361755
H      -2.516407640     -1.418468412     -0.441064477
H      -0.182543232      0.314989691     -0.482283525
H       0.671824446     -1.698002438     -0.467833534
           6
  t=        30.00000    1    1
C      -1.464165725     -0.732204045     -0.637007026
C       0.067783783     -0.775069378     -0.935497937
H      -1.774736943      0.275354374     -0.206112709
H      -2.491814386     -1.412232981     -0.502363688
H      -0.204809692      0.345007396     -0.502803416
H       0.647376332     -1.710787167     -0.514126079
           6
  t=        30.50000    1    1
C      -1.479742799     -0.744336768     -0.639399927
C       0.055162302     -0.792090286     -0.947093870
H      -1.796706797      0.239525888     -0.259478089
H      -2.457612085     -1.403858031     -0.566240546
H      -0.213389121      0.368362283     -0.527448521
H       0.620731278     -1.718300520     -0.564549955
           6
  t=        31.00000    1    1
C      -1.494892715     -0.756897658     -0.641889668
C       0.040550412     -0.808387749     -0.957648342
H      -1.819764832      0.203139628     -0.315196754
H      -2.415934706     -1.394680158     -0.631505235
H      -0.208494869      0.383795471     -0.556266614
H       0.592852848     -1.721655750     -0.618315522
           6
  t=        31.50000    1    1
C      -1.509284204     -0.769940195     -0.644713133
C       0.023877001     -0.823765510     -0.967196557
H      -1.844354547      0.168986389     -0.371881187
H      -2.370347294     -1.387100435     -0.697154612
H      -0.190462237      0.390584467     -0.589146072
H       0.564984920     -1.722221381     -0.674682940
           6
  t=        32.00000    1    1
C      -1.522480125     -0.783485957     -0.648047223
C       0.005045059     -0.838012000     -0.975770195
H      -1.871073896      0.140340390     -0.428321085
H      -2.325386548     -1.384348166     -0.762701420
H      -0.159709066      0.388040107     -0.625945106
H       0.538627109     -1.721617042     -0.733006199
           6
  t=        32.50000    1    1
C      -1.533993424     -0.797472433     -0.651975073
C      -0.016059746     -0.850894552     -0.983403006
H      -1.900520220      0.120078820     -0.483687008
H      -2.285990879     -1.390201935     -0.828349959
H      -0.116753936      0.375370847     -0.666488461
H       0.515392501     -1.721667014     -0.792692935
           6
  t=        33.00000    1    1
C      -1.543437633     -0.811732014     -0.656497441
C      -0.039508617     -0.862200951     -0.990131744
H      -1.933093371      0.109561929     -0.537555222
H      -2.256360171     -1.408153740     -0.894811087
H      -0.062171520      0.351921924     -0.710503391
H       0.496698933     -1.724110679     -0.853281750
           6
  t=        33.50000    1    1
C      -1.550717584     -0.826063830     -0.661599465
C      -0.065263772     -0.871814477     -0.995989206
H      -1.968403418      0.107982076     -0.589833280
H      -2.238184172     -1.439833525     -0.962584457
H       0.002964548      0.317564750     -0.757525595
H       0.483335654     -1.730166146     -0.914616062
           6
  t=        34.00000    1    1
C      -1.556087069     -0.840327477     -0.667318399
C      -0.093139970     -0.879796847     -1.001029153
H      -2.005302934      0.112900363     -0.640576595
H      -2.229879089     -1.484144627     -1.031178694
H       0.076833375      0.273105171     -0.806767272
H       0.475209152     -1.740234639     -0.976835115
           6
  t=        34.50000    1    1
C      -1.560007160     -0.854473683     -0.673746044
C      -0.122815940     -0.886404074     -1.005336872
H      -2.042354884      0.121248225     -0.689761654
H      -2.227794268     -1.537872382     -1.099176051
H       0.157143229      0.220182526     -0.857343037
H       0.471189330     -1.753638115     -1.040155453
           6
  t=        35.00000    1    1
C      -1.562983812     -0.868512649     -0.681013469
C      -0.153882830     -0.891990669     -1.009021230
H      -2.078057314      0.130025208     -0.737251907
H      -2.228072892     -1.597087776     -1.164617710
H       0.241626858      0.160635154     -0.908434686
H       0.469341697     -1.768797711     -1.104631632
           6
  t=        35.50000    1    1
C      -1.565492810     -0.882459257     -0.689245151
C      -0.185850365     -0.896924908     -1.012222199
H      -2.111095842      0.136537279     -0.782848896
H      -2.227658069     -1.658120931     -1.225530885
H       0.328141110      0.096210825     -0.959292738
H       0.467265454     -1.783871448     -1.170033277
           6
  t=        36.00000    1    1
C      -1.567968590     -0.896314774     -0.698532860
C      -0.218149769     -0.901517640     -1.015111420
H      -2.140527222      0.138753982     -0.826278043
H      -2.224503522     -1.718137247     -1.280270850
H       0.414567213      0.028301874     -1.009183427
H       0.462489131     -1.797336742     -1.235874742
           6
  t=        36.50000    1    1
C      -1.570821787     -0.910071597     -0.708935208
C      -0.250139166     -0.906003654     -1.017881665
H      -2.165728673      0.135220954     -0.867181821
H      -2.217352904     -1.774956953     -1.327583980
H       0.498518352     -0.042124532     -1.057395522
H       0.452764989     -1.808179074     -1.301483021
           6
  t=        37.00000    1    1
C      -1.574448378     -0.923704532     -0.720483557
C      -0.281140603     -0.910570491     -1.020738142
H      -2.186400267      0.124868959     -0.905029676
H      -2.205539835     -1.826869124     -1.366668796
H       0.577405448     -0.114354401     -1.103314045
H       0.436355893     -1.815819651     -1.365986214
           6
  t=        37.50000    1    1
C      -1.579202034     -0.937173916     -0.733170307
C      -0.310532716     -0.915379093     -1.023888694
H      -2.202606902      0.107106846     -0.939152412
H      -2.188908685     -1.872700816     -1.397293017
H       0.648869186     -0.187715885     -1.146479718
H       0.412340690     -1.820067000     -1.428359068
           6
  t=        38.00000    1    1
C      -1.585405751     -0.950444308     -0.746961586
C      -0.337732751     -0.920569898     -1.027550754
H      -2.214610460      0.081912337     -0.968724004
H      -2.167691530     -1.911851060     -1.419686762
H       0.710732753     -0.261338495     -1.186520651
H       0.380294932     -1.821119206     -1.487382104
           6
  t=        38.50000    1    1
C      -1.593210853     -0.963545677     -0.761750592
C      -0.362373315     -0.926188561     -1.031918037
H      -2.222811702      0.050023814     -0.993593634
H      -2.142565954     -1.944427676     -1.434366703
H       0.761572178     -0.334312019     -1.222723999
H       0.340146330     -1.819615915     -1.542366692
           6
  t=        39.00000    1    1
C      -1.602671307     -0.976538958     -0.777447007
C      -0.384248750     -0.932237449     -1.037145202
H      -2.227632478      0.012199863     -1.013867852
H      -2.114365555     -1.970587472     -1.441605208
H       0.800620981     -0.405903009     -1.254205319
H       0.292109317     -1.816138060     -1.593051682
           6
  t=        39.50000    1    1
C      -1.613834781     -0.989490827     -0.793996001
C      -0.403157747     -0.938728936     -1.043372215
H      -2.229735033     -0.030704334     -1.029396741
H      -2.084037067     -1.990493500     -1.441652992
H       0.827365852     -0.475307267     -1.280218679
H       0.236475451     -1.811240063     -1.639067782
           6
  t=        40.00000    1    1
C      -1.626712666     -1.002507239     -0.811350408
C      -0.418917974     -0.945664229     -1.050706225
H      -2.230120554     -0.077464574     -1.040119749
H      -2.052523349     -2.004317470     -1.434752333
H       0.841472951     -0.541819225     -1.300115436
H       0.173485745     -1.805403048     -1.680167140
           6
  t=        40.50000    1    1
C      -1.641245854     -1.015726899     -0.829442200
C      -0.431424676     -0.953035317     -1.059205512
H      -2.230207702     -0.126380590     -1.046188627
H      -2.020752191     -2.012303734     -1.421332182
H       0.842891608     -0.604884164     -1.313493421
H       0.103584765     -1.799080368     -1.716287395
           6
  t=        41.00000    1    1
C      -1.657261096     -1.029305793     -0.848175104
C      -0.440688578     -0.960827959     -1.068889266
H      -2.231835311     -0.175188049     -1.047892493
H      -1.989836235     -2.014951517     -1.402144635
H       0.831771994     -0.663988765     -1.320172933
H       0.027637239     -1.792861436     -1.747485537
           6
  t=        41.50000    1    1
C      -1.674446581     -1.043403364     -0.867415207
C      -0.446850641     -0.969024862     -1.079740100
H      -2.237325701     -0.220932517     -1.045675116
H      -1.961119407     -2.013258937     -1.378308821
H       0.808494313     -0.718581706     -1.320104888
H      -0.053106582     -1.787560086     -1.774050568
           6
  t=        42.00000    1    1
C      -1.692380071     -1.058133207     -0.886990559
C      -0.450169050     -0.977617453     -1.091707470
H      -2.249412253     -0.260172024     -1.039982880
H      -1.936120449     -2.008975295     -1.351385174
H       0.773782923     -0.767991105     -1.313368615
H      -0.137073731     -1.784289480     -1.796547524
           6
  t=        42.50000    1    1
C      -1.710589268     -1.073475240     -0.906714958
C      -0.451004052     -0.986602577     -1.104696691
H      -2.270741739     -0.289796989     -1.031034208
H      -1.917030761     -2.004922475     -1.323207826
H       0.728832467     -0.811468171     -1.300200966
H      -0.221955844     -1.784362953     -1.816033962
           6
  t=        43.00000    1    1
C      -1.728647887     -1.089202796     -0.926422158
C      -0.449835157     -0.995992595     -1.118577269
H      -2.302991953     -0.308274704     -1.018709997
H      -1.905939998     -2.004631991     -1.295574582
H       0.675685326     -0.848309014     -1.280996739
H      -0.305393651     -1.789039230     -1.833972223
           6
  t=        43.50000    1    1
C      -1.746275887     -1.104895266     -0.945985933
C      -0.447272176     -1.005835573     -1.133219570
H      -2.346198134     -0.316282941     -1.002649128
H      -1.903850632     -2.011586219     -1.269997321
H       0.617684715     -0.877963912     -1.256315551
H      -0.385763207     -1.799146969     -1.851700689
           6
  t=        44.00000    1    1
C      -1.763355692     -1.120023601     -0.965319913
C      -0.444080977     -1.016199767     -1.148507113
H      -2.398601723     -0.316369891     -0.982515883
H      -1.911325954     -2.028940365     -1.247443801
H       0.559962182     -0.900017490     -1.226917713
H      -0.461666494     -1.814888787     -1.870244105
           6
  t=        44.50000    1    1
C      -1.779902028     -1.134106499     -0.984373792
C      -0.441188638     -1.027179505     -1.164362307
H      -2.457111469     -0.312136957     -0.958321779
H      -1.928815954     -2.058637486     -1.228076453
H       0.509714579     -0.914021831     -1.193562104
H      -0.531719408     -1.835779224     -1.890193628
           6
  t=        45.00000    1    1
C      -1.795995763     -1.146872415     -1.003134722
C      -0.439612824     -1.038920722     -1.180785871
H      -2.518260296     -0.307234665     -0.930535169
H      -1.956308068     -2.100248756     -1.211258394
H       0.475271037     -0.919453994     -1.156603704
H      -0.594640956     -1.860616259     -1.911507328
           6
  t=        45.50000    1    1
C      -1.811739869     -1.158309611     -1.021610305
C      -0.440242754     -1.051614836     -1.197872260
H      -2.579013175     -0.304613282     -0.899931909
H      -1.993005965     -2.150811113     -1.195961617
H       0.463359484     -0.915904989     -1.115732627
H      -0.649167781     -1.887680631     -1.933531167
           6
  t=        46.00000    1    1
C      -1.827257544     -1.168588683     -1.039798902
C      -0.443488164     -1.065425957     -1.215745244
H      -2.636952561     -0.306306117     -0.867385532
H      -2.037388133     -2.205897587     -1.181330810
H       0.475105845     -0.903550395     -1.070448208
H      -0.694014615     -1.915202211     -1.955292325
           6
  t=        46.50000    1    1
C      -1.842685344     -1.177954871     -1.057675259
C      -0.449140380     -1.080407602     -1.234444954
H      -2.690241535     -0.313522798     -0.833727661
H      -2.087630361     -2.261006911     -1.166974795
H       0.504833900     -0.883614160     -1.021160313
H      -0.728025708     -1.941688761     -1.975763200
           6
  t=        47.00000    1    1
C      -1.858165145     -1.186637353     -1.075186371
C      -0.456624655     -1.096493678     -1.253875715
H      -2.737429970     -0.327006828     -0.799749875
H      -2.141953926     -2.312383946     -1.152923784
H       0.543364068     -0.858160941     -0.969593007
H      -0.750408269     -1.966144023     -1.994169585
           6
  t=        47.50000    1    1
C      -1.873827253     -1.194795558     -1.092253390
C      -0.465360174     -1.113557388     -1.273846778
H      -2.777336664     -0.347179718     -0.766249351
H      -2.198802894     -2.357486554     -1.139484385
H       0.582217851     -0.829390081     -0.918161178
H      -0.760789054     -1.988100440     -2.010205229
           6
  t=        48.00000    1    1
C      -1.889777365     -1.202537369     -1.108785925
C      -0.474943231     -1.131468876     -1.294153209
H      -2.809077499     -0.374117104     -0.733995891
H      -2.256753672     -2.394777834     -1.127175943
H       0.615382486     -0.799309681     -0.869315151
H      -0.759013986     -2.007272992     -2.023649626
           6
  t=        48.50000    1    1
C      -1.906103838     -1.209966474     -1.124687465
C      -0.485125164     -1.150106821     -1.314610115
H      -2.832056888     -0.407562832     -0.703710362
H      -2.314369947     -2.423144106     -1.116696048
H       0.639050899     -0.769559180     -0.825149728
H      -0.745218044     -2.023602191     -2.034342672
           6
  t=        49.00000    1    1
C      -1.922867563     -1.217196936     -1.139870738
C      -0.495756525     -1.169341173     -1.335047990
H      -2.845914385     -0.446983415     -0.676030443
H      -2.370394906     -2.441815255     -1.108737436
H       0.651026620     -0.741350160     -0.787234171
H      -0.719877232     -2.037370549     -2.042444368
           6
  t=        49.50000    1    1
C      -1.940083789     -1.224340969     -1.154278991
C      -0.506755862     -1.189014001     -1.355305181
H      -2.850577114     -0.491604648     -0.651442867
H      -2.423774504     -2.450531056     -1.103901762
H       0.650300154     -0.715586737     -0.756598684
H      -0.683897803     -2.049253141     -2.048438578
           6
  t=        50.00000    1    1
C      -1.957720990     -1.231522806     -1.167883781
C      -0.518099847     -1.208933565     -1.375215135
H      -2.846132629     -0.540507235     -0.630352024
H      -2.473501853     -2.449248400     -1.102678558
H       0.636508456     -0.693046484     -0.733912204
H      -0.638489713     -2.060239171     -2.053085941
           6
  t=        50.50000    1    1
C      -1.975715122     -1.238878548     -1.180682831
C      -0.529810724     -1.228894647     -1.394612728
H      -2.832899464     -0.592572108     -0.612990688
H      -2.518724942     -2.438108764     -1.105447000
H       0.609765043     -0.674362880     -0.719583657
H      -0.584797990     -2.071496339     -2.057360268
           6
  t=        51.00000    1    1
C      -1.993957541     -1.246559200     -1.192710301
C      -0.541936549     -1.248697403     -1.413343031
H      -2.811516939     -0.646493819     -0.599281697
H      -2.558893825     -2.417404476     -1.112516984
H       0.570460618     -0.659986490     -0.713853624
H      -0.523845950     -2.084169136     -2.062227308
           6
  t=        51.50000    1    1
C      -2.012263727     -1.254737594     -1.204057265
C      -0.554532935     -1.268165020     -1.431272414
H      -2.783091095     -0.700618235     -0.588690552
H      -2.593680180     -2.387766507     -1.124207863
H       0.519159652     -0.650182870     -0.716806719
H      -0.456956335     -2.099062625     -2.068324672
           6
  t=        52.00000    1    1
C      -2.030398046     -1.263598022     -1.214864798
C      -0.567650158     -1.287170656     -1.448301982
H      -2.749162741     -0.752875657     -0.580109399
H      -2.622949639     -2.350170894     -1.140856101
H       0.456431037     -0.645131927     -0.728470734
H      -0.385500257     -2.116405992     -2.075893349
           6
  t=        52.50000    1    1
C      -2.048097330     -1.273311764     -1.225318163
C      -0.581310125     -1.305664199     -1.464387469
H      -2.711753053     -0.800937199     -0.571690983
H      -2.646903856     -2.305833551     -1.162796797
H       0.382772008     -0.644987498     -0.748902082
H      -0.310626901     -2.135714578     -2.084709016
           6
  t=        53.00000    1    1
C      -2.065047355     -1.284009602     -1.235661329
C      -0.595496644     -1.323678685     -1.479553925
H      -2.673357519     -0.842163196     -0.560688475
H      -2.666195381     -2.256661019     -1.190442873
H       0.298833209     -0.649788938     -0.778044059
H      -0.233776047     -2.155730150     -2.093956742
           6
  t=        53.50000    1    1
C      -2.080898189     -1.295737209     -1.246168214
C      -0.610191824     -1.341311982     -1.493883914
H      -2.636260544     -0.874165031     -0.543950651
H      -2.682153285     -2.205312731     -1.224232951
H       0.205743442     -0.659247985     -0.815491380
H      -0.156845823     -2.174759768     -2.102506669
           6
  t=        54.00000    1    1
C      -2.095305930     -1.308402046     -1.257061094
C      -0.625418286     -1.358692755     -1.507494140
H      -2.601724114     -0.895459979     -0.518999225
H      -2.696996764     -2.155195165     -1.264521953
H       0.105243471     -0.672678129     -0.860343928
H      -0.081924140     -2.191135710     -2.109343126
           6
  t=        54.50000    1    1
C      -2.107982228     -1.321735283     -1.268416301
C      -0.641244102     -1.375980109     -1.520532511
H      -2.569617692     -0.905835800     -0.485123781
H      -2.713860574     -2.110452544     -1.311565197
H      -0.000256843     -0.688883133     -0.911050272
H      -0.011041372     -2.203429687     -2.113800651
           6
  t=        55.00000    1    1
C      -2.118713906     -1.335336975     -1.280117164
C      -0.657789647     -1.393417197     -1.533205506
H      -2.538777843     -0.906484837     -0.443933777
H      -2.736335747     -2.075164186     -1.365515556
H      -0.107524461     -0.705697132     -0.965096295
H       0.053891231     -2.210404192     -2.115560932
           6
  t=        55.50000    1    1
C      -2.127404348     -1.348813238     -1.291898739
C      -0.675215574     -1.411391265     -1.545823269
H      -2.507741728     -0.899585287     -0.398872196
H      -2.767507202     -2.052133483     -1.426380948
H      -0.212384745     -0.719280114     -1.018574033
H       0.111084160     -2.210996734     -2.114542431
           6
  t=        56.00000    1    1
C      -2.134160686     -1.361950692     -1.303460750
C      -0.693658565     -1.430386504     -1.558762165
H      -2.475234398     -0.887716474     -0.354070505
H      -2.808609728     -2.041555565     -1.493859773
H      -0.310508433     -0.724259373     -1.066700915
H       0.159073209     -2.204578682     -2.110791193
           6
  t=        56.50000    1    1
C      -2.139329515     -1.374793908     -1.314596569
C      -0.713134825     -1.450838251     -1.572355335
H      -2.440563958     -0.873334247     -0.313178845
H      -2.858239925     -2.040822499     -1.566959827
H      -0.398603131     -0.715092679     -1.105246619
H       0.196793667     -2.191125893     -2.104372129
           6
  t=        57.00000    1    1
C      -2.143441834     -1.387589992     -1.325258658
C      -0.733474530     -1.472925133     -1.586736804
H      -2.403655901     -0.858343591     -0.278853454
H      -2.912904181     -2.045801567     -1.643828051
H      -0.475127519     -0.688572315     -1.132274063
H       0.223439777     -2.171000963     -2.095388580
           6
  t=        57.50000    1    1
C      -2.147053562     -1.400625095     -1.335515149
C      -0.754334893     -1.496370410     -1.601748144
H      -2.364898516     -0.844254844     -0.253009558
H      -2.968536528     -2.052393682     -1.721926620
H      -0.540742624     -0.646537832     -1.149257833
H       0.238534461     -2.144840924     -2.084064510
           6
  t=        58.00000    1    1
C      -2.150599948     -1.414106524     -1.345461770
C      -0.775348091     -1.520534250     -1.617061069
H      -2.325018597     -0.832231548     -0.236843726
H      -3.021910199     -2.057668107     -1.798849596
H      -0.597118948     -0.594968958     -1.159862168
H       0.242051707     -2.113587076     -2.070716107
           6
  t=        58.50000    1    1
C      -2.154357840     -1.428144499     -1.355184904
C      -0.796257491     -1.544714397     -1.632353321
H      -2.285032819     -0.823205462     -0.231016363
H      -3.070770743     -2.059836104     -1.872594114
H      -0.645625971     -0.540646765     -1.167820114
H       0.234364055     -2.078369831     -2.055763418
           6
  t=        59.00000    1    1
C      -2.158489375     -1.442766005     -1.364754256
C      -0.816931191     -1.568351980     -1.647398801
H      -2.246154033     -0.817870534     -0.235675576
H      -3.113513124     -2.057951798     -1.941598225
H      -0.687088406     -0.488947451     -1.175870525
H       0.216264344     -2.040402696     -2.039744973
           6
  t=        59.50000    1    1
C      -2.163099403     -1.457938928     -1.374220124
C      -0.837320477     -1.591061809     -1.662074081
H      -2.209867591     -0.816764601     -0.250622667
H      -3.148909638     -2.051609661     -2.004560439
H      -0.721817333     -0.443435565     -1.185706806
H       0.188990189     -2.000961298     -2.023338954
           6
  t=        60.00000    1    1
C      -2.168259666     -1.473586474     -1.383617125
C      -0.857434980     -1.612593348     -1.676328740
H      -2.177734979     -0.820199181     -0.275316246
H      -3.176101803     -2.040802759     -2.060445958
H      -0.750082258     -0.406304632     -1.198229428
H       0.154483704     -1.961447850     -2.007409363
           6
  t=        60.50000    1    1
C      -2.174030052     -1.489621477     -1.392980455
C      -0.877333716     -1.632778548     -1.690136023
H      -2.151074781     -0.828191795     -0.309021901
H      -3.194682269     -2.025852887     -2.108524685
H      -0.772181457     -0.378778546     -1.213713934
H       0.115371228     -1.923340219     -1.993044610
           6
  t=        61.00000    1    1
C      -2.180481311     -1.505968585     -1.402351010
C      -0.897121878     -1.651489848     -1.703469839
H      -2.130932031     -0.840645304     -0.350980306
H      -3.204599231     -2.007250974     -2.148255173
H      -0.788264211     -0.361425911     -1.232100470
H       0.074891742     -1.888093868     -1.981428902
           6
  t=        61.50000    1    1
C      -2.187685102     -1.522566822     -1.411779814
C      -0.916950089     -1.668645557     -1.716304879
H      -2.118112793     -0.857379867     -0.400366839
H      -3.206041614     -1.985521810     -2.179219556
H      -0.798496623     -0.354259264     -1.253127293
H       0.036854979     -1.857051255     -1.973760061
           6
  t=        62.00000    1    1
C      -2.195723153     -1.539372027     -1.421335458
C      -0.936972994     -1.684201399     -1.728629447
H      -2.113339382     -0.878051911     -0.456174482
H      -3.199304638     -1.961214831     -2.201025779
H      -0.803033853     -0.356997174     -1.276406749
H       0.005250194     -1.831341757     -1.971146869
           6
  t=        62.50000    1    1
C      -2.204686395     -1.556364930     -1.431108550
C      -0.957275512     -1.698150792     -1.740454993
H      -2.117206964     -0.902050367     -0.517122246
H      -3.184750026     -1.934883718     -2.213344115
H      -0.802053801     -0.369292679     -1.301529990
H      -0.016692471     -1.811677763     -1.974392809
           6
  t=        63.00000    1    1
C      -2.214668640     -1.573573938     -1.441229553
C      -0.977800781     -1.710508250     -1.751814070
H      -2.129967491     -0.928249753     -0.581428002
H      -3.162913384     -1.907142877     -2.216069289
H      -0.795808503     -0.390829058     -1.328081146
H      -0.027493123     -1.798375631     -1.983858695
           6
  t=        63.50000    1    1
C      -2.225734302     -1.591093564     -1.451891072
C      -0.998300924     -1.721305787     -1.762760875
H      -2.151400702     -0.954553641     -0.646316369
H      -3.134812331     -1.878779981     -2.209605421
H      -0.784864248     -0.421228766     -1.355538854
H      -0.027974207     -1.791614008     -1.999496352
           6
  t=        64.00000    1    1
C      -2.237895820     -1.609072370     -1.463322033
C      -1.018344723     -1.730589590     -1.773384067
H      -2.181042358     -0.977772813     -0.707932544
H      -3.102273893     -1.850893855     -2.195078002
H      -0.770061509     -0.460004492     -1.383226001
H      -0.020922509     -1.791650020     -2.020927955
           6
  t=        64.50000    1    1
C      -2.251080775     -1.627686992     -1.475725324
C      -1.037393948     -1.738420616     -1.783806287
H      -2.218443438     -0.993847196     -0.761687196
H      -3.068237814     -1.824945488     -2.174581726
H      -0.752360402     -0.506636569     -1.410392269
H      -0.010163464     -1.798771380     -2.047519563
           6
  t=        65.00000    1    1
C      -2.265104698     -1.647089890     -1.489174687
C      -1.054930227     -1.744849620     -1.794146311
H      -2.263283169     -0.998924321     -0.803676721
H      -3.036577373     -1.802516265     -2.151118796
H      -0.732737770     -0.560774386     -1.436381029
H       0.000457443     -1.813178294     -2.078535239
           6
  t=        65.50000    1    1
C      -2.279640372     -1.667265020     -1.503439005
C      -1.070553587     -1.749929054     -1.804494146
H      -2.315165781     -0.991269764     -0.832602459
H      -3.012200894     -1.785268064     -2.128921679
H      -0.712098413     -0.622027292     -1.460626103
H       0.007692601     -1.834900153     -2.113288751
           6
  t=        66.00000    1    1
C      -2.294286500     -1.687969567     -1.517959976
C      -1.083982711     -1.753756685     -1.814929748
H      -2.373473433     -0.971968481     -0.849926037
H      -3.000976679     -1.774901883     -2.113384755
H      -0.690932288     -0.689520083     -1.482518206
H       0.009148620     -1.863754562     -2.151233207
           6
  t=        66.50000    1    1
C      -2.308679533     -1.708829841     -1.532049648
C      -1.095044483     -1.756507795     -1.825537338
H      -2.437200516     -0.944057190     -0.858731537
H      -3.008717797     -1.772746399     -2.109831098
H      -0.669287597     -0.761617926     -1.501222421
H       0.003286446     -1.899375107     -2.191990228
           6
  t=        67.00000    1    1
C      -2.322651937     -1.729463092     -1.545190761
C      -1.103735108     -1.758442210     -1.836386916
H      -2.504224339     -0.911595749     -0.862835016
H      -3.038696592     -1.779314293     -2.121269817
H      -0.647192790     -0.835664436     -1.515514525
H      -0.010757318     -1.941310366     -2.235288292
           6
  t=        67.50000    1    1
C      -2.336375897     -1.749549237     -1.557251278
C      -1.110232182     -1.759889397     -1.847544353
H      -2.572080072     -0.878730282     -0.865620063
H      -3.089264401     -1.794390387     -2.146722317
H      -0.624177989     -0.907973462     -1.523922858
H      -0.033398172     -1.989203708     -2.280982448
           6
  t=        68.00000    1    1
C      -2.350286757     -1.768858316     -1.568434832
C      -1.114840191     -1.761228778     -1.859109417
H      -2.639040388     -0.848692553     -0.869242199
H      -3.154481403     -1.817347619     -2.182060038
H      -0.598979388     -0.974484135     -1.524883955
H      -0.064751496     -2.042730387     -2.328993972
           6
  t=        68.50000    1    1
C      -2.364865792     -1.787231888     -1.579063383
C      -1.117919548     -1.762814508     -1.871207269
H      -2.703862188     -0.823844342     -0.875088960
H      -3.226979697     -1.847323673     -2.222253830
H      -0.570155328     -1.031788238     -1.516837875
H      -0.104840661     -2.101467082     -2.379196692
           6
  t=        69.00000    1    1
C      -2.380495920     -1.804559331     -1.589434639
C      -1.119823874     -1.764887692     -1.883925961
H      -2.765491259     -0.806062499     -0.884206537
H      -3.300054628     -1.883267671     -2.262875558
H      -0.536731885     -1.078234262     -1.498834431
H      -0.153622113     -2.164684510     -2.431326137
           6
  t=        69.50000    1    1
C      -2.397404453     -1.820759657     -1.599750475
C      -1.120803199     -1.767534386     -1.897273889
H      -2.823016346     -0.796674974     -0.897144357
H      -3.368885030     -1.924258079     -2.301092649
H      -0.498820150     -1.114420085     -1.471102136
H      -0.211029314     -2.231318032     -2.484931441
           6
  t=        70.00000    1    1
C      -2.415702087     -1.835779690     -1.610135328
C      -1.120982635     -1.770715017     -1.911168223
H      -2.875636355     -0.796537146     -0.914188557
H      -3.430272223     -1.969545940     -2.335276785
H      -0.457720195     -1.142747569     -1.435123009
H      -0.276952171     -2.299964510     -2.539376950
           6
  t=        70.50000    1    1
C      -2.435417965     -1.849589338     -1.620675491
C      -1.120412199     -1.774343960     -1.925461883
H      -2.922689727     -0.806236157     -0.935569631
H      -3.482100726     -2.018416745     -2.364361128
H      -0.415522821     -1.166419192     -1.393369794
H      -0.351133676     -2.368927676     -2.593750606
           6
  t=        71.00000    1    1
C      -2.456496806     -1.862183548     -1.631437811
C      -1.119143173     -1.778351243     -1.939989852
H      -2.963726806     -0.826147833     -0.961356413
H      -3.522960136     -2.070046517     -2.387618349
H      -0.374720788     -1.188553484     -1.348926190
H      -0.432988765     -2.436431134     -2.646796976
           6
  t=        71.50000    1    1
C      -2.478801756     -1.873582572     -1.642482656
C      -1.117286401     -1.782712069     -1.954605708
H      -2.998580229     -0.856376172     -0.991410540
H      -3.551922576     -2.123530701     -2.404547175
H      -0.337668812     -1.211648504     -1.304849342
H      -0.521567884     -2.500831526     -2.697123922
           6
  t=        72.00000    1    1
C      -2.502146925     -1.883830060     -1.653867891
C      -1.115024494     -1.787459717     -1.969200733
H      -3.027384852     -0.896685696     -1.025280190
H      -3.568402571     -2.177930519     -2.414885319
H      -0.306183320     -1.237263777     -1.263696923
H      -0.615544331     -2.560826926     -2.743493845
           6
  t=        72.50000    1    1
C      -2.526320880     -1.892994782     -1.665649911
C      -1.112598529     -1.792681243     -1.983707028
H      -3.050564166     -0.946418251     -1.062150863
H      -3.572196291     -2.232311219     -2.418625047
H      -0.281433510     -1.266176679     -1.227476199
H      -0.713175977     -2.615376104     -2.784858774
           6
  t=        73.00000    1    1
C      -2.551081496     -1.901178979     -1.677880394
C      -1.110277464     -1.798488163     -1.998078630
H      -3.068817219     -1.004416641     -1.100903053
H      -3.563657705     -2.285838837     -2.416092020
H      -0.264083084     -1.298793351     -1.197874355
H      -0.812426409     -2.663516997     -2.820257287
           6
  t=        73.50000    1    1
C      -2.576148312     -1.908530500     -1.690621100
C      -1.108332470     -1.804988917     -2.012278018
H      -3.083144148     -1.068871468     -1.140082184
H      -3.543562529     -2.337909696     -2.407899160
H      -0.254481516     -1.335287886     -1.176212504
H      -0.911280979     -2.704434749     -2.848921082
           6
  t=        74.00000    1    1
C      -2.601199737     -1.915265420     -1.703965349
C      -1.107018872     -1.812279233     -2.026280195
H      -3.095088530     -1.137031852     -1.177664644
H      -3.512855979     -2.388173063     -2.394867935
H      -0.252787958     -1.375701434     -1.163480317
H      -1.007881329     -2.737474485     -2.870248535
           6
  t=        74.50000    1    1
C      -2.625828875     -1.921700500     -1.718052434
C      -1.106583857     -1.820444202     -2.040078881
H      -3.107171626     -1.204744727     -1.210721296
H      -3.472814744     -2.436559962     -2.378109096
H      -0.258939072     -1.419953791     -1.160325717
H      -1.100395919     -2.762150109     -2.883825169
           6
  t=        75.00000    1    1
C      -2.649500407     -1.928231668     -1.733064861
C      -1.107296400     -1.829572176     -2.053683079
H      -3.123054372     -1.266623844     -1.235433501
H      -3.425255213     -2.483284792     -2.359033213
H      -0.272611755     -1.467794428     -1.167054615
H      -1.186844180     -2.778113461     -2.889471160
           6
  t=        75.50000    1    1
C      -2.671590115     -1.935219341     -1.749171122
C      -1.109445176     -1.839751681     -2.067116137
H      -3.146908076     -1.317441599     -1.247910688
H      -3.372666566     -2.528889073     -2.339280999
H      -0.293197823     -1.518776727     -1.183577423
H      -1.265172027     -2.785147796     -2.887240084
           6
  t=        76.00000    1    1
C      -2.691478454     -1.942821497     -1.766419539
C      -1.113327490     -1.851039327     -2.080402915
H      -3.182058555     -1.353887649     -1.245478163
H      -3.318151891     -2.574634656     -2.320824182
H      -0.319837092     -1.572312573     -1.209308994
H      -1.333650447     -2.783332768     -2.877548038
           6
  t=        76.50000    1    1
C      -2.708713270     -1.950826747     -1.784601643
C      -1.119254512     -1.863455707     -2.093551781
H      -3.229408907     -1.376185301     -1.228233323
H      -3.265022349     -2.622693811     -2.305893024
H      -0.351447840     -1.627708028     -1.243278114
H      -1.390826822     -2.773240193     -2.861422887
           6
  t=        77.00000    1    1
C      -2.723171356     -1.958714416     -1.803239132
C      -1.127520968     -1.876982863     -2.106564255
H      -3.286822408     -1.387873413     -1.199584550
H      -3.216230358     -2.675626306     -2.296391981
H      -0.386542274     -1.684102980     -1.284040773
H      -1.435329489     -2.756049734     -2.840676987
           6
  t=        77.50000    1    1
C      -2.735075029     -1.965949140     -1.821792839
C      -1.138352716     -1.891527885     -2.119446810
H      -3.350047295     -1.393800682     -1.164878449
H      -3.173583336     -2.735211473     -2.293016938
H      -0.423158334     -1.740599492     -1.329569380
H      -1.466224550     -2.733517593     -2.817642878
           6
  t=        78.00000    1    1
C      -2.744815287     -1.972270484     -1.839906160
C      -1.151901848     -1.906913538     -2.132245068
H      -3.414606719     -1.398100144     -1.129190629
H      -3.137001552     -2.801253372     -2.295051199
H      -0.458938423     -1.796413045     -1.377146363
H      -1.483954902     -2.707706341     -2.794384758
           6
  t=        78.50000    1    1
C      -2.752813219     -1.977746408     -1.857422266
C      -1.168303424     -1.922882591     -2.145031977
H      -3.476809993     -1.403429789     -1.096355665
H      -3.105626489     -2.871313344     -2.300649064
H      -0.490679474     -1.850584938     -1.422882007
H      -1.489645900     -2.681610647     -2.773802963
           6
  t=        79.00000    1    1
C      -2.759437203     -1.982635569     -1.874308180
C      -1.187666863     -1.939055901     -2.157812443
H      -3.533946060     -1.411242602     -1.068875780
H      -3.078718001     -2.941840362     -2.307785090
H      -0.514372195     -1.902071142     -1.462206584
H      -1.485064781     -2.659808242     -2.760324944
           6
  t=        79.50000    1    1
C      -2.764951853     -1.987240598     -1.890575189
C      -1.209988915     -1.954946489     -2.170436702
H      -3.584148310     -1.422358870     -1.048435061
H      -3.055794335     -3.009439516     -2.314968104
H      -0.526690781     -1.950310266     -1.491736121
H      -1.472771390     -2.647631770     -2.758791777
           6
  t=        80.00000    1    1
C      -2.769568508     -1.991839545     -1.906228061
C      -1.235051841     -1.970066507     -2.182581965
H      -3.626040781     -1.437270750     -1.036289860
H      -3.036662842     -3.071422710     -2.321310522
H      -0.526731191     -1.995255452     -1.510766088
H      -1.455314626     -2.649823915     -2.773328682
           6
  t=        80.50000    1    1
C      -2.773472363     -1.996671130     -1.921268177
C      -1.262483551     -1.984121133     -2.193882711
H      -3.658642931     -1.456135337     -1.033213576
H      -3.021360514     -3.125879785     -2.326428171
H      -0.516187927     -2.036872020     -1.521083987
H      -1.434170534     -2.668840923     -2.806097893
           6
  t=        81.00000    1    1
C      -2.776814808     -2.001944414     -1.935719552
C      -1.291879609     -1.997189505     -2.204156942
H      -3.681337280     -1.478836612     -1.039468114
H      -3.010019762     -3.171444002     -2.330237720
H      -0.498402762     -2.074800493     -1.525763468
H      -1.409497620     -2.703090932     -2.855729659
           6
  t=        81.50000    1    1
C      -2.779739570     -2.007833502     -1.949641100
C      -1.322846159     -2.009687239     -2.213489781
H      -3.693729064     -1.505205212     -1.054924008
H      -3.002656621     -3.206939180     -2.332658317
H      -0.477172608     -2.108479746     -1.528004944
H      -1.380858153     -2.747453676     -2.917517605
           6
  t=        82.00000    1    1
C      -2.782425257     -2.014463230     -1.963094532
C      -1.354964739     -2.022152530     -2.222132912
H      -3.695583489     -1.535060867     -1.079222482
H      -2.999090247     -3.231355108     -2.333542156
H      -0.456085129     -2.137446881     -1.530614354
H      -1.347938123     -2.795682115     -2.985428035
           6
  t=        82.50000    1    1
C      -2.785065380     -2.021914139     -1.976111685
C      -1.387771982     -2.035040576     -2.230377344
H      -3.686914232     -1.568070507     -1.111865028
H      -2.998927374     -3.244148897     -2.332969920
H      -0.438191586     -2.161438749     -1.535698932
H      -1.311281379     -2.842531626     -3.053924639
           6
  t=        83.00000    1    1
C      -2.787830393     -2.030243131     -1.988709460
C      -1.420801497     -2.048636429     -2.238443729
H      -3.667987636     -1.603725277     -1.152210809
H      -3.001714802     -3.245243239     -2.331331439
H      -0.425724242     -2.180165096     -1.544452753
H      -1.272368810     -2.884804021     -3.119233738
           6
  t=        83.50000    1    1
C      -2.790862460     -2.039497264     -2.000923413
C      -1.453594164     -2.063097337     -2.246484767
H      -3.639477617     -1.641263179     -1.199274313
H      -3.007191372     -3.235081410     -2.329208727
H      -0.420179350     -2.193307440     -1.557412518
H      -1.233068141     -2.920702073     -3.178978909
           6
  t=        84.00000    1    1
C      -2.794290507     -2.049706441     -2.012813555
C      -1.485692763     -2.078502085     -2.254618688
H      -3.602589859     -1.679668667     -1.251579762
H      -3.015399872     -3.214630444     -2.327311679
H      -0.422493821     -2.200601272     -1.574770277
H      -1.195105848     -2.949243696     -3.231610152
           6
  t=        84.50000    1    1
C      -2.798215682     -2.060882023     -2.024467943
C      -1.516643462     -2.094869893     -2.262943051
H      -3.559336121     -1.717659109     -1.307037319
H      -3.026651310     -3.185288003     -2.326354103
H      -0.433224652     -2.201935116     -1.596546394
H      -1.159804605     -2.970060944     -3.276271371
           6
  t=        85.00000    1    1
C      -2.802658326     -2.073037437     -2.036038440
C      -1.545999166     -2.112184895     -2.271538847
H      -3.513081290     -1.753471574     -1.362498359
H      -3.041378986     -3.148735039     -2.327027118
H      -0.452729967     -2.197316625     -1.622671123
H      -1.128093199     -2.983257213     -3.312715209
           6
  t=        85.50000    1    1
C      -2.807497411     -2.086179954     -2.047786145
C      -1.573339192     -2.130408098     -2.280473042
H      -3.469077120     -1.784214226     -1.412925592
H      -3.059905117     -3.107673954     -2.330487304
H      -0.481173844     -2.186841427     -1.652959163
H      -1.100688409     -2.989304318     -3.341098580
           6
  t=        86.00000    1    1
C      -2.812503326     -2.100291777     -2.060057860
C      -1.598210835     -2.149488038     -2.289825966
H      -3.433962071     -1.806058063     -1.451645802
H      -3.082933648     -3.066104792     -2.338423946
H      -0.518676384     -2.170634222     -1.687148051
H      -1.078257992     -2.988731761     -3.361578292
           6
  t=        86.50000    1    1
C      -2.817468786     -2.115281538     -2.073174852
C      -1.620188316     -2.169354513     -2.299693444
H      -3.413620109     -1.815749415     -1.472404464
H      -3.111739890     -3.028372126     -2.352501570
H      -0.564978475     -2.148944124     -1.724781512
H      -1.061445177     -2.982124786     -3.374230703
           6
  t=        87.00000    1    1
C      -2.822421146     -2.130924506     -2.087209272
C      -1.638933392     -2.189932610     -2.310188956
H      -3.410404812     -1.811638812     -1.472054856
H      -3.148028130     -2.998820004     -2.374410394
H      -0.619124870     -2.122096027     -1.765131697
H      -1.050851755     -2.970034361     -3.379028224
           6
  t=        87.50000    1    1
C      -2.827726448     -2.146861862     -2.101860970
C      -1.654245159     -2.211159676     -2.321455557
H      -3.421963202     -1.794484777     -1.452169502
H      -3.193597069     -2.980903269     -2.405625092
H      -0.679238887     -2.090403021     -1.807075959
H      -1.046940981     -2.952956150     -3.375918221
           6
  t=        88.00000    1    1
C      -2.833996862     -2.162741912     -2.116587355
C      -1.666110228     -2.233004901     -2.333672722
H      -3.442619555     -1.767281497     -1.418169614
H      -3.249478642     -2.975624836     -2.446756141
H      -0.742470639     -2.053993144     -1.848946689
H      -1.050071651     -2.931322815     -3.364863381
           6
  t=        88.50000    1    1
C      -2.841878755     -2.178391438     -2.130888872
C      -1.674743712     -2.255476956     -2.347044954
H      -3.466314239     -1.733904747     -1.376611407
H      -3.315001532     -2.980873521     -2.496926183
H      -0.805032894     -2.012624916     -1.888403692
H      -1.060496833     -2.905571934     -3.346040767
           6
  t=        89.00000    1    1
C      -2.851944142     -2.193837633     -2.144452668
C      -1.680503635     -2.278626919     -2.361778223
H      -3.488331949     -1.698043350     -1.333266917
H      -3.387954772     -2.992389601     -2.553978620
H      -0.862603204     -1.965291976     -1.922619568
H      -1.078383189     -2.876348094     -3.319935943
           6
  t=        89.50000    1    1
C      -2.864613101     -2.209229042     -2.157161935
C      -1.683795500     -2.302511200     -2.378003204
H      -3.505642053     -1.662759349     -1.292565030
H      -3.465299735     -3.005299420     -2.614978739
H      -0.911508504     -1.910385399     -1.949061761
H      -1.103635714     -2.844629694     -3.287422062
           6
  t=        90.00000    1    1
C      -2.880091001     -2.224721799     -2.169042322
C      -1.684988881     -2.327087737     -2.395646344
H      -3.516659711     -1.630020742     -1.257430038
H      -3.543894670     -3.015915026     -2.677029912
H      -0.950437817     -1.846952858     -1.966614305
H      -1.135441118     -2.811729738     -3.250158217
           6
  t=        90.50000    1    1
C      -2.898399447     -2.240417035     -2.180171772
C      -1.684374872     -2.352084909     -2.414332652
H      -3.520548072     -1.601373837     -1.229842967
H      -3.620999643     -3.021743572     -2.737749900
H      -0.981222562     -1.775739107     -1.976238548
H      -1.171818734     -2.779881526     -3.211123787
           6
  t=        91.00000    1    1
C      -2.919401958     -2.256375631     -2.190628987
C      -1.682307701     -2.376949717     -2.433344269
H      -3.516967762     -1.578173040     -1.211106273
H      -3.694504222     -3.021091113     -2.795532130
H      -1.007497866     -1.699168815     -1.980493356
H      -1.208988678     -2.752863851     -3.175680060
           6
  t=        91.50000    1    1
C      -2.942819937     -2.272622985     -2.200479198
C      -1.679414306     -2.400917397     -2.451654581
H      -3.506003163     -1.561372884     -1.202751034
H      -3.762732133     -3.013216361     -2.848758298
H      -1.032576387     -1.621188249     -1.981818075
H      -1.241079445     -2.735327240     -3.152930409
           6
  t=        92.00000    1    1
C      -2.968265451     -2.289133457     -2.209870357
C      -1.676561850     -2.423140677     -2.467984446
H      -3.488018562     -1.551447258     -1.206082439
H      -3.824567613     -2.998574517     -2.895663620
H      -1.058667207     -1.546733519     -1.982095697
H      -1.260923087     -2.731807828     -3.154930321
           6
  t=        92.50000    1    1
C      -2.995290054     -2.305852503     -2.218999548
C      -1.674465309     -2.443059376     -2.481451363
H      -3.463769733     -1.548842156     -1.221174102
H      -3.879238884     -2.977757679     -2.935166715
H      -1.086914038     -1.479617460     -1.983059445
H      -1.264215994     -2.744779562     -3.189121566
           6
  t=        93.00000    1    1
C      -3.023415415     -2.322718019     -2.228052524
C      -1.673398240     -2.460619436     -2.492107502
H      -3.434449625     -1.553762007     -1.247248311
H      -3.926153727     -2.951336474     -2.966658172
H      -1.117617037     -1.422061896     -1.985780436
H      -1.252497323     -2.772629692     -3.252985139
           6
  t=        93.50000    1    1
C      -3.052210228     -2.339671397     -2.237177965
C      -1.673234816     -2.476112128     -2.500748216
H      -3.401412597     -1.566308239     -1.283361598
H      -3.964853798     -2.919771730     -2.989709038
H      -1.150718963     -1.375626597     -1.991170469
H      -1.231566894     -2.810463871     -3.335732857
           6
  t=        94.00000    1    1
C      -3.081310155     -2.356676236     -2.246485922
C      -1.673756153     -2.489898495     -2.508296411
H      -3.366140605     -1.586188152     -1.328385359
H      -3.995194722     -2.883604094     -3.004214417
H      -1.185870929     -1.341345287     -1.999909930
H      -1.207385533     -2.853132077     -3.425609459
           6
  t=        94.50000    1    1
C      -3.110357617     -2.373724927     -2.256090888
C      -1.674884840     -2.502240278     -2.515426877
H      -3.330153350     -1.612622835     -1.380820641
H      -4.017266932     -2.843519239     -3.010311901
H      -1.222631940     -1.319975428     -2.012442935
H      -1.183967257     -2.896941964     -3.514127368
           6
  t=        95.00000    1    1
C      -3.138995973     -2.390843099     -2.266133432
C      -1.676666072     -2.513313997     -2.522573993
H      -3.294972613     -1.644255734     -1.438515723
H      -4.031499844     -2.800395799     -3.008454739
H      -1.260422353     -1.311973913     -2.029064926
H      -1.163651621     -2.939505795     -3.595838688
           6
  t=        95.50000    1    1
C      -3.166881915     -2.408099934     -2.276778872
C      -1.679204726     -2.523243737     -2.530015380
H      -3.262004603     -1.679051475     -1.498591522
H      -4.038718238     -2.755276378     -2.999465025
H      -1.298569910     -1.317545369     -2.049961056
H      -1.147720952     -2.979308826     -3.667337351
           6
  t=        96.00000    1    1
C      -3.193662385     -2.425622162     -2.288227865
C      -1.682638843     -2.532127140     -2.537932490
H      -3.232434960     -1.714093430     -1.557299094
H      -4.040249757     -2.709378623     -2.984612057
H      -1.336375396     -1.336722888     -2.075235626
H      -1.136923268     -3.015343362     -3.726445634
           6
  t=        96.50000    1    1
C      -3.218998213     -2.443589075     -2.300689668
C      -1.687112075     -2.540088464     -2.546442177
H      -3.207052989     -1.745607771     -1.610124980
H      -4.038179407     -2.664071043     -2.965760879
H      -1.372985978     -1.368953543     -2.104828958
H      -1.131566810     -3.046950702     -3.771985776
           6
  t=        97.00000    1    1
C      -3.242550375     -2.462171995     -2.314298374
C      -1.692780089     -2.547295748     -2.555619308
H      -3.186146637     -1.769561008     -1.652383806
H      -4.035737049     -2.620989120     -2.945688830
H      -1.407210279     -1.412878321     -2.138399965
H      -1.131509983     -3.073844108     -3.803717017
           6
  t=        97.50000    1    1
C      -3.263933364     -2.481441208     -2.328973115
C      -1.699779054     -2.553975969     -2.565551653
H      -3.169611620     -1.782764971     -1.680586095
H      -4.037556530     -2.581866702     -2.928294976
H      -1.437825012     -1.466492707     -2.175199570
H      -1.136417519     -3.095940339     -3.821896566
           6
  t=        98.00000    1    1
C      -3.282728810     -2.501316059     -2.344375736
C      -1.708221705     -2.560404807     -2.576365131
H      -3.157258367     -1.784406976     -1.694156434
H      -4.048634787     -2.547683199     -2.917562294
H      -1.463957224     -1.527371622     -2.214085038
H      -1.145996872     -3.113173898     -3.826788581
           6
  t=        98.50000    1    1
C      -3.298583633     -2.521582537     -2.360043486
C      -1.718215469     -2.566926183     -2.588224210
H      -3.149072047     -1.776268090     -1.695223652
H      -4.072731947     -2.518416418     -2.916345935
H      -1.484948182     -1.592295507     -2.253502450
H      -1.160088598     -3.125457508     -3.818517219
           6
  t=        99.00000    1    1
C      -3.311365237     -2.541956655     -2.375593691
C      -1.729887599     -2.574044335     -2.601344296
H      -3.145286378     -1.761726765     -1.687217595
H      -4.110729698     -2.493413039     -2.925340275
H      -1.499788516     -1.655996898     -2.291259749
H      -1.178650310     -3.132709058     -3.797143408
           6
  t=        99.50000    1    1
C      -3.321227269     -2.562133243     -2.390832685
C      -1.743404639     -2.582421331     -2.615969744
H      -3.146294691     -1.744616347     -1.673725556
H      -4.160111857     -2.472008265     -2.942905120
H      -1.506799233     -1.711085430     -2.324648931
H      -1.201668568     -3.134897685     -3.762824084
           6
  t=       100.00000    1    1
C      -3.328537599     -2.581824924     -2.405732390
C      -1.758943731     -2.592692299     -2.632304009
H      -3.152633921     -1.728375190     -1.657925895
H      -4.216052200     -2.453878769     -2.965872603
H      -1.503888337     -1.750155055     -2.351092933
H      -1.229030501     -3.132170717     -3.716036057
           6
  t=       100.50000    1    1
C      -3.333726148     -2.600768039     -2.420343400
C      -1.776630208     -2.605216010     -2.650442430
H      -3.164952384     -1.715706371     -1.642413577
H      -4.273172611     -2.439144357     -2.990730633
H      -1.489435850     -1.768691390     -2.368771036
H      -1.260469614     -3.125086320     -3.657778324
           6
  t=       101.00000    1    1
C      -3.337160353     -2.618706499     -2.434703668
C      -1.796452056     -2.619834959     -2.670273834
H      -3.183650068     -1.708619347     -1.629147116
H      -4.327147715     -2.428371917     -3.014790329
H      -1.463697926     -1.767892889     -2.377430190
H      -1.295420066     -3.114797980     -3.589906733
           6
  t=       101.50000    1    1
C      -3.339156225     -2.635423972     -2.448821160
C      -1.818259764     -2.635846449     -2.691367422
H      -3.208508871     -1.708469916     -1.619539376
H      -4.375055891     -2.422328424     -3.036418849
H      -1.429336344     -1.754383103     -2.378574426
H      -1.332375830     -3.103510191     -3.516175568
           6
  t=       102.00000    1    1
C      -3.340022671     -2.650769449     -2.462687971
C      -1.841908496     -2.652294917     -2.712994268
H      -3.238868550     -1.716109577     -1.614609191
H      -4.414921578     -2.421747677     -3.054741067
H      -1.390055301     -1.735967842     -2.374390845
H      -1.368313507     -3.095017413     -3.443033884
           6
  t=       102.50000    1    1
C      -3.340036975     -2.664653504     -2.476296483
C      -1.867456170     -2.668159572     -2.734175213
H      -3.273910929     -1.731985533     -1.615043006
H      -4.445406318     -2.427236177     -3.069343690
H      -1.349342359     -1.718964991     -2.366971736
H      -1.397907995     -3.095177032     -3.379874339
           6
  t=       103.00000    1    1
C      -3.339444951     -2.677034898     -2.489639512
C      -1.895200667     -2.682484242     -2.753877295
H      -3.312795435     -1.756173392     -1.621238580
H      -4.465651972     -2.439230426     -3.080091691
H      -1.309915546     -1.707415137     -2.357948454
H      -1.413661497     -3.111321192     -3.337196872
           6
  t=       103.50000    1    1
C      -3.338482441     -2.687939213     -2.502716935
C      -1.925274512     -2.694691384     -2.771569084
H      -3.354575150     -1.788281244     -1.633265983
H      -4.475376610     -2.457876506     -3.087088227
H      -1.273805728     -1.703503554     -2.348504916
H      -1.410382639     -3.148087426     -3.319978186
           6
  t=       104.00000    1    1
C      -3.337397349     -2.697411373     -2.515532175
C      -1.957309154     -2.704743573     -2.787398499
H      -3.398274170     -1.827709439     -1.651015694
H      -4.474458858     -2.483204912     -3.090499009
H      -1.242842773     -1.708448501     -2.339526321
H      -1.388776428     -3.204737271     -3.325473525
           6
  t=       104.50000    1    1
C      -3.336470608     -2.705543350     -2.528103851
C      -1.990391711     -2.713121401     -2.801995408
H      -3.442890131     -1.873505656     -1.674055886
H      -4.463048061     -2.515097062     -3.090574924
H      -1.218492118     -1.722817961     -2.331726970
H      -1.355760548     -3.274951160     -3.345422384
           6
  t=       105.00000    1    1
C      -3.335986224     -2.712457073     -2.540463481
C      -2.023496864     -2.720467666     -2.816005740
H      -3.487550705     -1.924426649     -1.701594010
H      -4.441590254     -2.553416348     -3.087668629
H      -1.201616373     -1.746633178     -2.325578470
H      -1.319731936     -3.350975470     -3.371720810
           6
  t=       105.50000    1    1
C      -3.336224446     -2.718292614     -2.552645921
C      -2.055788038     -2.727294700     -2.829853842
H      -3.531559982     -1.978993836     -1.732370785
H      -4.410845818     -2.598038149     -3.082360315
H      -1.192653033     -1.779450277     -2.321326147
H      -1.286817618     -3.427083437     -3.399330834
           6
  t=       106.00000    1    1
C      -3.337441158     -2.723239091     -2.564693576
C      -2.086589586     -2.733948017     -2.843777306
H      -3.574438174     -2.035219168     -1.764428886
H      -4.372325717     -2.648802874     -3.075683243
H      -1.191831244     -1.820581759     -2.319085779
H      -1.260759001     -3.499739711     -3.425724396
           6
  t=       106.50000    1    1
C      -3.339838934     -2.727541419     -2.576658745
C      -2.115297503     -2.740644993     -2.857905340
H      -3.616039523     -2.090525995     -1.795013564
H      -4.328553877     -2.705581583     -3.069244370
H      -1.199326734     -1.869383112     -2.318996866
H      -1.243785566     -3.566785866     -3.449747016
           6
  t=       107.00000    1    1
C      -3.343532544     -2.731460785     -2.588579499
C      -2.141378996     -2.747500327     -2.872307444
H      -3.656692586     -2.142106734     -1.820935782
H      -4.282966478     -2.768392001     -3.065133753
H      -1.215265609     -1.925363510     -2.321266765
H      -1.236987458     -3.627023675     -3.471008536
           6
  t=       107.50000    1    1
C      -3.348515061     -2.735203121     -2.600435225
C      -2.164398962     -2.754558836     -2.887011222
H      -3.697152511     -2.187552073     -1.839314033
H      -4.239757817     -2.837533179     -3.065786944
H      -1.239748895     -1.988148701     -2.326182053
H      -1.240581299     -3.679949797     -3.489585017
           6
  t=       108.00000    1    1
C      -3.354726893     -2.738858230     -2.612119179
C      -2.184001106     -2.761845226     -2.902016166
H      -3.738219155     -2.225398409     -1.848337470
H      -4.203251519     -2.913713108     -3.073661088
H      -1.272827459     -2.057305954     -2.334087540
H      -1.254348331     -3.725388111     -3.505763352
           6
  t=       108.50000    1    1
C      -3.362158887     -2.742399443     -2.623464798
C      -2.199946139     -2.769408359     -2.917312358
H      -3.780319467     -2.255409101     -1.847840635
H      -4.176550266     -2.997836214     -3.090508826
H      -1.314213087     -2.132047924     -2.345228358
H      -1.278007485     -3.763193754     -3.519814119
           6
  t=       109.00000    1    1
C      -3.370963026     -2.745759296     -2.634322436
C      -2.212136253     -2.777340900     -2.932902743
H      -3.823316074     -2.278341228     -1.839199195
H      -4.160282193     -3.090406110     -3.116625261
H      -1.362929903     -2.211062787     -2.359534574
H      -1.311398329     -3.793117561     -3.531884499
           6
  t=       109.50000    1    1
C      -3.381447928     -2.748943965     -2.644644148
C      -2.220698218     -2.785778197     -2.948822088
H      -3.866487048     -2.295619154     -1.824874542
H      -4.152225527     -3.190545194     -3.150403841
H      -1.416898144     -2.292337552     -2.376294571
H      -1.354356402     -3.814939406     -3.541988312
           6
  t=       110.00000    1    1
C      -3.393949830     -2.752090161     -2.654498524
C      -2.226010180     -2.794908092     -2.965161931
H      -3.908697565     -2.308930910     -1.807726769
H      -4.148492021     -3.295653464     -3.188885092
H      -1.472747202     -2.373153452     -2.393853792
H      -1.406762995     -3.828422743     -3.549971454
           6
  t=       110.50000    1    1
C      -3.408701625     -2.755426915     -2.664023426
C      -2.228689391     -2.805003878     -2.982116386
H      -3.948689572     -2.319806205     -1.790460916
H      -4.145274450     -3.402118757     -3.228811223
H      -1.525406855     -2.450011414     -2.409007613
H      -1.468623608     -3.833163600     -3.555635588
           6
  t=       111.00000    1    1
C      -3.425752617     -2.759194079     -2.673370152
C      -2.229527508     -2.816371501     -2.999981817
H      -3.985406780     -2.329459313     -1.775381011
H      -4.140048875     -3.506339881     -3.267372354
H      -1.568563627     -2.519195261     -2.416918521
H      -1.539811286     -3.828761513     -3.558989880
           6
  t=       111.50000    1    1
C      -3.445056463     -2.763608873     -2.682669826
C      -2.229277415     -2.829244365     -3.019080286
H      -4.017933010     -2.338767388     -1.764266900
H      -4.131744005     -3.605284391     -3.302547065
H      -1.596171692     -2.577733528     -2.412168382
H      -1.619940442     -3.814973740     -3.560294007
           6
  t=       112.00000    1    1
C      -3.466472795     -2.768881669     -2.692046963
C      -2.228498526     -2.843633134     -3.039489264
H      -4.045437646     -2.348303297     -1.758521928
H      -4.120220316     -3.696409921     -3.332974102
H      -1.605176712     -2.624565823     -2.391583694
H      -1.708042315     -3.792196375     -3.560272612
           6
  t=       112.50000    1    1
C      -3.489657586     -2.775189316     -2.701642011
C      -2.227559824     -2.859245658     -3.060829619
H      -4.067577126     -2.358594174     -1.758912314
H      -4.105976353     -3.777577922     -3.357895901
H      -1.597154301     -2.660568388     -2.356632022
H      -1.802088941     -3.762538490     -3.560293532
           6
  t=       113.00000    1    1
C      -3.514142352     -2.782631718     -2.711564117
C      -2.226688063     -2.875550872     -3.082375385
H      -4.084592884     -2.369794203     -1.765842561
H      -4.089686381     -3.847574671     -3.376756450
H      -1.577121895     -2.688127779     -2.312256437
H      -1.899027579     -3.729810645     -3.562915018
           6
  t=       113.50000    1    1
C      -3.539453066     -2.791267316     -2.721911590
C      -2.226108143     -2.891818697     -3.103245190
H      -4.097047270     -2.381930374     -1.779312954
H      -4.072089770     -3.905668608     -3.389115286
H      -1.550433686     -2.709778452     -2.264411858
H      -1.995170812     -3.700185962     -3.571953078
           6
  t=       114.00000    1    1
C      -3.565122520     -2.801161693     -2.732801712
C      -2.226095896     -2.907169112     -3.122510993
H      -4.105626645     -2.395024026     -1.798975985
H      -4.053770234     -3.951134105     -3.394700128
H      -1.521162824     -2.727513133     -2.218516979
H      -2.087455809     -3.682080583     -3.592269525
           6
  t=       114.50000    1    1
C      -3.590702211     -2.812349245     -2.744332748
C      -2.226837945     -2.920807783     -3.139396548
H      -4.111259448     -2.408911353     -1.824054967
H      -4.035426476     -3.983634722     -3.393447866
H      -1.492385789     -2.743055546     -2.178858281
H      -2.174299422     -3.683326224     -3.628496296
           6
  t=       115.00000    1    1
C      -3.615789586     -2.824855865     -2.756586534
C      -2.228384934     -2.932444057     -3.153506875
H      -4.115000053     -2.423183382     -1.853405344
H      -4.018342453     -4.003032032     -3.385320494
H      -1.466400188     -2.757727303     -2.148543233
H      -2.255258920     -3.706303456     -3.682439780
           6
  t=       115.50000    1    1
C      -3.640060130     -2.838713597     -2.769647329
C      -2.230756072     -2.942479731     -3.165026548
H      -4.117897182     -2.437178462     -1.885483948
H      -4.003482520     -4.009427383     -3.370556659
H      -1.444423286     -2.772473016     -2.129301809
H      -2.330741905     -3.745458449     -3.750471215
           6
  t=       116.00000    1    1
C      -3.663281124     -2.853929271     -2.783584885
C      -2.234031956     -2.951638063     -3.174485808
H      -4.120988931     -2.450099978     -1.918384901
H      -3.991515275     -4.003162615     -3.349617913
H      -1.427196468     -2.787856154     -2.121886806
H      -2.400112941     -3.791983023     -3.826132802
           6
  t=       116.50000    1    1
C      -3.685286998     -2.870475934     -2.798438157
C      -2.238336728     -2.960552488     -3.182413446
H      -4.125238488     -2.461124118     -1.950157046
H      -3.982760322     -3.984710678     -3.323081720
H      -1.415339907     -2.804107192     -2.126548297
H      -2.461962702     -3.838770928     -3.903783089
           6
  t=       117.00000    1    1
C      -3.705940625     -2.888282040     -2.814209240
C      -2.243781414     -2.969656674     -3.189222777
H      -4.131448931     -2.469447868     -1.979061701
H      -3.977241681     -3.955081870     -3.291910603
H      -1.409346435     -2.821300021     -2.143304450
H      -2.515282276     -3.881226072     -3.979230172
           6
  t=       117.50000    1    1
C      -3.725093778     -2.907190066     -2.830844367
C      -2.250473077     -2.979232595     -3.195222859
H      -4.140213746     -2.474415180     -2.003834362
H      -3.975295733     -3.916390477     -3.257562337
H      -1.409433238     -2.839408193     -2.171987404
H      -2.559415074     -3.916433725     -4.049406673
           6
  t=       118.00000    1    1
C      -3.742579568     -2.926877543     -2.848175776
C      -2.258532749     -2.989469066     -3.200659425
H      -4.151808126     -2.475716804     -2.023993016
H      -3.977824752     -3.872428347     -3.222154758
H      -1.415488733     -2.858274581     -2.212151448
H      -2.593841661     -3.942661011     -4.112193399
           6
  t=       118.50000    1    1
C      -3.758200601     -2.946728416     -2.865859133
C      -2.268080745     -3.000488974     -3.205735338
H      -4.166138572     -2.473427486     -2.039915901
H      -3.986624788     -3.830046692     -3.188926371
H      -1.427184459     -2.877652852     -2.263149266
H      -2.618106380     -3.959104722     -4.166306668
           6
  t=       119.00000    1    1
C      -3.771704491     -2.965800084     -2.883403111
C      -2.279212312     -3.012356815     -3.210614539
H      -4.182813745     -2.467954643     -2.052637330
H      -4.004649889     -3.799673724     -3.162081201
H      -1.444143746     -2.897282399     -2.324260956
H      -2.631895632     -3.965653046     -4.211129040
           6
  t=       119.50000    1    1
C      -3.782808678     -2.983012444     -2.900301977
C      -2.291995925     -3.025103597     -3.215462346
H      -4.201216187     -2.460072824     -2.063603647
H      -4.035743426     -3.793107997     -3.145527706
H      -1.465868828     -2.916931259     -2.394580474
H      -2.635032206     -3.962465547     -4.246268064
           6
  t=       120.00000    1    1
C      -3.791377591     -2.997724369     -2.916246521
C      -2.306511593     -3.038759942     -3.220504419
H      -4.220581352     -2.450680811     -2.074245687
H      -4.082648251     -3.816713954     -3.140660105
H      -1.491264335     -2.936323683     -2.472538039
H      -2.627295253     -3.949829307     -4.271463991
           6
  t=       120.50000    1    1
C      -3.797592842     -3.010155123     -2.931201322
C      -2.322907173     -3.053391441     -3.226047526
H      -4.240113477     -2.440652767     -2.085790641
H      -4.144548549     -3.866444568     -3.145756017
H      -1.518116563     -2.954894878     -2.555578132
H      -2.608584181     -3.928087734     -4.286534262
           6
  t=       121.00000    1    1
C      -3.801916005     -3.021109449     -2.945284533
C      -2.341417550     -3.069095014     -3.232480961
H      -4.258991020     -2.430836464     -2.099262783
H      -4.217432462     -3.931449039     -3.157750392
H      -1.542504671     -2.971531276     -2.639857694
H      -2.579354469     -3.897613507     -4.291316136
           6
  t=       121.50000    1    1
C      -3.804951129     -3.031434886     -2.958636502
C      -2.362281836     -3.085928325     -3.240176134
H      -4.276300768     -2.422108491     -2.115412453
H      -4.296136396     -4.000630624     -3.173987343
H      -1.559059791     -2.984639339     -2.720744281
H      -2.541004966     -3.859434219     -4.286249666
           6
  t=       122.00000    1    1
C      -3.807241510     -3.041715985     -2.971359975
C      -2.385695658     -3.103896373     -3.249393044
H      -4.291253326     -2.415301178     -2.134703149
H      -4.375952081     -4.066176069     -3.192792484
H      -1.562466384     -2.992625251     -2.794283121
H      -2.495544107     -3.815099725     -4.272178147
           6
  t=       122.50000    1    1
C      -3.809196507     -3.052272875     -2.983508270
C      -2.411630992     -3.122944277     -3.260169748
H      -4.303409422     -2.411023137     -2.157378016
H      -4.453377903     -4.123627947     -3.213184770
H      -1.550176808     -2.994473818     -2.859041671
H      -2.444916538     -3.766313422     -4.250183262
           6
  t=       123.00000    1    1
C      -3.811119374     -3.063271580     -2.995118002
C      -2.439659592     -3.142905565     -3.272254452
H      -4.312572842     -2.409673069     -2.183478686
H      -4.526084227     -4.170670460     -3.234549255
H      -1.524363994     -2.989975772     -2.916294499
H      -2.390964561     -3.715207007     -4.222127716
           6
  t=       123.50000    1    1
C      -3.813237765     -3.074796686     -3.006228019
C      -2.469068082     -3.163482558     -3.285190037
H      -4.318736643     -2.411423789     -2.212820679
H      -4.592617078     -4.206289328     -3.256477959
H      -1.490485359     -2.979486106     -2.968011838
H      -2.335479374     -3.664806115     -4.191617741
           6
  t=       124.00000    1    1
C      -3.815744717     -3.086880686     -3.016881070
C      -2.499097877     -3.184276167     -3.298415302
H      -4.322047912     -2.416250486     -2.245010247
H      -4.652168042     -4.230340251     -3.278692836
H      -1.454750498     -2.963732948     -3.015542113
H      -2.279651606     -3.618919968     -4.164154412
           6
  t=       124.50000    1    1
C      -3.818804981     -3.099528458     -3.027123908
C      -2.529133877     -3.204884620     -3.311393259
H      -4.322781945     -2.423963925     -2.279487343
H      -4.704402667     -4.243207237     -3.301021895
H      -1.422384926     -2.943516155     -3.059267778
H      -2.223681093     -3.581283172     -4.145928787
           6
  t=       125.00000    1    1
C      -3.822585549     -3.112753023     -3.037012209
C      -2.558722157     -3.225021554     -3.323784423
H      -4.321368718     -2.434143786     -2.315492493
H      -4.749186447     -4.245396134     -3.323299491
H      -1.397054355     -2.919549361     -3.098872076
H      -2.167025657     -3.554353638     -4.141564518
           6
  t=       125.50000    1    1
C      -3.827267633     -3.126582276     -3.046610561
C      -2.587472694     -3.244592976     -3.335601090
H      -4.318359002     -2.446120080     -2.352044866
H      -4.786498203     -4.237404100     -3.345350669
H      -1.380885834     -2.892359236     -3.133825318
H      -2.109516794     -3.538565111     -4.151830962
           6
  t=       126.00000    1    1
C      -3.833040182     -3.141058167     -3.055987365
C      -2.614948476     -3.263649632     -3.347172813
H      -4.314383878     -2.458976938     -2.387985328
H      -4.816341079     -4.219708024     -3.367020110
H      -1.374947465     -2.862334743     -3.163718070
H      -2.052408006     -3.532863101     -4.173710110
           6
  t=       126.50000    1    1
C      -3.840088082     -3.156231100     -3.065210913
C      -2.640654455     -3.282284712     -3.358957043
H      -4.310154622     -2.471576170     -2.422087093
H      -4.838663249     -4.192825651     -3.388157290
H      -1.379769791     -2.829912212     -3.188363835
H      -1.998205081     -3.535720674     -4.202501189
           6
  t=       127.00000    1    1
C      -3.848600247     -3.172157217     -3.074343993
C      -2.664094313     -3.300572965     -3.371374200
H      -4.306409122     -2.482651552     -2.453170171
H      -4.853254240     -4.157246910     -3.408585869
H      -1.395677448     -2.795626111     -3.207739506
H      -1.949718912     -3.545820026     -4.233825873
           6
  t=       127.50000    1    1
C      -3.858771193     -3.188897603     -3.083446901
C      -2.684830220     -3.318549615     -3.384737829
H      -4.303814485     -2.490925262     -2.480216070
H      -4.859624438     -4.113373088     -3.428042194
H      -1.422949809     -2.760155002     -3.221868191
H      -1.909391882     -3.562211543     -4.264488653
           6
  t=       128.00000    1    1
C      -3.870770634     -3.206496427     -3.092579909
C      -2.702543206     -3.336211139     -3.399238169
H      -4.302829687     -2.495280113     -2.502463502
H      -4.857204649     -4.061701181     -3.446206575
H      -1.461756526     -2.724305878     -3.230838204
H      -1.878943032     -3.584224070     -4.292497178
           6
  t=       128.50000    1    1
C      -3.884690564     -3.224941843     -3.101792668
C      -2.717063540     -3.353520091     -3.414953841
H      -4.303581383     -2.495012961     -2.519552720
H      -4.845806576     -4.003129775     -3.462803357
H      -1.512131432     -2.688973554     -3.234814515
H      -1.859326448     -3.611354719     -4.316793428
           6
  t=       129.00000    1    1
C      -3.900511994     -3.244138829     -3.111110358
C      -2.728360106     -3.370411775     -3.431882577
H      -4.305785935     -2.490083309     -2.531680874
H      -4.825964147     -3.939084069     -3.477662438
H      -1.574001167     -2.655115412     -3.234004035
H      -1.850962255     -3.643164572     -4.336870429
           6
  t=       129.50000    1    1
C      -3.918089149     -3.263894129     -3.120521907
C      -2.736519756     -3.386808351     -3.449959027
H      -4.308777324     -2.481059349     -2.539653640
H      -4.799248809     -3.871726278     -3.490832542
H      -1.647057562     -2.623789746     -3.228626106
H      -1.853955297     -3.679095183     -4.352565081
           6
  t=       130.00000    1    1
C      -3.937129558     -3.283885999     -3.129944852
C      -2.741675066     -3.402635298     -3.469082388
H      -4.311631540     -2.468980233     -2.544539255
H      -4.768933112     -3.804313489     -3.503191206
H      -1.730791283     -2.596036691     -3.219093436
H      -1.868371633     -3.718531959     -4.363702616
           6
  t=       130.50000    1    1
C      -3.957162504     -3.303658133     -3.139177224
C      -2.743962076     -3.417826941     -3.489129592
H      -4.313399678     -2.455230031     -2.547591752
H      -4.740575546     -3.741323748     -3.516938539
H      -1.824417141     -2.572945585     -3.206013970
H      -1.894374751     -3.760743218     -4.370093999
           6
  t=       131.00000    1    1
C      -3.977595370     -3.322688488     -3.147834779
C      -2.743399845     -3.432294893     -3.510015310
H      -4.313234672     -2.441789010     -2.549627771
H      -4.721953376     -3.687386781     -3.536373083
H      -1.927499369     -2.555410232     -3.190576118
H      -1.932304568     -3.805498820     -4.371030883
           6
  t=       131.50000    1    1
C      -3.997552443     -3.340510734     -3.155553930
C      -2.740393381     -3.445937834     -3.531570573
H      -4.310458504     -2.430771736     -2.551198928
H      -4.721972527     -3.646702012     -3.566409335
H      -2.038319235     -2.544186587     -3.174063619
H      -1.981260668     -3.852492768     -4.366109216
           6
  t=       132.00000    1    1
C      -4.016158617     -3.356942002     -3.162215261
C      -2.735788999     -3.458716442     -3.553458678
H      -4.304707280     -2.423300681     -2.553460849
H      -4.746572107     -3.621295530     -3.609799727
H      -2.153635163     -2.539541643     -3.156746747
H      -2.039252474     -3.900957072     -4.356585629
           6
  t=       132.50000    1    1
C      -4.033206507     -3.372117740     -3.167951185
C      -2.730354882     -3.470625273     -3.575329992
H      -4.296076501     -2.420159958     -2.556986841
H      -4.794766116     -3.609489629     -3.666261038
H      -2.270120118     -2.541031269     -3.139207585
H      -2.103815230     -3.950680333     -4.344176263
           6
  t=       133.00000    1    1
C      -4.049081350     -3.386345165     -3.173226275
C      -2.724854458     -3.481670856     -3.596824688
H      -4.285003680     -2.421992476     -2.561969029
H      -4.859116253     -3.607557477     -3.731451123
H      -2.384193089     -2.547725656     -3.122220356
H      -2.171843632     -4.001937836     -4.331008793
           6
  t=       133.50000    1    1
C      -4.064325466     -3.399919556     -3.178618745
C      -2.720014205     -3.491849988     -3.617580383
H      -4.272077572     -2.429387824     -2.568554692
H      -4.930633510     -3.611887295     -3.799443667
H      -2.492453103     -2.558294859     -3.106451460
H      -2.240020293     -4.055601408     -4.319624093
           6
  t=       134.00000    1    1
C      -4.079328327     -3.413046173     -3.184611831
C      -2.716427753     -3.501143519     -3.637255840
H      -4.258166288     -2.442759226     -2.576763788
H      -5.002560280     -3.620023381     -3.865375589
H      -2.591824363     -2.571264774     -3.092485072
H      -2.305596222     -4.112970010     -4.312589095
           6
  t=       134.50000    1    1
C      -4.094244259     -3.425851554     -3.191533947
C      -2.714499830     -3.509540468     -3.655602427
H      -4.244188251     -2.462030046     -2.586340180
H      -5.070945401     -3.630571000     -3.926228769
H      -2.680318934     -2.585685881     -3.080929381
H      -2.366930552     -4.175087596     -4.311619210
           6
  t=       135.00000    1    1
C      -4.109115683     -3.438448465     -3.199602765
C      -2.714433087     -3.517092459     -3.672525622
H      -4.230891803     -2.486597193     -2.596836891
H      -5.133305487     -3.642545987     -3.980127517
H      -2.757112999     -2.601176830     -3.072442840
H      -2.423661973     -4.241963937     -4.316911244
           6
  t=       135.50000    1    1
C      -4.123943104     -3.450978306     -3.208945045
C      -2.716265833     -3.524000180     -3.688126057
H      -4.219289283     -2.515189165     -2.607565007
H      -5.188092265     -3.655128905     -4.025985545
H      -2.821760175     -2.617176082     -3.067348858
H      -2.476310287     -4.312175320     -4.327207442
           6
  t=       136.00000    1    1
C      -4.138714156     -3.463597052     -3.219635138
C      -2.719966408     -3.530567400     -3.702606666
H      -4.210585655     -2.546162656     -2.617642816
H      -5.234411732     -3.667733449     -4.063271921
H      -2.873723018     -2.632912188     -3.065705436
H      -2.525626585     -4.383244648     -4.340558413
           6
  t=       136.50000    1    1
C      -4.153397189     -3.476448684     -3.231698984
C      -2.725476700     -3.537126860     -3.716195794
H      -4.205772389     -2.577804564     -2.626145953
H      -5.271969561     -3.680008224     -4.091987746
H      -2.912735489     -2.647716604     -3.067463019
H      -2.572249332     -4.452224478     -4.354907026
           6
  t=       137.00000    1    1
C      -4.167957490     -3.489637959     -3.245133486
C      -2.732737322     -3.543991194     -3.729104928
H      -4.205470099     -2.608588878     -2.632280441
H      -5.300729288     -3.691784301     -4.112350913
H      -2.938995568     -2.661114254     -3.072424959
H      -2.616517663     -4.516311351     -4.368542857
           6
  t=       137.50000    1    1
C      -4.182366916     -3.503232703     -3.259924177
C      -2.741703511     -3.551405318     -3.741492458
H      -4.210049699     -2.637396198     -2.635474363
H      -5.320785752     -3.702973221     -4.124603940
H      -2.952833852     -2.672816635     -3.080397651
H      -2.658503968     -4.573275099     -4.380274009
           6
  t=       138.00000    1    1
C      -4.196601829     -3.517253734     -3.276051951
C      -2.752354074     -3.559543334     -3.753462750
H      -4.219746570     -2.663642780     -2.635439500
H      -5.332253500     -3.713543229     -4.128903728
H      -2.954558096     -2.682714895     -3.091229605
H      -2.698084750     -4.621517430     -4.389367373
           6
  t=       138.50000    1    1
C      -4.210642517     -3.531665825     -3.293489723
C      -2.764696519     -3.568519698     -3.765076969
H      -4.234658979     -2.687345094     -2.632228964
H      -5.335228223     -3.723538475     -4.125314934
H      -2.944390105     -2.690912448     -3.104830851
H      -2.734989661     -4.659930299     -4.395389001
           6
  t=       139.00000    1    1
C      -4.224474420     -3.546371637     -3.312195788
C      -2.778770327     -3.578402468     -3.776365428
H      -4.254690281     -2.709091021     -2.626268252
H      -5.329762561     -3.733112044     -4.113836664
H      -2.922500095     -2.697785020     -3.121169011
H      -2.768795533     -4.687745869     -4.398082472
           6
  t=       139.50000    1    1
C      -4.238076350     -3.561210724     -3.332105164
C      -2.794651890     -3.589226510     -3.787336846
H      -4.279490442     -2.729900784     -2.618337041
H      -5.315890732     -3.742561603     -4.094480600
H      -2.889151622     -2.704056255     -3.140261299
H      -2.798896833     -4.704419017     -4.397309616
           6
  t=       140.00000    1    1
C      -4.251395290     -3.575964520     -3.353107828
C      -2.812441533     -3.600996651     -3.797987440
H      -4.308468173     -2.751014242     -2.609504785
H      -5.293762620     -3.752362200     -4.067468729
H      -2.844968889     -2.710795515     -3.162124104
H      -2.824547060     -4.709712288     -4.393118652
           6
  t=       140.50000    1    1
C      -4.264337864     -3.590392779     -3.375032011
C      -2.832250549     -3.613687500     -3.808305046
H      -4.340995620     -2.773706683     -2.601029463
H      -5.263767261     -3.763092871     -4.033410477
H      -2.790771506     -2.719082187     -3.186746226
H      -2.844951934     -4.703857237     -4.385845074
           6
  t=       141.00000    1    1
C      -4.276768734     -3.604285629     -3.397632270
C      -2.854199634     -3.627238219     -3.818263563
H      -4.376497240     -2.799174973     -2.594335588
H      -5.226980643     -3.775364795     -3.993545205
H      -2.727034719     -2.729657558     -3.214104108
H      -2.859310223     -4.687530206     -4.376084197
           6
  t=       141.50000    1    1
C      -4.288527800     -3.617498364     -3.420551805
C      -2.878284281     -3.641486718     -3.827831671
H      -4.414484131     -2.828214507     -2.590707414
H      -5.186305396     -3.790025511     -3.950320515
H      -2.653777399     -2.742954683     -3.244135653
H      -2.867150747     -4.662310888     -4.364790970
           6
  t=       142.00000    1    1
C      -4.299341599     -3.629876362     -3.443302147
C      -2.904334653     -3.656173309     -3.836963705
H      -4.454325276     -2.861052702     -2.591042616
H      -5.147252747     -3.808622900     -3.907734968
H      -2.571589568     -2.759747413     -3.276919843
H      -2.868285498     -4.630586930     -4.353354743
           6
  t=       142.50000    1    1
C      -4.308701218     -3.641203386     -3.465284708
C      -2.932053402     -3.670975340     -3.845582328
H      -4.495026573     -2.897279172     -2.595906104
H      -5.118064642     -3.833572343     -3.871125406
H      -2.482854326     -2.781228545     -3.312565577
H      -2.862690638     -4.595581752     -4.343818982
           6
  t=       143.00000    1    1
C      -4.315993950     -3.651243247     -3.485961099
C      -2.961095905     -3.685501183     -3.853558106
H      -4.535817399     -2.936183867     -2.605565323
H      -5.107741264     -3.867747324     -3.845403039
H      -2.390753878     -2.808694756     -3.351295419
H      -2.850361677     -4.561316125     -4.338739998
           6
  t=       143.50000    1    1
C      -4.320898143     -3.659815199     -3.505063151
C      -2.991090173     -3.699311690     -3.860734094
H      -4.575943531     -2.976969904     -2.619990124
H      -5.121893837     -3.913725187     -3.832867120
H      -2.298708624     -2.843250262     -3.393198029
H      -2.831286391     -4.532291811     -4.340825574
           6
  t=       144.00000    1    1
C      -4.323755274     -3.666924161     -3.522653205
C      -3.021618472     -3.712023020     -3.866992557
H      -4.614768819     -3.018722588     -2.638801988
H      -5.158822105     -3.972298589     -3.832306226
H      -2.209941118     -2.885499462     -3.438114193
H      -2.805487284     -4.512541559     -4.352484911
           6
  t=       144.50000    1    1
C      -4.325508496     -3.672822191     -3.538999445
C      -3.052195472     -3.723479205     -3.872356420
H      -4.651789024     -3.060391545     -2.661315488
H      -5.210360586     -4.041619850     -3.840293785
H      -2.127324732     -2.935385957     -3.485559042
H      -2.773305441     -4.503874869     -4.374846117
           6
  t=       145.00000    1    1
C      -4.327247448     -3.677886896     -3.554369834
C      -3.082248396     -3.733824029     -3.877033917
H      -4.686685842     -3.100910470     -2.686599138
H      -5.267093045     -4.118309694     -3.853528313
H      -2.053340550     -2.992319131     -3.534854513
H      -2.735835559     -4.505115185     -4.407146032
           6
  t=       145.50000    1    1
C      -4.329899139     -3.682509891     -3.568962143
C      -3.111118871     -3.743421774     -3.881384152
H      -4.719511033     -3.139264151     -2.713493199
H      -5.321624463     -4.198682813     -3.869685789
H      -1.990010062     -3.055297140     -3.585250192
H      -2.695198435     -4.512957864     -4.446983264
           6
  t=       146.00000    1    1
C      -4.334170349     -3.687034032     -3.582900927
C      -3.138103896     -3.752708528     -3.885833846
H      -4.750696258     -3.174548359     -2.740724764
H      -5.369327963     -4.279493862     -3.887357939
H      -1.938684589     -3.122965270     -3.635960494
H      -2.654192913     -4.523625535     -4.491255772
           6
  t=       146.50000    1    1
C      -4.340558163     -3.691742822     -3.596275404
C      -3.162579330     -3.762071055     -3.890782991
H      -4.780928535     -3.205987450     -2.766970083
H      -5.407746168     -4.358164772     -3.905754238
H      -1.899802701     -3.193686240     -3.686188138
H      -2.615664770     -4.534122520     -4.537045832
           6
  t=       147.00000    1    1
C      -4.349377533     -3.696860010     -3.609157854
C      -3.184064109     -3.771792668     -3.896555787
H      -4.810974240     -3.232956651     -2.791019592
H      -5.435713636     -4.432768713     -3.924441412
H      -1.873251670     -3.265855147     -3.735164324
H      -2.582105104     -4.542563334     -4.582040753
           6
  t=       147.50000    1    1
C      -4.360807578     -3.702560567     -3.621611042
C      -3.202203055     -3.782043060     -3.903390823
H      -4.841444896     -3.255228891     -2.811669876
H      -5.452733841     -4.501629485     -3.943413202
H      -1.859049754     -3.337910798     -3.782407201
H      -2.555478556     -4.548305563     -4.624341244
           6
  t=       148.00000    1    1
C      -4.374825475     -3.708919708     -3.633669047
C      -3.216869918     -3.792909426     -3.911414322
H      -4.872710120     -3.272505307     -2.828839646
H      -5.459250253     -4.564420652     -3.962378981
H      -1.856863726     -3.409057730     -3.827038310
H      -2.537081557     -4.550834702     -4.663287564
           6
  t=       148.50000    1    1
C      -4.391317653     -3.715977100     -3.645348883
C      -3.228048394     -3.804418619     -3.920679025
H      -4.904784910     -3.284714433     -2.842815331
H      -5.455949161     -4.621071747     -3.981204720
H      -1.866648053     -3.478547887     -3.868171651
H      -2.527805892     -4.550248127     -4.698782128
           6
  t=       149.00000    1    1
C      -4.410101257     -3.723775164     -3.656674923
C      -3.235820077     -3.816557901     -3.931184628
H      -4.937369601     -3.292015918     -2.854021712
H      -5.443474722     -4.671395836     -3.999894247
H      -1.888603286     -3.545547348     -3.905018250
H      -2.528313133     -4.547053352     -4.730898506
           6
  t=       149.50000    1    1
C      -4.430925895     -3.732360348     -3.667685178
C      -3.240387450     -3.829290872     -3.942887682
H      -4.969940153     -3.294778207     -2.863035073
H      -5.422460589     -4.715104892     -4.018470313
H      -1.922812937     -3.609238001     -3.936930029
H      -2.538980978     -4.541868356     -4.759750544
           6
  t=       150.00000    1    1
C      -4.453499931     -3.741789007     -3.678428336
C      -3.242059810     -3.842569410     -3.955717582
H      -5.001872416     -3.293561323     -2.870579999
H      -5.393489849     -4.751719710     -4.036872235
H      -1.968956024     -3.668791307     -3.963357637
H      -2.559961087     -4.535342726     -4.785484843
           6
  t=       150.50000    1    1
C      -4.477510394     -3.752137440     -3.688961803
C      -3.241244072     -3.856343449     -3.969584716
H      -5.032548417     -3.289047348     -2.877593249
H      -5.356950423     -4.780459543     -4.054808906
H      -2.026082478     -3.723359218     -3.983674486
H      -2.591314146     -4.528110629     -4.808466097
           6
  t=       151.00000    1    1
C      -4.502622913     -3.763485275     -3.699348165
C      -3.238486469     -3.870575870     -3.984381682
H      -5.061413885     -3.281946273     -2.885159614
H      -5.313125877     -4.800418134     -4.071785906
H      -2.091891466     -3.771980391     -3.997014161
H      -2.633087204     -4.520823128     -4.829504354
           6
  t=       151.50000    1    1
C      -4.528539029     -3.775881425     -3.709637759
C      -3.234463435     -3.885251259     -4.000011421
H      -5.087868263     -3.273109195     -2.893990371
H      -5.262622707     -4.810702668     -4.087630907
H      -2.161931403     -3.813029048     -4.002483361
H      -2.685222094     -4.514748554     -4.849510706
           6
  t=       152.00000    1    1
C      -4.554958591     -3.789310037     -3.719874976
C      -3.229992198     -3.900368513     -4.016375422
H      -5.111439196     -3.263354973     -2.904548950
H      -5.206467343     -4.810999435     -4.102362446
H      -2.229791086     -3.845012482     -3.999249869
H      -2.747414631     -4.511076523     -4.869480262
           6
  t=       152.50000    1    1
C      -4.581604624     -3.803706857     -3.730084554
C      -3.225993697     -3.915947661     -4.033423695
H      -5.131779211     -3.253394019     -2.917127497
H      -5.146063710     -4.801535210     -4.116157930
H      -2.287111785     -3.866619496     -3.986244590
H      -2.819293812     -4.510707993     -4.890313455
           6
  t=       153.00000    1    1
C      -4.608154038     -3.818936531     -3.740275061
C      -3.223502427     -3.932003442     -4.051131535
H      -5.148774065     -3.243921625     -2.931893112
H      -5.083365246     -4.783301871     -4.129383841
H      -2.324552618     -3.877045960     -3.962400706
H      -2.899884455     -4.514197159     -4.912735837
           6
  t=       153.50000    1    1
C      -4.634212216     -3.834737201     -3.750415507
C      -3.223381026     -3.948516859     -4.069476055
H      -5.162529548     -3.235639716     -2.948952415
H      -5.021252176     -4.758807554     -4.142840332
H      -2.335252861     -3.876095446     -3.926728545
H      -2.987484480     -4.521876939     -4.937472258
           6
  t=       154.00000    1    1
C      -4.659353786     -3.850680973     -3.760411255
C      -3.225877777     -3.965410360     -4.088361129
H      -5.173332898     -3.229360404     -2.968399492
H      -4.963259373     -4.732413892     -4.158025942
H      -2.319732312     -3.864481741     -3.879412400
H      -3.079862123     -4.533882551     -4.965018876
           6
  t=       154.50000    1    1
C      -4.683179360     -3.866203281     -3.770072133
C      -3.230608933     -3.982563358     -4.107565609
H      -5.181606373     -3.225815393     -2.990337082
H      -4.912965648     -4.710095940     -4.177405058
H      -2.285772133     -3.843881816     -3.822834561
H      -3.174566720     -4.549994322     -4.995327441
           6
  t=       155.00000    1    1
C      -4.705346901     -3.880693137     -3.779124839
C      -3.236947647     -3.999812184     -4.126767519
H      -5.187835938     -3.225384301     -3.014884504
H      -4.874004771     -4.698911479     -4.204053675
H      -2.243667956     -3.816752863     -3.761038378
H      -3.268727818     -4.569548218     -5.028252422
           6
  t=       155.50000    1    1
C      -4.725614125     -3.893689820     -3.787359855
C      -3.244394880     -4.016979502     -4.145659064
H      -5.192593568     -3.228120428     -3.041869984
H      -4.848623332     -4.704628487     -4.240598906
H      -2.202117841     -3.786003996     -3.698500120
H      -3.359662162     -4.591416723     -5.063026328
           6
  t=       156.00000    1    1
C      -4.743869021     -3.905195763     -3.794825175
C      -3.252714968     -4.033974234     -4.164058183
H      -5.196544663     -3.233732087     -3.070682908
H      -4.836173960     -4.727659965     -4.287609485
H      -2.166524672     -3.753961949     -3.638698340
H      -3.446091608     -4.614208041     -5.097810012
           6
  t=       156.50000    1    1
C      -4.760101668     -3.915694952     -3.801878125
C      -3.261806953     -4.050771088     -4.181848022
H      -5.200553959     -3.241453672     -3.100213253
H      -4.835428400     -4.763104977     -4.342443777
H      -2.139555628     -3.722123313     -3.584002582
H      -3.527033701     -4.636626512     -5.131120184
           6
  t=       157.00000    1    1
C      -4.774327540     -3.925848429     -3.809029084
C      -3.271594079     -4.067359365     -4.198940594
H      -5.205668019     -3.250146952     -3.128994760
H      -4.846034817     -4.804469382     -4.400696773
H      -2.122803459     -3.691735780     -3.536474386
H      -3.600931187     -4.657307509     -5.161733486
           6
  t=       157.50000    1    1
C      -4.786601789     -3.936245790     -3.816749577
C      -3.282029345     -4.083720069     -4.215262523
H      -5.212897261     -3.258473360     -3.155535216
H      -4.867810845     -4.846209618     -4.457958771
H      -2.117219698     -3.663949477     -3.497800259
H      -3.665907355     -4.675183955     -5.189121134
           6
  t=       158.00000    1    1
C      -4.796964260     -3.947292248     -3.825367662
C      -3.293240337     -4.099818189     -4.230797029
H      -5.222901091     -3.265230549     -3.178691302
H      -4.899525742     -4.884543551     -4.510907437
H      -2.123067376     -3.639890354     -3.468909041
H      -3.720275455     -4.689703195     -5.213110822
           6
  t=       158.50000    1    1
C      -4.805450241     -3.959233773     -3.835075244
C      -3.305433006     -4.115622085     -4.245578776
H      -5.235971973     -3.269611004     -3.197892138
H      -4.939223063     -4.917060025     -4.557385949
H      -2.140139890     -3.620493400     -3.450109933
H      -3.763031540     -4.700595004     -5.233421350
           6
  t=       159.00000    1    1
C      -4.812156290     -3.972189520     -3.845950204
C      -3.318733601     -4.131121821     -4.259648560
H      -5.252045490     -3.271441582     -3.213182035
H      -4.985163950     -4.942206093     -4.596150756
H      -2.167868535     -3.606201740     -3.441335148
H      -3.793892693     -4.707840929     -5.249905618
           6
  t=       159.50000    1    1
C      -4.817229944     -3.986186182     -3.857990366
C      -3.333188038     -4.146310489     -4.273023788
H      -5.270724778     -3.271289463     -3.225250147
H      -5.035941078     -4.958827399     -4.626360399
H      -2.205763613     -3.597305937     -3.442611177
H      -3.812847692     -4.711501842     -5.262507962
           6
  t=       160.00000    1    1
C      -4.820849044     -4.001183259     -3.871143265
C      -3.348788093     -4.161172615     -4.285689014
H      -5.291357656     -3.270287046     -3.235202527
H      -5.090463897     -4.966056384     -4.647393275
H      -2.253594925     -3.594143575     -3.454264061
H      -3.819848344     -4.711642284     -5.271227096
           6
  t=       160.50000    1    1
C      -4.823200980     -4.017094590     -3.885328780
C      -3.365481852     -4.175673962     -4.297593151
H      -5.313171820     -3.269809870     -3.244238985
H      -5.147989811     -4.963399246     -4.658875503
H      -2.311445444     -3.597188996     -3.476957586
H      -3.814712303     -4.708340787     -5.276136723
           6
  t=       161.00000    1    1
C      -4.824477989     -4.033795976     -3.900446538
C      -3.383183901     -4.189763893     -4.308664568
H      -5.335345791     -3.271229544     -3.253398849
H      -5.208012567     -4.950813626     -4.660794010
H      -2.379548203     -3.606966138     -3.511461596
H      -3.797261407     -4.701827473     -5.277490295
           6
  t=       161.50000    1    1
C      -4.824897154     -4.051102062     -3.916364105
C      -3.401812558     -4.203400871     -4.318860156
H      -5.356837668     -3.275895315     -3.263400904
H      -5.269973813     -4.928839086     -4.653841809
H      -2.457531703     -3.623492616     -3.557799888
H      -3.767854003     -4.692899479     -5.275943935
           6
  t=       162.00000    1    1
C      -4.824660583     -4.068800479     -3.932925015
C      -3.421341688     -4.216529827     -4.328162277
H      -5.376446952     -3.285166509     -3.274881534
H      -5.333428261     -4.898422857     -4.639204940
H      -2.544135113     -3.646300447     -3.615129949
H      -3.727299869     -4.682904933     -5.272592303
           6
  t=       162.50000    1    1
C      -4.823965411     -4.086681851     -3.949949918
C      -3.441772929     -4.229098840     -4.336560056
H      -5.392964133     -3.300003687     -3.288313994
H      -5.398027110     -4.861029445     -4.618514719
H      -2.637135228     -3.674286084     -3.681623341
H      -3.677012004     -4.673635841     -5.269425898
           6
  t=       163.00000    1    1
C      -4.823062127     -4.104580571     -3.967272875
C      -3.463143640     -4.241117758     -4.344093535
H      -5.405354067     -3.320784880     -3.303861771
H      -5.462837488     -4.818117671     -4.593379110
H      -2.733440278     -3.705729933     -3.754708720
H      -3.618620307     -4.666830916     -5.268744799
           6
  t=       163.50000    1    1
C      -4.822212100     -4.122376192     -3.984747015
C      -3.485620367     -4.252725870     -4.350926487
H      -5.412777267     -3.347505326     -3.321451165
H      -5.526508524     -4.771084918     -4.565607899
H      -2.828141381     -3.737406379     -3.830403290
H      -3.554125123     -4.664098658     -5.272594300
           6
  t=       164.00000    1    1
C      -4.821655525     -4.139969482     -4.002237805
C      -3.509604094     -4.264331809     -4.357499373
H      -5.414700305     -3.379757522     -3.340662095
H      -5.588659238     -4.721590140     -4.536922800
H      -2.913331649     -3.763240891     -3.902249029
H      -3.484707653     -4.666575415     -5.282485444
           6
  t=       164.50000    1    1
C      -4.821630634     -4.157291365     -4.019654579
C      -3.535683164     -4.276683970     -4.364594776
H      -5.410826966     -3.416675468     -3.360598700
H      -5.649253625     -4.671371435     -4.508849614
H      -2.978626852     -3.774047698     -3.961832243
H      -3.411235142     -4.674480302     -5.297957324
           6
  t=       165.00000    1    1
C      -4.822469156     -4.174327729     -4.036913157
C      -3.564194971     -4.290541351     -4.372943163
H      -5.400931929     -3.457154516     -3.380427106
H      -5.708044659     -4.621831365     -4.482506880
H      -3.015504971     -3.761179341     -4.002935075
H      -3.334728922     -4.687287069     -5.317242211
           6
  t=       165.50000    1    1
C      -4.824571584     -4.191100812     -4.053927859
C      -3.594633783     -4.306141074     -4.382843376
H      -5.384997936     -3.499721538     -3.399098321
H      -5.764566799     -4.574139990     -4.458875760
H      -3.024129815     -3.722908320     -4.025885436
H      -3.256761957     -4.703935804     -5.337540026
           6
  t=       166.00000    1    1
C      -4.828422888     -4.207647017     -4.070613546
C      -3.625671582     -4.323040360     -4.394203385
H      -5.363012745     -3.542373233     -3.414939660
H      -5.818067137     -4.529584178     -4.439196998
H      -3.013113185     -3.665789207     -4.036090426
H      -3.179533114     -4.723430653     -5.355986719
           6
  t=       166.50000    1    1
C      -4.834586023     -4.224010234     -4.086911288
C      -3.655709456     -4.340497638     -4.406849087
H      -5.335036078     -3.582733553     -3.426233870
H      -5.867833783     -4.489631424     -4.424305122
H      -2.993046846     -3.600134735     -4.039479801
H      -3.105446892     -4.744680737     -5.370311995
           6
  t=       167.00000    1    1
C      -4.843324154     -4.240289729     -4.102907527
C      -3.683654140     -4.357941942     -4.420646157
H      -5.302091053     -3.618573841     -3.431459896
H      -5.913363573     -4.455040109     -4.413941053
H      -2.971225179     -3.534075037     -4.039844080
H      -3.036580167     -4.766646839     -5.379076024
           6
  t=       167.50000    1    1
C      -4.854636898     -4.256584661     -4.118726871
C      -3.708891971     -4.375071308     -4.435547495
H      -5.265815852     -3.648722623     -3.428579869
H      -5.954447907     -4.425435189     -4.408006236
H      -2.951961061     -3.472052838     -4.039746491
H      -2.974507266     -4.788849313     -5.380928454
           6
  t=       168.00000    1    1
C      -4.868654509     -4.272952673     -4.134442090
C      -3.730872529     -4.391755537     -4.451577037
H      -5.227431280     -3.671777281     -3.416415042
H      -5.990808396     -4.400966275     -4.406086312
H      -2.937550055     -3.416961179     -4.040219366
H      -2.920996748     -4.810512671     -5.375277735
           6
  t=       168.50000    1    1
C      -4.885498608     -4.289386298     -4.150040048
C      -3.749258741     -4.407965973     -4.468741120
H      -5.187549678     -3.687303698     -3.394978900
H      -6.022079778     -4.381611981     -4.407725984
H      -2.929017744     -3.370257139     -4.041663337
H      -2.877343212     -4.831065777     -5.362246062
           6
  t=       169.00000    1    1
C      -4.905221572     -4.305789673     -4.165412013
C      -3.763945640     -4.423713375     -4.487025508
H      -5.146163353     -3.696110651     -3.365557786
H      -6.047906273     -4.367336828     -4.412580569
H      -2.926552925     -3.332430531     -4.044123455
H      -2.844348015     -4.850259583     -5.342311969
           6
  t=       169.50000    1    1
C      -4.927718502     -4.321991883     -4.180373219
C      -3.775065159     -4.439039343     -4.506387207
H      -5.103126015     -3.700238107     -3.330570336
H      -6.068168668     -4.357982820     -4.420419664
H      -2.929748346     -3.303120105     -4.047530435
H      -2.822361728     -4.868114248     -5.316070416
           6
  t=       170.00000    1    1
C      -4.952697237     -4.337794790     -4.194718611
C      -3.782907137     -4.453965354     -4.526737058
H      -5.058572696     -3.702163369     -3.293209941
H      -6.082975029     -4.353489555     -4.431008424
H      -2.938114390     -3.281929699     -4.051795651
H      -2.811658576     -4.884714050     -5.284157256
           6
  t=       170.50000    1    1
C      -4.979688946     -4.353028268     -4.208279429
C      -3.787869409     -4.468473623     -4.547929361
H      -5.013095476     -3.704204755     -3.256753811
H      -6.092709984     -4.353811331     -4.444091378
H      -2.951339649     -3.268725615     -4.056942851
H      -2.812419199     -4.900159207     -5.247273995
           6
  t=       171.00000    1    1
C      -5.008094694     -4.367585406     -4.220958445
C      -3.790425259     -4.482510707     -4.569763696
H      -4.967731811     -3.708170611     -3.224003809
H      -6.098124562     -4.358793587     -4.459367589
H      -2.969273032     -3.263605219     -4.063139525
H      -2.824503436     -4.914609230     -5.206298903
           6
  t=       171.50000    1    1
C      -5.037246187     -4.381417754     -4.232718184
C      -3.791092388     -4.495994700     -4.591996399
H      -4.923922305     -3.715342587     -3.197160744
H      -6.100403883     -4.368144726     -4.476496161
H      -2.991794173     -3.266825796     -4.070689280
H      -2.847200358     -4.928370099     -5.162418404
           6
  t=       172.00000    1    1
C      -5.066460646     -4.394513591     -4.243549887
C      -3.790423919     -4.508817216     -4.614348471
H      -4.883175006     -3.726542367     -3.177745070
H      -6.101350556     -4.381563114     -4.495365971
H      -3.018719810     -3.278676482     -4.079996615
H      -2.878927479     -4.942063780     -5.117247509
           6
  t=       172.50000    1    1
C      -5.095095453     -4.406876470     -4.253448153
C      -3.788997034     -4.520828122     -4.636509535
H      -4.846881913     -3.742204078     -3.166732586
H      -6.103297480     -4.398838244     -4.516159553
H      -3.049864295     -3.299498431     -4.091496711
H      -2.916925290     -4.956872101     -5.072955416
           6
  t=       173.00000    1    1
C      -5.122583651     -4.418511707     -4.262400391
C      -3.787418947     -4.531812798     -4.658146803
H      -4.816384706     -3.762456375     -3.164734877
H      -6.108738070     -4.419858541     -4.539213918
H      -3.085120445     -3.329738184     -4.105619402
H      -2.956986164     -4.974825419     -5.032279107
           6
  t=       173.50000    1    1
C      -5.148470345     -4.429423138     -4.270396626
C      -3.786312979     -4.541499027     -4.678940946
H      -4.793067190     -3.787195893     -3.172008248
H      -6.119748610     -4.444586657     -4.564843868
H      -3.124365932     -3.369824910     -4.122795534
H      -2.993765433     -4.998833251     -4.998140527
           6
  t=       174.00000    1    1
C      -5.172434420     -4.439612944     -4.277441818
C      -3.786253138     -4.549600471     -4.698637366
H      -4.778431824     -3.816206996     -3.188520462
H      -6.137403386     -4.473019007     -4.593164484
H      -3.167327434     -3.419995614     -4.143468563
H      -3.021946315     -5.032263691     -4.972987975
           6
  t=       174.50000    1    1
C      -5.194304010     -4.449090076     -4.283573827
C      -3.787628519     -4.555896726     -4.717095505
H      -4.773951904     -3.849193081     -3.214023873
H      -6.161464757     -4.505104541     -4.623927466
H      -3.213685592     -3.480254760     -4.168056700
H      -3.038024064     -5.077979569     -4.958122876
           6
  t=       175.00000    1    1
C      -5.214057737     -4.457888917     -4.288887689
C      -3.790517037     -4.560367275     -4.734322278
H      -4.780733615     -3.885646462     -3.248028430
H      -6.190501785     -4.540671315     -4.656445914
H      -3.263102510     -3.550244456     -4.196739787
H      -3.041987650     -5.136853175     -4.953327561
           6
  t=       175.50000    1    1
C      -5.231829136     -4.466098036     -4.293563403
C      -3.794716021     -4.563318046     -4.750480291
H      -4.799181059     -3.924669106     -3.289501033
H      -6.222219762     -4.579348855     -4.689649019
H      -3.314747820     -3.628656400     -4.229074806
H      -3.037381835     -5.206760628     -4.957066563
           6
  t=       176.00000    1    1
C      -5.247835903     -4.473856207     -4.297844445
C      -3.799944191     -4.565350811     -4.765842296
H      -4.829213897     -3.965000194     -3.336803790
H      -6.254046705     -4.620606821     -4.722325824
H      -3.366853579     -3.712788985     -4.263724735
H      -3.029384567     -5.283370573     -4.967374567
           6
  t=       176.50000    1    1
C      -5.262319437     -4.481363756     -4.302048272
C      -3.806072370     -4.567291508     -4.780767089
H      -4.869931122     -4.005049804     -3.387635055
H      -6.283661196     -4.663732892     -4.753372431
H      -3.416491748     -3.797519017     -4.297809701
H      -3.022809079     -5.361879824     -4.982478949
           6
  t=       177.00000    1    1
C      -5.275518422     -4.488897438     -4.306609669
C      -3.813284139     -4.570205126     -4.795789047
H      -4.919607151     -4.042578701     -3.438338821
H      -6.309144955     -4.707949489     -4.781872112
H      -3.458844985     -3.873777154     -4.325667948
H      -3.021085015     -5.438386764     -5.001066034
           6
  t=       177.50000    1    1
C      -5.287696070     -4.496826470     -4.312149895
C      -3.822035956     -4.575325911     -4.811630503
H      -4.975522353     -4.074466444     -3.483202816
H      -6.328892310     -4.752473183     -4.807028720
H      -3.487422801     -3.929254600     -4.338779945
H      -3.026452812     -5.509997699     -5.022153917
           6
  t=       178.00000    1    1
C      -5.299108668     -4.505560866     -4.319385208
C      -3.832733208     -4.583477208     -4.828857892
H      -5.034795573     -4.097103835     -3.515282283
H      -6.341738908     -4.796535832     -4.828179328
H      -3.497391496     -3.955480307     -4.330116340
H      -3.039907372     -5.574864732     -5.045095489
           6
  t=       178.50000    1    1
C      -5.309958425     -4.515489823     -4.328985919
C      -3.845410409     -4.594632579     -4.847483975
H      -5.095637484     -4.107035442     -3.527674782
H      -6.346916118     -4.839383807     -4.844836505
H      -3.488290510     -3.953584032     -4.299340038
H      -3.061646541     -5.631744619     -5.069478476
           6
  t=       179.00000    1    1
C      -5.320313313     -4.526811037     -4.341237586
C      -3.859670571     -4.608018207     -4.866896875
H      -5.158051347     -4.102834824     -3.517449387
H      -6.344245983     -4.880459701     -4.856907641
H      -3.464278855     -3.933647158     -4.253808887
H      -3.091606397     -5.679404736     -5.094856844
           6
  t=       179.50000    1    1
C      -5.330064404     -4.539434929     -4.355877240
C      -3.875022902     -4.622779722     -4.886289744
H      -5.223057404     -4.086282846     -3.488414065
H      -6.333965674     -4.919467867     -4.864552276
H      -3.431077662     -3.906861959     -4.202750791
H      -3.129954499     -5.716415351     -5.120782809
           6
  t=       180.00000    1    1
C      -5.339055571     -4.553015350     -4.372204617
C      -3.891069723     -4.638308380     -4.905040652
H      -5.291092675     -4.061640451     -3.449267687
H      -6.316941741     -4.956515105     -4.868298357
H      -3.394072386     -3.880931653     -4.152921140
H      -3.176600785     -5.742083701     -5.147028965
           6
  t=       180.50000    1    1
C      -5.347185071     -4.567166387     -4.389503236
C      -3.907581743     -4.654268532     -4.922778725
H      -5.361999992     -4.033239198     -3.408277955
H      -6.294358807     -4.991990409     -4.868906243
H      -3.356560502     -3.859974755     -4.108335360
H      -3.231164820     -5.756168612     -5.173508423
           6
  t=       181.00000    1    1
C      -5.354410747     -4.581570505     -4.407230286
C      -3.924427469     -4.670442710     -4.939258205
H      -5.434928411     -4.004418217     -3.371294399
H      -6.267564707     -5.026429894     -4.867286308
H      -3.320734191     -3.846390310     -4.071689453
H      -3.293026685     -5.758770737     -5.200161574
           6
  t=       181.50000    1    1
C      -5.360719621     -4.595980498     -4.425002505
C      -3.941540111     -4.686685564     -4.954339446
H      -5.508696887     -3.977500898     -3.341982139
H      -6.238224419     -5.060572429     -4.864488705
H      -3.287886802     -3.841381739     -4.044577554
H      -3.361359587     -5.750301945     -5.226909836
           6
  t=       182.00000    1    1
C      -5.366092704     -4.610198533     -4.442538605
C      -3.958911952     -4.702863811     -4.967955215
H      -5.581900998     -3.954109629     -3.322630424
H      -6.208410685     -5.095343917     -4.861687975
H      -3.258818686     -3.845385984     -4.027760040
H      -3.435013067     -5.731722467     -5.253681908
           6
  t=       182.50000    1    1
C      -5.370488506     -4.624054780     -4.459626056
C      -3.976591081     -4.718791645     -4.980054744
H      -5.653130715     -3.935428168     -3.314666076
H      -6.180435052     -5.131805940     -4.860078906
H      -3.234165892     -3.858515471     -4.021639646
H      -3.512370956     -5.704912204     -5.280590799
           6
  t=       183.00000    1    1
C      -5.373873431     -4.637397477     -4.476104764
C      -3.994666278     -4.734208572     -4.990581794
H      -5.721302866     -3.922284587     -3.318850872
H      -6.156397519     -5.171037661     -4.860681181
H      -3.214383901     -3.880714971     -4.026442834
H      -3.591303357     -5.672931437     -5.308206368
           6
  t=       183.50000    1    1
C      -5.376271264     -4.650102586     -4.491861123
C      -4.013252230     -4.748748234     -4.999438088
H      -5.785580388     -3.915221764     -3.335515542
H      -6.137748013     -5.213893641     -4.864163939
H      -3.199890140     -3.911898953     -4.042349943
H      -3.669130020     -5.640311672     -5.337873099
           6
  t=       184.00000    1    1
C      -5.377787012     -4.662099125     -4.506835328
C      -4.032471692     -4.761954826     -5.006473503
H      -5.845185406     -3.914524486     -3.364711746
H      -6.125000244     -5.260692455     -4.870661011
H      -3.191193880     -3.951873718     -4.069338457
H      -3.742891879     -5.612920256     -5.371929496
           6
  t=       184.50000    1    1
C      -5.378620347     -4.673376822     -4.521005714
C      -4.052376581     -4.773376525     -5.011489369
H      -5.899243291     -3.920425146     -3.406469327
H      -6.117693402     -5.311073341     -4.879810522
H      -3.189009065     -4.000495934     -4.107426622
H      -3.810212584     -5.596535088     -5.413314746
           6
  t=       185.00000    1    1
C      -5.379067069     -4.683984458     -4.534374988
C      -4.072878132     -4.782748147     -5.014329646
H      -5.946771519     -3.933141892     -3.460752515
H      -6.114451326     -5.364039905     -4.890966760
H      -3.194147672     -4.057603758     -4.156657207
H      -3.870171878     -5.594674800     -5.464494635
           6
  t=       185.50000    1    1
C      -5.379530694     -4.694019398     -4.546941512
C      -4.093698819     -4.790169463     -5.015030277
H      -5.986727783     -3.952845056     -3.527365896
H      -6.113333071     -5.418050704     -4.903430966
H      -3.207415566     -4.122875532     -4.217005701
H      -3.923445905     -5.606683193     -5.525979111
           6
  t=       186.00000    1    1
C      -5.380496207     -4.703627594     -4.558694867
C      -4.114431663     -4.796101673     -5.013896880
H      -6.018120482     -3.979542366     -3.605795841
H      -6.112302632     -5.471169278     -4.916652944
H      -3.229282316     -4.195504852     -4.288144613
H      -3.971663203     -5.628060777     -5.595641963
           6
  t=       186.50000    1    1
C      -5.382400304     -4.713007801     -4.569711732
C      -4.134743883     -4.801194611     -5.011477808
H      -6.040590941     -4.012622677     -3.694242809
H      -6.109734583     -5.521455575     -4.930373697
H      -3.258838007     -4.273493518     -4.368649418
H      -4.016479569     -5.653245414     -5.669518586
           6
  t=       187.00000    1    1
C      -5.385626801     -4.722354425     -4.580114436
C      -4.154415101     -4.806077424     -5.008414402
H      -6.054272006     -4.051120803     -3.790302325
H      -6.104574107     -5.567286479     -4.944357623
H      -3.294018399     -4.354259114     -4.456279978
H      -4.058933720     -5.677594648     -5.743389545
           6
  t=       187.50000    1    1
C      -5.390425868     -4.731843521     -4.590039189
C      -4.173458100     -4.811327287     -5.005379185
H      -6.059932458     -4.093566330     -3.891498879
H      -6.096195883     -5.607589581     -4.958129274
H      -3.331152664     -4.434762404     -4.547658718
H      -4.099419799     -5.697715281     -5.813946781
           6
  t=       188.00000    1    1
C      -5.396878043     -4.741666715     -4.599660000
C      -4.192197034     -4.817471895     -5.003038910
H      -6.059356835     -4.137697769     -3.994815486
H      -6.084312256     -5.641780349     -4.971334423
H      -3.363829397     -4.511222975     -4.638397710
H      -4.138030129     -5.711662566     -5.878931186
           6
  t=       188.50000    1    1
C      -5.404880534     -4.752079867     -4.609230984
C      -4.211268202     -4.824970739     -5.001996710
H      -6.055879624     -4.180002412     -4.096160121
H      -6.068956783     -5.669700786     -4.983891802
H      -3.382367051     -4.579527672     -4.723947421
H      -4.174721111     -5.718696489     -5.936850903
           6
  t=       189.00000    1    1
C      -5.414176475     -4.763461517     -4.619073485
C      -4.231303566     -4.834125755     -5.002680801
H      -6.054977097     -4.215163329     -4.190468766
H      -6.050372584     -5.691538431     -4.995759272
H      -3.376696542     -4.636914366     -4.801535444
H      -4.209372924     -5.718600202     -5.986652972
           6
  t=       189.50000    1    1
C      -5.424326621     -4.776253361     -4.629504726
C      -4.252339874     -4.844918214     -5.005152815
H      -6.063700180     -4.236966470     -4.272872049
H      -6.029009262     -5.707716037     -5.007016371
H      -3.344069477     -4.683622287     -4.871998676
H      -4.242029455     -5.711885847     -6.027776009
           6
  t=       190.00000    1    1
C      -5.434993009     -4.790790053     -4.640667316
C      -4.273585221     -4.857122795     -5.009302682
H      -6.088154934     -4.240360663     -4.340651803
H      -6.005434654     -5.718887423     -5.017709804
H      -3.291097823     -4.721936364     -4.937837899
H      -4.272867975     -5.699363082     -6.060002989
           6
  t=       190.50000    1    1
C      -5.446236877     -4.807051355     -4.652425302
C      -4.293879778     -4.870503237     -5.015074343
H      -6.129805699     -4.224306609     -4.394380161
H      -5.980516806     -5.726047493     -5.027972366
H      -3.228349582     -4.754044164     -5.000685155
H      -4.302078558     -5.681945076     -6.083284907
           6
  t=       191.00000    1    1
C      -5.458546372     -4.824597098     -4.664443734
C      -4.312179693     -4.884877291     -5.022506979
H      -6.184378247     -4.192594564     -4.436993139
H      -5.955634434     -5.730588890     -5.038062622
H      -3.165260392     -4.781254024     -5.060789889
H      -4.329742681     -5.660557149     -6.097701985
           6
  t=       191.50000    1    1
C      -5.472517696     -4.842781459     -4.676374746
C      -4.327742815     -4.900117153     -5.031690542
H      -6.245189453     -4.151384713     -4.471585627
H      -5.932715433     -5.734110337     -5.048349616
H      -3.108452625     -4.804116169     -5.117610001
H      -4.355732248     -5.636108440     -6.103405626
           6
  t=       192.00000    1    1
C      -5.488583197     -4.860960070     -4.687945419
C      -4.340151797     -4.916143847     -5.042715692
H      -6.306270917     -4.106656819     -4.500340331
H      -5.913894076     -5.738253996     -5.059401476
H      -3.061916722     -4.822709733     -5.170411178
H      -4.379712243     -5.609517027     -6.100551055
           6
  t=       192.50000    1    1
C      -5.506906621     -4.878604287     -4.698979681
C      -4.349325401     -4.932898326     -5.055614493
H      -6.363533078     -4.062947550     -4.524548551
H      -5.900875387     -5.744584022     -5.071985282
H      -3.027328206     -4.836928635     -5.218573725
H      -4.401408527     -5.581790897     -6.089415544
           6
  t=       193.00000    1    1
C      -5.527392803     -4.895336841     -4.709397353
C      -4.355422167     -4.950281250     -5.070310533
H      -6.414527829     -4.023402083     -4.544977456
H      -5.894892809     -5.754365235     -5.086888123
H      -3.005211811     -4.846710118     -5.261618184
H      -4.420755852     -5.554261925     -6.070790158
           6
  t=       193.50000    1    1
C      -5.549781717     -4.910918167     -4.719190093
C      -4.358741315     -4.968121294     -5.086607118
H      -6.457777926     -3.990164584     -4.562153114
H      -5.896947780     -5.768517574     -5.104653838
H      -2.995569605     -4.852108167     -5.299142059
H      -4.437760967     -5.528708074     -6.046450636
           6
  t=       194.00000    1    1
C      -5.573737252     -4.925224087     -4.728406407
C      -4.359662223     -4.986177167     -5.104179204
H      -6.492290823     -3.964752718     -4.576502223
H      -5.907684812     -5.787430930     -5.125446717
H      -2.998128529     -4.853273526     -5.330801301
H      -4.452529390     -5.507425833     -6.019445202
           6
  t=       194.50000    1    1
C      -5.598902499     -4.938228661     -4.737146280
C      -4.358593872     -5.004154198     -5.122565122
H      -6.517384599     -3.948293704     -4.588410662
H      -5.927110324     -5.810726902     -5.149054474
H      -3.012517062     -4.850418092     -5.356333876
H      -4.465487668     -5.493274763     -5.994171970
           6
  t=       195.00000    1    1
C      -5.624927566     -4.949990427     -4.745553230
C      -4.355921551     -5.021729875     -5.141204779
H      -6.532712361     -3.941559167     -4.598210561
H      -5.954634060     -5.837288458     -5.174920709
H      -3.038401250     -4.843792845     -5.375550331
H      -4.477485143     -5.489494779     -5.976008465
           6
  t=       195.50000    1    1
C      -5.651486209     -4.960630629     -4.753796806
C      -4.351989537     -5.038593106     -5.159538951
H      -6.538237550     -3.944997869     -4.606163409
H      -5.989348453     -5.865519354     -5.202188923
H      -3.075415411     -4.833687959     -5.388313876
H      -4.489616731     -5.499205297     -5.970329699
           6
  t=       196.00000    1    1
C      -5.678289825     -4.970311800     -4.762050575
C      -4.347132753     -5.054513826     -5.177166111
H      -6.534168405     -3.958766671     -4.612440758
H      -6.030270708     -5.893595922     -5.229775576
H      -3.122957364     -4.820412870     -5.394550779
H      -4.502707231     -5.524568422     -5.980837715
           6
  t=       196.50000    1    1
C      -5.705097953     -4.979215737     -4.770474063
C      -4.341728231     -5.069436528     -5.194007851
H      -6.520906906     -3.982761035     -4.617106275
H      -6.076480401     -5.919662499     -5.256478651
H      -3.180031229     -4.804234651     -5.394272272
H      -4.516643654     -5.565772417     -6.007693046
           6
  t=       197.00000    1    1
C      -5.731710283     -4.987534399     -4.779214200
C      -4.336246869     -5.083530049     -5.210313417
H      -6.499159520     -4.016504299     -4.620124059
H      -6.127014107     -5.942015628     -5.281109734
H      -3.244843491     -4.785283507     -5.387732016
H      -4.530252208     -5.620568078     -6.047145621
           6
  t=       197.50000    1    1
C      -5.757935297     -4.995475901     -4.788417763
C      -4.331282988     -5.097146378     -5.226490383
H      -6.470136115     -4.058885016     -4.621334841
H      -6.180591827     -5.959307537     -5.302657742
H      -3.314265090     -4.763390676     -5.375549666
H      -4.541932429     -5.684909384     -6.093140707
           6
  t=       198.00000    1    1
C      -5.783536872     -5.003294979     -4.798245461
C      -4.327551512     -5.110721493     -5.242898996
H      -6.435694333     -4.107815177     -4.620353774
H      -6.235667320     -5.970597188     -5.320373936
H      -3.383666746     -4.737744796     -5.358631308
H      -4.550296958     -5.754406405     -6.139698242
           6
  t=       198.50000    1    1
C      -5.808202673     -5.011325267     -4.808865173
C      -4.325854082     -5.124711022     -5.259749413
H      -6.398420226     -4.159959895     -4.616532285
H      -6.290757850     -5.975272275     -5.333696305
H      -3.447260984     -4.706588364     -5.337989835
H      -4.554199540     -5.825359267     -6.182511361
           6
  t=       199.00000    1    1
C      -5.831511857     -5.020027657     -4.820470762
C      -4.326979616     -5.139563678     -5.277130561
H      -6.361933459     -4.210229483     -4.608730308
H      -6.344744393     -5.973018201     -5.342153705
H      -3.499187448     -4.667333568     -5.314434584
H      -4.552614019     -5.894921485     -6.219012305
           6
  t=       199.50000    1    1
C      -5.852980324     -5.029974384     -4.833300660
C      -4.331414256     -5.155610375     -5.295075916
H      -6.330737001     -4.251798398     -4.594960429
H      -6.396928697     -5.963965135     -5.345529991
H      -3.536282774     -4.617889567     -5.288243059
H      -4.544874741     -5.961117643     -6.247887175
           6
  t=       200.00000    1    1
C      -5.872179078     -5.041720431     -4.847617259
C      -4.339186682     -5.172928122     -5.313592321
H      -6.308807813     -4.277920744     -4.572715335
H      -6.446939024     -5.948486388     -5.343833690
H      -3.559935919     -4.558502540     -5.259359259
H      -4.530757515     -6.022543559     -6.268482635
