           6
  t=         0.00000    2    2
C      -0.673732851     -0.007091001      0.003998421
C       0.675087518     -0.000941121     -0.002020150
H      -1.199689140      1.010176181     -0.016355661
H      -1.237983261     -0.942714130     -0.035833351
H       1.201047358      0.909920108      0.019775850
H       1.220483222     -0.881674121      0.008840831
           6
  t=         0.50000    2    2
C      -0.677067427     -0.007257126      0.003089299
C       0.676382705     -0.000115972     -0.002045575
H      -1.196012653      1.015333787     -0.010557646
H      -1.236226056     -0.950136989     -0.033109093
H       1.211446449      0.901403700      0.019189743
H       1.228951875     -0.878744079      0.012040577
           6
  t=         1.00000    2    2
C      -0.681755241     -0.007107298      0.002175857
C       0.678577073      0.000775257     -0.002071500
H      -1.191281956      1.015073457     -0.004508976
H      -1.234470769     -0.955593423     -0.030581580
H       1.223684170      0.895657206      0.018362060
H       1.239940002     -0.879684638      0.015485431
           6
  t=         1.50000    2    2
C      -0.687675990     -0.006668095      0.001256544
C       0.681627901      0.001669136     -0.002100508
H      -1.185761035      1.009570415      0.001886924
H      -1.232733020     -0.958889208     -0.028332820
H       1.237636010      0.892870127      0.017186090
H       1.252927277     -0.883982209      0.019316791
           6
  t=         2.00000    2    2
C      -0.694666308     -0.005982930      0.000329655
C       0.685498793      0.002501981     -0.002134378
H      -1.179879732      0.999378067      0.008736834
H      -1.231109230     -0.960007103     -0.026449696
H       1.253018803      0.892925722      0.015547484
H       1.267210192     -0.890814587      0.023670612
           6
  t=         2.50000    2    2
C      -0.702522495     -0.005114729     -0.000606547
C       0.690152950      0.003219956     -0.002174736
H      -1.174229574      0.985458186      0.016161661
H      -1.229768816     -0.959110430     -0.025025080
H       1.269399650      0.895427704      0.013330358
H       1.281993852     -0.899192632      0.028674834
           6
  t=         3.00000    1    1
C      -0.711007334     -0.004147821     -0.001554355
C       0.695547522      0.003784977     -0.002223775
H      -1.169554577      0.969183914      0.024305766
H      -1.228941469     -0.956527189     -0.024158765
H       1.286232353      0.899771128      0.010422483
H       1.296482164     -0.908097901      0.034450557
           6
  t=         3.50000    1    1
C      -0.714404581      0.001685605      0.002355566
C       0.705907843      0.009033364      0.002610960
H      -1.108721911      1.010411031      0.090616206
H      -1.170882708     -0.894894134      0.034529145
H       1.360783998      0.963306499      0.065200149
H       1.367885725     -0.858724011      0.098291836
           6
  t=         4.00000    1    1
C      -0.716420231      0.008275572      0.006321816
C       0.716085370      0.014541763      0.007640928
H      -1.050207636      1.050023125      0.155824444
H      -1.118266261     -0.839843823      0.093474409
H       1.430822522      1.023277088      0.119353291
H       1.437278560     -0.809700502      0.160604964
           6
  t=         4.50000    1    1
C      -0.716471424      0.016565130      0.010299278
C       0.726294010      0.020544457      0.013027750
H      -0.994463791      1.086310822      0.219389732
H      -1.076250090     -0.800799757      0.153745565
H       1.493621985      1.076939876      0.171764175
H       1.503502614     -0.761180163      0.220591653
           6
  t=         5.00000    1    1
C      -0.714145693      0.027344612      0.014171678
C       0.736732152      0.027165054      0.018922683
H      -0.941881298      1.117594846      0.280719890
H      -1.048673895     -0.785581794      0.217429094
H       1.547475737      1.122866738      0.221299453
H       1.565216366     -0.713125978      0.277474122
           6
  t=         5.50000    1    1
C      -0.709346327      0.040793775      0.017865766
C       0.747549611      0.034464070      0.025453287
H      -0.892823462      1.142754509      0.339244403
H      -1.035818426     -0.795443225      0.286154139
H       1.591561359      1.160443155      0.266998492
H       1.620948788     -0.665412466      0.330507187
           6
  t=         6.00000    1    1
C      -0.702331634      0.056403245      0.021488836
C       0.758881240      0.042447123      0.032715308
H      -0.847571966      1.161307870      0.394462627
H      -1.034436244     -0.824001897      0.359327797
H       1.625724702      1.189658715      0.308219091
H       1.669359321     -0.617926830      0.379007294
           6
  t=         6.50000    1    1
C      -0.693479758      0.073396719      0.025295677
C       0.770814608      0.051074117      0.040794363
H      -0.806266664      1.173247065      0.445896421
H      -1.040055437     -0.861971292      0.434432686
H       1.650164894      1.210864737      0.344639125
H       1.709379172     -0.570571105      0.422235896
           6
  t=         7.00000    1    1
C      -0.683098332      0.091099924      0.029558920
C       0.783387656      0.060299247      0.049784225
H      -0.768930067      1.178999766      0.493138427
H      -1.048856779     -0.901611055      0.508492316
H       1.665124541      1.224519754      0.376063216
H       1.740182582     -0.523391626      0.459406252
           6
  t=         7.50000    1    1
C      -0.671364183      0.109053188      0.034514062
C       0.796634843      0.070113576      0.059776394
H      -0.735674941      1.179133422      0.535822514
H      -1.058403745     -0.937881404      0.578976063
H       1.670568750      1.231093589      0.402211887
H       1.761177102     -0.476881658      0.489798225
           6
  t=         8.00000    1    1
C      -0.658352273      0.126922109      0.040389937
C       0.810570998      0.080542967      0.070837594
H      -0.706854061      1.174260274      0.573599053
H      -1.067074790     -0.967232089      0.643616739
H       1.666236070      1.231050078      0.422686830
H       1.772071927     -0.431991079      0.512905171
           6
  t=         8.50000    1    1
C      -0.644092382      0.144443534      0.047382614
C       0.825113694      0.091641821      0.082942704
H      -0.682890936      1.165149058      0.606390441
H      -1.073630924     -0.987101074      0.700521857
H       1.652007574      1.224919578      0.437157926
H       1.773507541     -0.390093598      0.528990332
           6
  t=         9.00000    1    1
C      -0.628616093      0.161449870      0.055595356
C       0.840104398      0.103496727      0.095965503
H      -0.664083222      1.152598908      0.634477492
H      -1.077331947     -0.996230413      0.748701958
H       1.628022464      1.213230929      0.445494523
H       1.767167544     -0.352809915      0.539166570
           6
  t=         9.50000    1    1
C      -0.611945882      0.177870484      0.065018912
C       0.855314317      0.116209266      0.109769268
H      -0.650399428      1.137428768      0.658263388
H      -1.077957684     -0.994742025      0.788132882
H       1.594644770      1.196569836      0.447743400
H       1.755430288     -0.321791535      0.544747439
           6
  t=        10.00000    1    1
C      -0.594113913      0.193632028      0.075598659
C       0.870464476      0.129882204      0.124212552
H      -0.641742328      1.120787737      0.678260532
H      -1.075506595     -0.983191340      0.819057017
H       1.552552284      1.175878806      0.444094571
H       1.741226639     -0.298925150      0.547124475
           6
  t=        10.50000    1    1
C      -0.575168790      0.208602705      0.087279337
C       0.885250785      0.144606129      0.139139669
H      -0.638161577      1.104279364      0.695149455
H      -1.069989718     -0.961967268      0.841554235
H       1.502786954      1.152462883      0.434878079
H       1.727777925     -0.286239439      0.547720785
           6
  t=        11.00000    1    1
C      -0.555155966      0.222588520      0.100024687
C       0.899359721      0.160420108      0.154396095
H      -0.639851635      1.089822285      0.709754067
H      -1.061354736     -0.931097382      0.855382619
H       1.446819126      1.128087317      0.420581817
H       1.718033407     -0.285544607      0.547739771
           6
  t=        11.50000    1    1
C      -0.534109802      0.235371600      0.113811620
C       0.912497261      0.177224412      0.169842455
H      -0.646956522      1.079346546      0.722935335
H      -1.049485286     -0.890383794      0.860128186
H       1.386719982      1.105375294      0.402051760
H       1.713862445     -0.297807370      0.547824370
           6
  t=        12.00000    1    1
C      -0.512069450      0.246754629      0.128650535
C       0.924410545      0.194678099      0.185349939
H      -0.659421263      1.074510686      0.735233668
H      -1.034249355     -0.839693438      0.855317259
H       1.325508685      1.088676934      0.380718081
H       1.715538430     -0.322755715      0.547888603
           6
  t=        12.50000    1    1
C      -0.489116179      0.256598344      0.144570949
C       0.934914004      0.212183730      0.200825821
H      -0.677008789      1.076461020      0.746706925
H      -1.015556938     -0.779307650      0.840621138
H       1.267271308      1.084377927      0.358352098
H       1.721827774     -0.358862023      0.547185183
           6
  t=        13.00000    1    1
C      -0.465375356      0.264883651      0.161580099
C       0.943959229      0.229016306      0.216242930
H      -0.699388003      1.085518208      0.757077953
H      -0.993460727     -0.710155688      0.816199884
H       1.215948461      1.099435593      0.336331104
H       1.730582112     -0.403608651      0.544691424
           6
  t=        13.50000    1    1
C      -0.441015851      0.271740804      0.179665072
C       0.951692748      0.244608954      0.231642584
H      -0.725924483      1.100929323      0.765647610
H      -0.968409216     -0.633958431      0.782865109
H       1.174050681      1.138296689      0.315099868
H       1.739371184     -0.453765927      0.539511632
           6
  t=        14.00000    1    1
C      -0.416206985      0.277457503      0.198806019
C       0.958443295      0.258875360      0.247106840
H      -0.755608758      1.121433505      0.771228317
H      -0.941562430     -0.553789245      0.742125426
H       1.142048909      1.199311797      0.294212989
H       1.745975114     -0.505749870      0.531028931
           6
  t=        14.50000    1    1
C      -0.391121579      0.282473198      0.218932558
C       0.964647183      0.272213021      0.262705828
H      -0.787200317      1.145775846      0.772508825
H      -0.914996330     -0.474339550      0.696255562
H       1.119340054      1.274820263      0.273079844
H       1.748692726     -0.555926275      0.518873444
           6
  t=        15.00000    1    1
C      -0.365830371      0.287408329      0.239860734
C       0.970716058      0.285120719      0.278472204
H      -0.819539511      1.172672718      0.768290874
H      -0.892197558     -0.402090289      0.648688656
H       1.105247662      1.356452686      0.251564795
H       1.746465362     -0.601497466      0.502748782
           6
  t=        15.50000    1    1
C      -0.340235768      0.293094115      0.261261639
C       0.977023427      0.297999721      0.294397390
H      -0.851524287      1.200768209      0.757693181
H      -0.878814057     -0.345532229      0.604112762
H       1.099225007      1.437173125      0.230060014
H       1.738772128     -0.640266715      0.482477374
           6
  t=        16.00000    1    1
C      -0.314235511      0.300375876      0.282810938
C       0.983955104      0.311161262      0.310437059
H      -0.881736891      1.228607885      0.740118933
H      -0.881615634     -0.313351211      0.566732777
H       1.101071440      1.511700357      0.209267915
H       1.725350041     -0.670593661      0.458141562
           6
  t=        16.50000    1    1
C      -0.287943901      0.309696369      0.304434987
C       0.991807487      0.324858499      0.326462892
H      -0.908341683      1.254402662      0.716036642
H      -0.904361391     -0.309234762      0.536946419
H       1.110550451      1.576119261      0.189682689
H       1.706189224     -0.691378870      0.430787472
           6
  t=        17.00000    1    1
C      -0.261848435      0.320855036      0.326345993
C       1.000732271      0.339166655      0.342359598
H      -0.929950973      1.276959292      0.686529695
H      -0.944298075     -0.329346708      0.511312444
H       1.127177530      1.628504943      0.171415050
H       1.681634571     -0.701846900      0.401507410
           6
  t=        17.50000    1    1
C      -0.236838912      0.333247718      0.348753832
C       1.010866596      0.354032876      0.358054780
H      -0.945647864      1.295693736      0.652430713
H      -0.993193993     -0.364970898      0.486365674
H       1.150030949      1.668210110      0.154822057
H       1.652427674     -0.701653838      0.370938736
           6
  t=        18.00000    1    1
C      -0.213814017      0.346320243      0.371721474
C       1.022388314      0.369387758      0.373479313
H      -0.954852602      1.310126446      0.614488500
H      -1.043105897     -0.407960038      0.460480358
H       1.178135817      1.695120405      0.140314835
H       1.619609601     -0.690922728      0.339620590
           6
  t=        18.50000    1    1
C      -0.193471583      0.359714023      0.395195985
C       1.035479407      0.385182278      0.388565250
H      -0.957266749      1.319787821      0.573583137
H      -1.088540587     -0.452540197      0.433387478
H       1.210631465      1.709271555      0.128164598
H       1.584396125     -0.670136666      0.308111096
           6
  t=        19.00000    1    1
C      -0.176304638      0.373224920      0.419058065
C       1.050269280      0.401403817      0.403250587
H      -0.952838532      1.324349314      0.530758845
H      -1.125858713     -0.494876310      0.405482607
H       1.246778621      1.710647996      0.118550110
H       1.548168203     -0.640203812      0.276952027
           6
  t=        19.50000    1    1
C      -0.162608151      0.386743588      0.443163163
C       1.066791099      0.418093996      0.417478703
H      -0.941762405      1.323820267      0.487200584
H      -1.152687946     -0.532565389      0.377376342
H       1.285935307      1.699143711      0.111605044
H       1.512509481     -0.602623476      0.246611297
           6
  t=        20.00000    1    1
C      -0.152517505      0.400219668      0.467376795
C       1.084985105      0.435352627      0.431196034
H      -0.924418695      1.318533124      0.444038220
H      -1.167602544     -0.564243987      0.349733327
H       1.327569049      1.674620381      0.107524862
H       1.479232299     -0.559542518      0.217339620
           6
  t=        20.50000    1    1
C      -0.145912076      0.413614557      0.491549986
C       1.104615433      0.453324180      0.444397922
H      -0.901056025      1.309076033      0.401708809
H      -1.170193497     -0.589386173      0.323834196
H       1.371179314      1.637701989      0.106968533
H       1.450049945     -0.513960448      0.188590989
           6
  t=        21.00000    1    1
C      -0.142544887      0.426902546      0.515522346
C       1.125355436      0.472095453      0.457129652
H      -0.872150035      1.296159053      0.361225334
H      -1.160433282     -0.607573949      0.300498883
H       1.416329514      1.590226042      0.109936680
H       1.426796455     -0.469570763      0.159903399
           6
  t=        21.50000    1    1
C      -0.141918633      0.440018204      0.539156248
C       1.146745433      0.491653289      0.469455913
H      -0.838888749      1.281001928      0.323477129
H      -1.138708277     -0.618543492      0.280366458
H       1.462889703      1.534557595      0.116209047
H       1.410727871     -0.429285656      0.130837843
           6
  t=        22.00000    1    1
C      -0.143390715      0.452840046      0.562311946
C       1.168268600      0.511843880      0.481466357
H      -0.803090025      1.265403871      0.289001006
H      -1.105416874     -0.621952654      0.264199700
H       1.510991810      1.473946372      0.125442334
H       1.402429795     -0.395215907      0.101034900
           6
  t=        22.50000    1    1
C      -0.146396412      0.465221232      0.584888802
C       1.189475337      0.532285876      0.493260760
H      -0.766851055      1.251566562      0.258036589
H      -1.060752007     -0.617382008      0.252661198
H       1.561374498      1.413131624      0.136680649
H       1.402081986     -0.368428142      0.070558530
           6
  t=        23.00000    1    1
C      -0.150409324      0.477002613      0.606829985
C       1.209915077      0.552348073      0.504960438
H      -0.732360170      1.241828026      0.230393599
H      -1.004978471     -0.604435783      0.246346867
H       1.615886761      1.358663450      0.148129661
H       1.409384944     -0.348788668      0.040029063
           6
  t=        23.50000    1    1
C      -0.154932550      0.488054328      0.628108586
C       1.229117953      0.571297632      0.516692896
H      -0.701562636      1.238238745      0.205593733
H      -0.938579616     -0.582837468      0.245738502
H       1.677302524      1.317498928      0.157473732
H       1.423671235     -0.335301874      0.010559957
           6
  t=        24.00000    1    1
C      -0.159544082      0.498328954      0.648710663
C       1.246693925      0.588541177      0.528530093
H      -0.675818664      1.242216137      0.183119806
H      -0.862343320     -0.552652727      0.251177363
H       1.748143653      1.294242062      0.162861914
H       1.444186158     -0.326287997     -0.016513206
           6
  t=        24.50000    1    1
C      -0.163893819      0.507902788      0.668618511
C       1.262484672      0.603846477      0.540400300
H      -0.655640165      1.254213299      0.162688302
H      -0.777578408     -0.514642099      0.262777991
H       1.828842416      1.289165739      0.164218665
H       1.470033021     -0.319854424     -0.039880272
           6
  t=        25.00000    1    1
C      -0.167677948      0.516978178      0.687784534
C       1.276608004      0.617345670      0.552074963
H      -0.640729746      1.273615665      0.144562987
H      -0.686124733     -0.470343113      0.280418760
H       1.916953339      1.298752409      0.163533994
H       1.500175811     -0.314317107     -0.058382872
           6
  t=        25.50000    1    1
C      -0.170614973      0.525873013      0.706151422
C       1.289362315      0.629369989      0.563264555
H      -0.630254077      1.298925044      0.129583102
H      -0.590342768     -0.422201553      0.303543588
H       2.008155253      1.317916337      0.163750794
H       1.533553057     -0.308381093     -0.071114235
           6
  t=        26.00000    1    1
C      -0.172441273      0.535010512      0.723725194
C       1.301100418      0.640271584      0.573727558
H      -0.623286215      1.328294319      0.118740060
H      -0.493089283     -0.373983458      0.330790797
H       2.098046450      1.342047260      0.167407207
H       1.569151074     -0.301062010     -0.077436126
           6
  t=        26.50000    1    1
C      -0.172894887      0.544981510      0.740615538
C       1.312142106      0.650332160      0.583311911
H      -0.619089840      1.359818282      0.113006937
H      -0.397518491     -0.331499091      0.359598494
H       2.182991997      1.367794594      0.176152219
H       1.606090706     -0.291690669     -0.076903823
           6
  t=        27.00000    1    1
C      -0.171774058      0.556481393      0.757013732
C       1.322751009      0.659763246      0.591926957
H      -0.617115478      1.391656658      0.113208780
H      -0.306243684     -0.301897130      0.386639328
H       2.260231385      1.392925010      0.191005404
H       1.643650854     -0.279851334     -0.069233530
           6
  t=        27.50000    1    1
C      -0.169017812      0.570119801      0.773096505
C       1.333128495      0.668706088      0.599512629
H      -0.616974917      1.422009708      0.120055586
H      -0.220600585     -0.291375481      0.409035275
H       2.328043998      1.416154407      0.212555744
H       1.681373678     -0.265209539     -0.054236340
           6
  t=        28.00000    1    1
C      -0.164737971      0.586065416      0.788918488
C       1.343436474      0.677282042      0.606060308
H      -0.618181494      1.449325558      0.133883973
H      -0.140561129     -0.301465255      0.425878707
H       2.385748369      1.436963984      0.240877611
H       1.718829090     -0.247619515     -0.031963863
           6
  t=        28.50000    1    1
C      -0.159050015      0.603958877      0.804353625
C       1.353815623      0.685619635      0.611611686
H      -0.620217382      1.472471750      0.154725896
H      -0.066047309     -0.327938624      0.438613664
H       2.432840448      1.455117386      0.275743082
H       1.755625067     -0.227189728     -0.002658928
           6
  t=        29.00000    1    1
C      -0.151953443      0.623139094      0.819196853
C       1.364390095      0.693886963      0.616261836
H      -0.622611339      1.490830793      0.182313613
H       0.001736591     -0.363707629      0.449744416
H       2.468802069      1.470513826      0.316715484
H       1.791527480     -0.204415517      0.033189229
           6
  t=        29.50000    1    1
C      -0.143335711      0.642930332      0.833274422
C       1.375237295      0.702290131      0.620152949
H      -0.625065461      1.504383948      0.216109520
H       0.060711683     -0.402229278      0.461533649
H       2.493184014      1.483160731      0.363227691
H       1.826503158     -0.180232576      0.074798684
           6
  t=        30.00000    1    1
C      -0.133034836      0.662755490      0.846478919
C       1.386379707      0.711057671      0.623461052
H      -0.627475663      1.513621107      0.255364264
H       0.108895018     -0.438556742      0.475587543
H       2.505565569      1.493064116      0.414623194
H       1.860653611     -0.155930243      0.121151551
           6
  t=        30.50000    1    1
C      -0.120892296      0.682151626      0.858762413
C       1.397797779      0.720421964      0.626381870
H      -0.629926133      1.519392211      0.299208433
H       0.145004329     -0.469213627      0.492882060
H       2.505524425      1.500120281      0.470149716
H       1.894111718     -0.132983826      0.171132480
           6
  t=        31.00000    1    1
C      -0.106788813      0.700774828      0.870127714
C       1.409438657      0.730584433      0.629111515
H      -0.632722099      1.522766480      0.346763074
H       0.168603270     -0.491976699      0.513821546
H       2.492802638      1.504164230      0.528912791
H       1.927085493     -0.112822948      0.223740263
           6
  t=        31.50000    1    1
C      -0.090643089      0.718379141      0.880611774
C       1.421228013      0.741700808      0.631835430
H      -0.636392632      1.524898236      0.397199907
H       0.179796288     -0.505602200      0.538385274
H       2.467470072      1.505117201      0.589887006
H       1.959846633     -0.096691834      0.278199318
           6
  t=        32.00000    1    1
C      -0.072399303      0.734773816      0.890261920
C       1.433083997      0.753873096      0.634722382
H      -0.641622538      1.526921087      0.449781466
H       0.178887711     -0.509421403      0.566365939
H       2.430074491      1.503182551      0.651981593
H       1.992538019     -0.085538765      0.333970305
           6
  t=        32.50000    1    1
C      -0.052031887      0.749807644      0.899113901
C       1.444917004      0.767119336      0.637921265
H      -0.649101131      1.529798541      0.503950426
H       0.166235152     -0.503130975      0.597551762
H       2.381940981      1.499150416      0.714133013
H       2.024929300     -0.079833881      0.390685701
           6
  t=        33.00000    1    1
C      -0.029551746      0.763364344      0.907175276
C       1.456613799      0.781336164      0.641559714
H      -0.659323569      1.534127650      0.559437053
H       0.142109068     -0.486584910      0.631793787
H       2.325449233      1.494695592      0.775405446
H       2.056344708     -0.079377846      0.448089097
           6
  t=        33.50000    1    1
C      -0.005038462      0.775381197      0.914441355
C       1.468041762      0.796283557      0.645723648
H      -0.672359242      1.539976647      0.616244632
H       0.106846432     -0.459652345      0.668938797
H       2.263832455      1.492268580      0.835184538
H       2.085811971     -0.083212879      0.505976870
           6
  t=        34.00000    1    1
C       0.021368481      0.785849321      0.920909498
C       1.479030697      0.811600645      0.650452624
H      -0.687736260      1.546952215      0.674597511
H       0.060998361     -0.422180277      0.708660991
H       2.200858295      1.495006617      0.893264887
H       2.112230488     -0.089830034      0.564215992
           6
  t=        34.50000    1    1
C       0.049395012      0.794902607      0.926625042
C       1.489375438      0.826821167      0.655722304
H      -0.704369428      1.554331750      0.734753622
H       0.005928304     -0.374885781      0.750247635
H       2.140715586      1.506516351      0.950051920
H       2.134673215     -0.097435889      0.622605635
           6
  t=        35.00000    1    1
C       0.078686505      0.802786439      0.931652022
C       1.498901135      0.841503505      0.661461270
H      -0.720580803      1.561251719      0.796912139
H      -0.056615252     -0.319572874      0.792941998
H       2.086997413      1.530105239      1.006609059
H       2.152429701     -0.104332084      0.680727877
           6
  t=        35.50000    1    1
C       0.108838859      0.809826586      0.936076643
C       1.507557205      0.855344354      0.667607846
H      -0.734254144      1.566904955      0.861063583
H      -0.124680368     -0.258911986      0.836003641
H       2.041481476      1.567447481      1.063950678
H       2.165071928     -0.108982900      0.738026004
           6
  t=        36.00000    1    1
C       0.139422513      0.816355224      0.940002338
C       1.515493575      0.868264768      0.674185781
H      -0.743146341      1.570736086      0.926952608
H      -0.196532170     -0.195926743      0.878771793
H       2.003759478      1.617785567      1.122100088
H       2.172362232     -0.110069222      0.793877358
           6
  t=        36.50000    1    1
C       0.170012402      0.822660134      0.943541693
C       1.523013773      0.880401444      0.681326078
H      -0.745238945      1.572619942      0.994136033
H      -0.270814321     -0.133580484      0.920705766
H       1.971947907      1.678074671      1.179753383
H       2.174257553     -0.106515670      0.847667174
           6
  t=        37.00000    1    1
C       0.200181067      0.828925982      0.946809250
C       1.530467838      0.892016228      0.689228790
H      -0.738935422      1.572907345      1.062044974
H      -0.346291255     -0.074090107      0.961389211
H       1.943933860      1.744098657      1.234741209
H       2.170961183     -0.097560519      0.898801452
           6
  t=        37.50000    1    1
C       0.229475284      0.835221260      0.949927842
C       1.538182151      0.903393400      0.698085874
H      -0.723157588      1.572227190      1.129980382
H      -0.421421301     -0.018458851      1.000513680
H       1.918119808      1.811668029      1.284903668
H       2.162962236     -0.082843453      0.946696629
           6
  t=        38.00000    1    1
C       0.257418385      0.841519815      0.953046527
C       1.546440847      0.914776931      0.708018749
H      -0.697420980      1.571447275      1.197205952
H      -0.494151180      0.033310150      1.037667633
H       1.893537388      1.877437059      1.328628903
H       2.150985466     -0.062478845      0.990889510
           6
  t=        38.50000    1    1
C       0.283469067      0.847747006      0.956344405
C       1.555518842      0.926358320      0.719091428
H      -0.661546642      1.571650506      1.263007305
H      -0.561978320      0.081538364      1.072193075
H       1.869781208      1.939158092      1.364833872
H       2.135928955     -0.037015848      1.030938644
           6
  t=        39.00000    1    1
C       0.307166849      0.853893131      0.960004109
C       1.565567827      0.938248530      0.731277679
H      -0.615761134      1.573751630      1.326238934
H      -0.622372793      0.126417799      1.103794250
H       1.846873816      1.995378334      1.393586600
H       2.119146206     -0.007315052      1.066353638
           6
  t=        39.50000    1    1
C       0.328316788      0.859959069      0.964173362
C       1.576556219      0.950538900      0.744491649
H      -0.560619973      1.578209724      1.386260243
H      -0.673708355      0.168242656      1.131865564
H       1.825120540      2.045231663      1.415178051
H       2.101960357      0.025637600      1.097352513
           6
  t=        40.00000    1    1
C       0.346765967      0.865947983      0.968971538
C       1.588410335      0.963341309      0.758671682
H      -0.496578772      1.585348707      1.442680060
H      -0.714695980      0.207121882      1.155647911
H       1.805061902      2.088051051      1.429694108
H       2.085697614      0.060705416      1.124311906
           6
  t=        40.50000    1    1
C       0.362379852      0.871881266      0.974511319
C       1.601042554      0.976784250      0.773765430
H      -0.424155561      1.595503089      1.495066295
H      -0.744321708      0.242907499      1.174431759
H       1.787334387      2.123389470      1.437220357
H       2.071872642      0.096362919      1.147568942
           6
  t=        41.00000    1    1
C       0.375122657      0.877780320      0.980873032
C       1.614326476      0.991015167      0.789705381
H      -0.344162979      1.608907111      1.543154420
H      -0.762001144      0.275486365      1.187661057
H       1.772573690      2.150920068      1.437902673
H       2.062010579      0.130803964      1.167645612
           6
  t=        41.50000    1    1
C       0.385065126      0.883658173      0.988097903
C       1.628108895      1.006192540      0.806401149
H      -0.257908824      1.625673119      1.586906010
H      -0.767559319      0.304958861      1.195020395
H       1.761379811      2.170370318      1.431966892
H       2.057626811      0.162044691      1.185255691
           6
  t=        42.00000    1    1
C       0.392371974      0.889536065      0.996203624
C       1.642222613      1.022454793      0.823750037
H      -0.167093326      1.645933467      1.626260179
H      -0.761090161      0.331529936      1.196538756
H       1.754149568      2.181474115      1.419829885
H       2.060148286      0.188111431      1.201027101
           6
  t=        42.50000    1    1
C       0.397259615      0.895449657      1.005188659
C       1.656505735      1.039884715      0.841653232
H      -0.073424826      1.669732714      1.661185888
H      -0.742813854      0.355492377      1.192439980
H       1.751074402      2.183929515      1.402018711
H       2.070662455      0.207557330      1.215435714
           6
  t=        43.00000    1    1
C       0.399952178      0.901460620      1.015044554
C       1.670829573      1.058458983      0.860023191
H       0.021096607      1.696842861      1.691763027
H      -0.713040035      0.377115775      1.182998420
H       1.752708690      2.177705188      1.379122850
H       2.089787401      0.219915200      1.228681685
           6
  t=        43.50000    1    1
C       0.400687924      0.907682581      1.025763815
C       1.685114216      1.077996372      0.878785134
H       0.113981392      1.726689315      1.718215982
H      -0.672446990      0.396387470      1.168521952
H       1.760243065      2.163538012      1.351817026
H       2.117613519      0.225840905      1.240538365
           6
  t=        44.00000    1    1
C       0.399799347      0.914302170      1.037332098
C       1.699326156      1.098133263      0.897870375
H       0.202912853      1.758567589      1.740880186
H      -0.622661749      0.412789766      1.149434228
H       1.774617916      2.143093010      1.320985817
H       2.153581493      0.227000537      1.250351454
           6
  t=        44.50000    1    1
C       0.397754243      0.921570131      1.049718516
C       1.713436513      1.118370569      0.917208053
H       0.285902875      1.791720163      1.760143918
H      -0.566383374      0.425332409      1.126307830
H       1.796284905      2.118910631      1.287712616
H       2.196696863      0.225560590      1.257289089
           6
  t=        45.00000    1    1
C       0.395175447      0.929787396      1.062874130
C       1.727374044      1.138093663      0.936713306
H       0.361329408      1.825193956      1.776211851
H      -0.507407895      0.432628824      1.099913182
H       1.825367490      2.094791560      1.253426629
H       2.245681666      0.223797951      1.260541313
           6
  t=        45.50000    1    1
C       0.392820117      0.939302008      1.076742437
C       1.741030148      1.156594759      0.956274338
H       0.427767777      1.857852243      1.789124809
H      -0.450718274      0.432719131      1.071104102
H       1.862002054      2.076010415      1.219841871
H       2.299079145      0.223821143      1.259504840
           6
  t=        46.00000    1    1
C       0.391498982      0.950499254      1.091283893
C       1.754258542      1.173109602      0.975766223
H       0.484050676      1.888605993      1.798861831
H      -0.401933464      0.422933122      1.040463213
H       1.906586344      2.069052542      1.188685239
H       2.355360503      0.227419742      1.253850880
           6
  t=        46.50000    1    1
C       0.391878262      0.963713864      1.106488920
C       1.766902245      1.186996848      0.995115602
H       0.529468588      1.916634229      1.805395407
H      -0.365348965      0.400718235      1.008065543
H       1.959593451      2.079571244      1.160993082
H       2.412989744      0.235967503      1.243483861
           6
  t=        47.00000    1    1
C       0.394252112      0.979074942      1.122347374
C       1.778878371      1.198018966      1.014346132
H       0.563675876      1.941425852      1.808773817
H      -0.341571963      0.365417992      0.973836331
H       2.020962469      2.109102627      1.136530447
H       2.470463166      0.250387863      1.228504151
           6
  t=        47.50000    1    1
C       0.398499534      0.996402207      1.138784651
C       1.790253195      1.206457506      1.033532778
H       0.586481359      1.962735091      1.809190076
H      -0.327139901      0.319491077      0.938342636
H       2.089445815      2.153817582      1.114230128
H       2.526409045      0.271090347      1.209214604
           6
  t=        48.00000    1    1
C       0.404307950      1.015316208      1.155656783
C       1.801223674      1.212880266      1.052720066
H       0.597609131      1.980461294      1.806923963
H      -0.316944591      0.267473072      0.902991209
H       2.162728058      2.207049972      1.093175134
H       2.579688255      0.298061849      1.186030599
           6
  t=        48.50000    1    1
C       0.411384464      1.035384498      1.172793640
C       1.812055768      1.217890402      1.071892725
H       0.596801386      1.994722256      1.802255397
H      -0.306423438      0.214298473      0.869553520
H       2.237803312      2.262056150      1.073081216
H       2.629322807      0.330959656      1.159394177
           6
  t=        49.00000    1    1
C       0.419540069      1.056201942      1.190030962
C       1.823012552      1.221974634      1.090987772
H       0.583975464      2.005949365      1.795460043
H      -0.292457880      0.164207252      0.839693049
H       2.311663981      2.313740971      1.054261381
H       2.674401878      0.369235376      1.129760916
           6
  t=        49.50000    1    1
C       0.428664929      1.077393299      1.207212568
C       1.834304606      1.225474658      1.109925524
H       0.559399421      2.015012987      1.786915549
H      -0.273369313      0.120424319      0.814739062
H       2.381889359      2.359077632      1.037329333
H       2.714199048      0.412220276      1.097620699
           6
  t=        50.00000    1    1
C       0.438688293      1.098584454      1.224175506
C       1.846079433      1.228647181      1.128626767
H       0.523690404      2.023294760      1.777329542
H      -0.248465745      0.085332031      0.795677026
H       2.446743188      2.396465352      1.022887069
H       2.748226893      0.459150119      1.063564016
           6
  t=        50.50000    1    1
C       0.449566027      1.119405845      1.240753116
C       1.858435014      1.231713688      1.147020212
H       0.477518167      2.032588559      1.767714929
H      -0.217557172      0.060674129      0.783222997
H       2.505006228      2.425030129      1.011422755
H       2.776203268      0.509125725      1.028209020
           6
  t=        51.00000    1    1
C       0.461263376      1.139504816      1.256797874
C       1.871437633      1.234886397      1.165039644
H       0.421391690      2.044749215      1.759103270
H      -0.180637167      0.047792890      0.777903321
H       2.555887795      2.444346201      1.003339375
H       2.798027772      0.561049170      0.992141713
           6
  t=        51.50000    1    1
C       0.473763440      1.158602536      1.272215860
C       1.885110491      1.238370166      1.182624290
H       0.355819806      2.061132997      1.752144533
H      -0.137880354      0.047513583      0.779997626
H       2.598911398      2.454433133      0.999017016
H       2.813767600      0.613600801      0.955895651
           6
  t=        52.00000    1    1
C       0.487082098      1.176559356      1.286988715
C       1.899415470      1.242357187      1.199723448
H       0.281592625      2.082001374      1.746816971
H      -0.089714680      0.060013048      0.789498519
H       2.633763216      2.455737587      0.998844463
H       2.823639383      0.665269551      0.919934117
           6
  t=        52.50000    1    1
C       0.501239337      1.193393390      1.301161945
C       1.914244268      1.247048887      1.216315314
H       0.200303952      2.106106035      1.742346850
H      -0.036862598      0.084852902      0.806185608
H       2.660232089      2.448932697      1.003218912
H       2.828035283      0.714452988      0.884571590
           6
  t=        53.00000    1    1
C       0.516213431      1.209250342      1.314820977
C       1.929477994      1.252659065      1.232399478
H       0.114230092      2.130994195      1.737522895
H       0.019746065      0.121200587      0.829728646
H       2.678128468      2.434519875      1.012559265
H       2.827473925      0.759651329      0.849917680
           6
  t=        53.50000    1    1
C       0.531911648      1.224351175      1.328071934
C       1.945039486      1.259390923      1.247980310
H       0.026002688      2.153801668      1.731122544
H       0.079051172      0.167905842      0.859674083
H       2.687275729      2.412803582      1.027316210
H       2.822584816      0.799520359      0.815881214
           6
  t=        54.00000    1    1
C       0.548210053      1.238929450      1.341014346
C       1.960878599      1.267417891      1.263067933
H      -0.061636577      2.172101766      1.722245200
H       0.139823646      0.223380170      0.895405704
H       2.687606102      2.384160419      1.047990766
H       2.813997407      0.832849081      0.782171371
           6
  t=        54.50000    1    1
C       0.564988331      1.253224055      1.353739026
C       1.976954456      1.276863336      1.277681042
H      -0.146071936      2.184297480      1.710455911
H       0.200555624      0.285171426      0.935985694
H       2.679440076      2.349327697      1.075070264
H       2.802204005      0.858632829      0.748368758
           6
  t=        55.00000    1    1
C       0.582157996      1.267511299      1.366335730
C       1.993212638      1.287804757      1.291833770
H      -0.224914768      2.189474583      1.695656149
H       0.259353006      0.349568260      0.980190489
H       2.663727856      2.309417955      1.109143437
H       2.787462706      0.876168795      0.713968799
           6
  t=        55.50000    1    1
C       0.599739691      1.282181175      1.378873210
C       2.009497090      1.300246665      1.305532301
H      -0.296227148      2.187165835      1.678106776
H       0.313853064      0.411023673      1.026674848
H       2.642419482      2.265861800      1.150925561
H       2.769861783      0.885339798      0.678447696
           6
  t=        56.00000    1    1
C       0.617849184      1.297914765      1.391495005
C       2.025538964      1.313959281      1.318818383
H      -0.357598535      2.176580030      1.658879489
H       0.361535311      0.461991831      1.072131175
H       2.617304401      2.221517178      1.199524780
H       2.749545800      0.886247350      0.642725370
           6
  t=        56.50000    1    1
C       0.636565577      1.315468022      1.404407819
C       2.041160460      1.328532279      1.331745388
H      -0.406758850      2.157321638      1.639092018
H       0.399446171      0.493750785      1.112295560
H       2.590653818      2.180873664      1.253401053
H       2.726103102      0.879401013      0.608389091
           6
  t=        57.00000    1    1
C       0.655807106      1.335255824      1.417742262
C       2.056208198      1.343419880      1.344328561
H      -0.442288255      2.129789679      1.619409029
H       0.425742718      0.500414669      1.144542416
H       2.566486249      2.149944066      1.311473607
H       2.698740167      0.865834582      0.576742581
           6
  t=        57.50000    1    1
C       0.675345223      1.357094610      1.431439295
C       2.070387591      1.357924892      1.356525696
H      -0.463598945      2.095022915      1.600260017
H       0.441050965      0.482705757      1.169097098
H       2.550247561      2.135952520      1.373283582
H       2.667030793      0.847057637      0.548796220
           6
  t=        58.00000    1    1
C       0.694860338      1.380279965      1.445315079
C       2.083385210      1.371423480      1.368192806
H      -0.470579964      2.054463584      1.581955463
H       0.447785867      0.447225553      1.188119530
H       2.546825555      2.145067405      1.439347660
H       2.631104119      0.824685049      0.525469235
           6
  t=        58.50000    1    1
C       0.714005486      1.403938748      1.459153662
C       2.095110705      1.383687848      1.379157534
H      -0.463348195      2.009628659      1.564979052
H       0.449099858      0.402793080      1.203976365
H       2.557869206      2.178523607      1.510398972
H       2.591486550      0.800264382      0.507805103
           6
  t=        59.00000    1    1
C       0.732479385      1.427310007      1.472793980
C       2.105791973      1.395034749      1.389338119
H      -0.442307439      1.962065944      1.549855299
H       0.447762686      0.357015182      1.218318801
H       2.581075797      2.231148340      1.586273500
H       2.548989258      0.775106658      0.496685546
           6
  t=        59.50000    1    1
C       0.750067139      1.449858633      1.486139731
C       2.115828281      1.406083275      1.398786737
H      -0.408094449      1.913261417      1.537049711
H       0.445618426      0.314889887      1.232056568
H       2.612135061      2.294183697      1.665321928
H       2.504518317      0.750485093      0.492910422
           6
  t=        60.00000    1    1
C       0.766688723      1.471238075      1.499142367
C       2.125564010      1.417400655      1.407642276
H      -0.361896091      1.864766414      1.526931940
H       0.443878605      0.279301740      1.245646325
H       2.646887430      2.359311815      1.745002636
H       2.459058617      0.727652141      0.497118611
           6
  t=        60.50000    1    1
C       0.782413686      1.491214922      1.511781250
C       2.135188395      1.429362400      1.416061681
H      -0.305818222      1.818370870      1.519847676
H       0.443414885      0.251667979      1.259229489
H       2.682414239      2.420683279      1.822861699
H       2.413679440      0.707556812      0.509652723
           6
  t=        61.00000    1    1
C       0.797466123      1.509624569      1.524055803
C       2.144772775      1.442182729      1.424193330
H      -0.243347441      1.776157420      1.516119366
H       0.444811607      0.232423863      1.272793294
H       2.716803876      2.474502809      1.896807192
H       2.369674391      0.690885327      0.530533843
           6
  t=        61.50000    1    1
C       0.812236148      1.526349469      1.535987548
C       2.154312976      1.455949371      1.432161397
H      -0.179566422      1.740211087      1.515902505
H       0.448283536      0.221538005      1.286319753
H       2.748864307      2.518539833      1.965217892
H       2.328504631      0.678169885      0.559509642
           6
  t=        62.00000    1    1
C       0.827260216      1.541309811      1.547616058
C       2.163772576      1.470669792      1.440069553
H      -0.121203040      1.712383029      1.519125376
H       0.453742678      0.218767054      1.299820253
H       2.777956398      2.551667750      2.026927999
H       2.291666986      0.669791375      0.596099385
           6
  t=        62.50000    1    1
C       0.843121757      1.554494121      1.558997214
C       2.173122845      1.486304485      1.448019460
H      -0.075836827      1.694100073      1.525500247
H       0.460990897      0.223539498      1.313305137
H       2.803841320      2.573605512      2.081221252
H       2.260568274      0.665782960      0.639419505
           6
  t=        63.00000    1    1
C       0.860282855      1.565917335      1.570194870
C       2.182372189      1.502819971      1.456118283
H      -0.050172722      1.686441759      1.534679376
H       0.469876320      0.235271399      1.326772268
H       2.826354411      2.584276053      2.127465649
H       2.236623798      0.665947073      0.688414058
           6
  t=        63.50000    1    1
C       0.878854482      1.575635143      1.581261049
C       2.191564117      1.520204029      1.464483468
H      -0.046994325      1.689833104      1.546415891
H       0.480304482      0.253438260      1.340178378
H       2.845324784      2.583715351      2.165077972
H       2.221041751      0.669829254      0.741937067
           6
  t=        64.00000    1    1
C       0.898483254      1.583742221      1.592215259
C       2.200767881      1.538470560      1.473242176
H      -0.063535605      1.703979750      1.560714037
H       0.492318723      0.277623287      1.353381750
H       2.860614511      2.572150034      2.193600951
H       2.214536316      0.676620258      0.798835638
           6
  t=        64.50000    1    1
C       0.918480795      1.590353640      1.603049135
C       2.210081359      1.557658090      1.482525869
H      -0.093140026      1.728093797      1.577759547
H       0.506158856      0.307574655      1.366180767
H       2.872133440      2.549982353      2.212728678
H       2.217337482      0.685127340      0.857964752
           6
  t=        65.00000    1    1
C       0.938059754      1.595586536      1.613744727
C       2.219630294      1.577817161      1.492458469
H      -0.128324366      1.761200454      1.597763095
H       0.522236895      0.343215697      1.378396462
H       2.879846405      2.517785651      2.222316051
H       2.229468685      0.693830631      0.918175098
           6
  t=        65.50000    1    1
C       0.956480165      1.599553469      1.624285709
C       2.229557288      1.598985635      1.503137193
H      -0.162605369      1.802309863      1.620870993
H       0.541022046      0.384557230      1.389913991
H       2.883855580      2.476412185      2.222447551
H       2.250993291      0.701064525      0.978386831
           6
  t=        66.00000    1    1
C       0.973132149      1.602368977      1.634659704
C       2.240004726      1.621156298      1.514610404
H      -0.191192612      1.850390791      1.647087275
H       0.562803366      0.431535544      1.400720195
H       2.884528464      2.427129795      2.213568629
H       2.282034812      0.705377295      1.037734847
           6
  t=        66.50000    1    1
C       0.987572941      1.604149781      1.644853951
C       2.251078171      1.644228180      1.526863889
H      -0.210921942      1.904392564      1.676291498
H       0.587505349      0.483883226      1.410842512
H       2.882647316      2.371757562      2.196532829
H       2.322740323      0.706080248      1.095780020
           6
  t=        67.00000    1    1
C       0.999555585      1.605055431      1.654865937
C       2.262779953      1.667932241      1.539783385
H      -0.219876059      1.963154759      1.708218562
H       0.614566677      0.540863853      1.420251322
H       2.879761076      2.313081002      2.173007970
H       2.373119822      0.703589394      1.152540697
           6
  t=        67.50000    1    1
C       1.008989308      1.605328467      1.664716227
C       2.274985930      1.691846048      1.553135508
H      -0.216856670      2.025432101      1.742505467
H       0.643070962      0.600913551      1.428734584
H       2.878446192      2.254845764      2.145785809
H       2.432875780      0.699111732      1.208336065
           6
  t=        68.00000    1    1
C       1.015972037      1.605365387      1.674459020
C       2.287371183      1.715371545      1.566515099
H      -0.201172368      2.089861148      1.778749634
H       0.671698015      0.660784986      1.435633365
H       2.883207373      2.202307812      2.119628041
H       2.500837053      0.694403821      1.263647870
           6
  t=        68.50000    1    1
C       1.020788547      1.605753183      1.684203799
C       2.299415206      1.737796877      1.579384681
H      -0.172424908      2.154908319      1.816477550
H       0.698344268      0.715043326      1.439645464
H       2.900700740      2.161911110      2.101102271
H       2.574861718      0.691477893      1.318784030
           6
  t=        69.00000    1    1
C       1.023808856      1.607220090      1.694119030
C       2.310583847      1.758482472      1.591259375
H      -0.130459249      2.218980978      1.855270901
H       0.720279143      0.756784050      1.438764255
H       2.937879515      2.139323249      2.096404894
H       2.652527865      0.692107079      1.373743395
           6
  t=        69.50000    1    1
C       1.025389973      1.610420818      1.704386298
C       2.320772881      1.777158151      1.602047084
H      -0.075894516      2.280673752      1.895115429
H       0.735210351      0.780178373      1.430475211
H       2.996772796      2.135853863      2.106725338
H       2.731705728      0.697633921      1.428798988
           6
  t=        70.00000    1    1
C       1.025808609      1.615716778      1.715127500
C       2.330458026      1.793884936      1.612066525
H      -0.009927657      2.338823401      1.936134702
H       0.742430187      0.782758642      1.413051577
H       3.072784038      2.149217619      2.128312265
H       2.809930805      0.708941086      1.484055141
           6
  t=        70.50000    1    1
C       1.025306079      1.623004463      1.726330597
C       2.340393849      1.808920671      1.621849076
H       0.065925500      2.392640529      1.977687020
H       0.743043959      0.767093340      1.387656608
H       3.156923663      2.175370193      2.155642588
H       2.884736572      0.726454786      1.538325093
           6
  t=        71.00000    1    1
C       1.024013790      1.631903905      1.737888343
C       2.351295721      1.822495508      1.631875086
H       0.150371333      2.441599548      2.018622955
H       0.738669581      0.738569820      1.357226974
H       3.240665587      2.210942786      2.184406688
H       2.954234900      0.750467193      1.589685457
           6
  t=        71.50000    1    1
C       1.022073666      1.641949407      1.749644522
C       2.363625738      1.834793346      1.642495634
H       0.241854029      2.485427278      2.057912388
H       0.730804059      0.703297523      1.324874126
H       3.318104248      2.253567278      2.211819491
H       3.017192856      0.780867999      1.636518036
           6
  t=        72.00000    1    1
C       1.019748853      1.652707365      1.761419100
C       2.377572365      1.845953743      1.653952269
H       0.338159129      2.524102139      2.095002166
H       0.720712966      0.667033059      1.293211013
H       3.385591395      2.301514610      2.235968778
H       3.072826310      0.817154990      1.677942299
           6
  t=        72.50000    1    1
C       1.017402094      1.663834522      1.773043527
C       2.393128681      1.856082754      1.666385253
H       0.436700926      2.557943615      2.129755189
H       0.709417438      0.634360430      1.264283393
H       3.440939552      2.353339588      2.255640434
H       3.120647486      0.858696282      1.713600733
           6
  t=        73.00000    1    1
C       1.015409925      1.675071220      1.784380548
C       2.410207126      1.865254775      1.679851290
H       0.534883899      2.587704787      2.162306972
H       0.697728888      0.608538544      1.239678082
H       3.482821352      2.407847476      2.270283534
H       3.160324480      0.904882159      1.743281774
           6
  t=        73.50000    1    1
C       1.014124092      1.686212052      1.795325281
C       2.428643860      1.873553533      1.694338371
H       0.630343370      2.614586576      2.193038210
H       0.686246941      0.591642130      1.220488121
H       3.510715147      2.463976009      2.279836717
H       3.191904972      0.954949118      1.766965866
           6
  t=        74.00000    1    1
C       1.013833871      1.697109128      1.805801065
C       2.448252483      1.881069065      1.709808630
H       0.721018916      2.639828840      2.222342768
H       0.675394690      0.585011454      1.207515303
H       3.524573098      2.520818693      2.284488844
H       3.215848321      1.007912905      1.784633166
           6
  t=        74.50000    1    1
C       1.014751558      1.707682974      1.815763348
C       2.468818457      1.887918384      1.726204702
H       0.805081528      2.664283031      2.250460445
H       0.665491216      0.589579796      1.201375121
H       3.524796140      2.577560182      2.284556953
H       3.233290209      1.062356823      1.796325769
           6
  t=        75.00000    1    1
C       1.017048776      1.717921115      1.825199564
C       2.490081496      1.894259098      1.743455702
H       0.880852210      2.688189656      2.277388520
H       0.656794717      0.606099301      1.202584382
H       3.512009565      2.633444872      2.280391519
H       3.246082624      1.116314460      1.802173458
           6
  t=        75.50000    1    1
C       1.020887807      1.727874708      1.834131277
C       2.511722552      1.900303033      1.761484685
H       0.947019063      2.711181794      2.302885798
H       0.649479718      0.635019159      1.211489538
H       3.486779775      2.687794319      2.272341222
H       3.256664512      1.167248380      1.802382222
           6
  t=        76.00000    1    1
C       1.026423506      1.737656540      1.842616759
C       2.533360161      1.906316777      1.780220321
H       1.002695178      2.732478636      2.326501299
H       0.643575776      0.676194062      1.228132564
H       3.449683206      2.739987702      2.260791292
H       3.268016987      1.212185006      1.797131430
           6
  t=        76.50000    1    1
C       1.033800824      1.747428336      1.850743880
C       2.554584554      1.912585825      1.799609901
H       1.047149348      2.751191704      2.347697992
H       0.638928135      0.728801902      1.252205375
H       3.401458990      2.789413651      2.246152928
H       3.283442362      1.248117385      1.786436025
           6
  t=        77.00000    1    1
C       1.043153783      1.757388146      1.858623794
C       2.575034355      1.919342902      1.819618345
H       1.079647754      2.766593325      2.366037628
H       0.635156042      0.791343675      1.283010766
H       3.343021482      2.835433950      2.228822683
H       3.305849945      1.272777400      1.770128415
           6
  t=        77.50000    1    1
C       1.054606407      1.767758761      1.866392230
C       2.594475623      1.926692716      1.840203195
H       1.099638874      2.778270549      2.381303116
H       0.631565069      0.861584979      1.319375755
H       3.275468927      2.877401627      2.209205034
H       3.336697171      1.285557029      1.748082850
           6
  t=        78.00000    1    1
C       1.068283933      1.778785768      1.874215018
C       2.612846145      1.934556412      1.861285497
H       1.106849548      2.786068764      2.393426408
H       0.627025969      0.936644329      1.359651867
H       3.200123931      2.914901962      2.187792997
H       3.375312856      1.287920371      1.720487616
           6
  t=        78.50000    1    1
C       1.084313483      1.790736343      1.882296077
C       2.630225259      1.942713179      1.882733997
H       1.101516670      2.790012528      2.402323460
H       0.619730509      1.012870400      1.401662688
H       3.118611463      2.947984206      2.165283575
H       3.419183284      1.282892449      1.688040328
           6
  t=        79.00000    1    1
C       1.102828787      1.803892133      1.890862280
C       2.646751812      1.950890079      1.904368323
H       1.084230393      2.790156985      2.407836999
H       0.607148837      1.086003716      1.442912396
H       3.033009233      2.977080414      2.142535788
H       3.464922474      1.274141764      1.651980974
           6
  t=        79.50000    1    1
C       1.123918833      1.818476717      1.900111089
C       2.662516091      1.958871366      1.925928800
H       1.056476127      2.786840873      2.410311395
H       0.586490818      1.151441822      1.480782516
H       2.945973611      3.002952506      2.120462393
H       3.509042622      1.265076804      1.614412214
           6
  t=        80.00000    1    1
C       1.147644465      1.834578844      1.910137937
C       2.677493491      1.966514019      1.947117736
H       1.020326267      2.781007041      2.410817469
H       0.555430649      1.205334627      1.513250869
H       2.860158606      3.026696618      2.099939045
H       3.548711290      1.258155352      1.577819788
           6
  t=        80.50000    1    1
C       1.173935647      1.852000845      1.920828174
C       2.691609078      1.973734501      1.967727853
H       0.977440539      2.774235960      2.410635639
H       0.513486841      1.246865829      1.540371455
H       2.777790564      3.049324740      2.081619590
H       3.582251347      1.254951992      1.544051449
           6
  t=        81.00000    1    1
C       1.202479532      1.870292297      1.931896690
C       2.704819708      1.980498649      1.987665441
H       0.928748136      2.768483202      2.410904842
H       0.463099520      1.278211014      1.564131582
H       2.700768577      3.071186958      2.065788120
H       3.608636229      1.256759671      1.514210721
           6
  t=        81.50000    1    1
C       1.232722681      1.888935323      1.943048436
C       2.717127554      1.986850877      2.006895822
H       0.875214383      2.765215933      2.412310219
H       0.409011611      1.302749161      1.586996442
H       2.630785919      3.092053136      2.052468434
H       3.627033121      1.264603996      1.489052416
           6
  t=        82.00000    1    1
C       1.263999317      1.907505284      1.954122371
C       2.728556123      1.992930671      2.025417125
H       0.818524907      2.764706882      2.414774958
H       0.356259753      1.323490023      1.610609840
H       2.569425346      3.111388299      2.041501049
H       3.636790086      1.279135271      1.469110233
           6
  t=        82.50000    1    1
C       1.295637450      1.925741211      1.965099670
C       2.739142447      1.998955266      2.043229944
H       0.761105829      2.766240478      2.417706753
H       0.308965493      1.342326051      1.635572258
H       2.518046706      3.128421565      2.032740757
H       3.637565555      1.300468581      1.454738402
           6
  t=        83.00000    1    1
C       1.327017507      1.943521603      1.976051691
C       2.748920052      2.005145797      2.060321460
H       0.705681543      2.768807598      2.420573322
H       0.270139847      1.360023343      1.661635739
H       2.477783098      3.142606028      2.026046867
H       3.629474156      1.328206682      1.446160374
           6
  t=        83.50000    1    1
C       1.357649337      1.960830834      1.987063527
C       2.757934004      2.011651074      2.076702772
H       0.654644768      2.771575258      2.423083396
H       0.241668792      1.376759517      1.688265923
H       2.448878493      3.153883669      2.021236096
H       3.613296727      1.361475990      1.443238839
           6
  t=        84.00000    1    1
C       1.387092578      1.977652487      1.998213734
C       2.766198778      2.018601511      2.092379207
H       0.610129673      2.774141089      2.425449657
H       0.225079051      1.392393359      1.714700870
H       2.431600991      3.162546996      2.018043339
H       3.590179008      1.399169192      1.445788643
           6
  t=        84.50000    1    1
C       1.415027123      1.994001111      2.009546967
C       2.773738679      2.026038550      2.107385393
H       0.573641328      2.776452095      2.428036926
H       0.221414425      1.406684868      1.740336417
H       2.425669416      3.169233838      2.016137786
H       3.561377973      1.440274320      1.453435206
           6
  t=        85.00000    1    1
C       1.441192740      2.009899729      2.021078890
C       2.780592259      2.033981584      2.121783174
H       0.546231645      2.778559693      2.431204688
H       0.231358495      1.419416114      1.764762394
H       2.430670765      3.174568820      2.015200239
H       3.528212608      1.483827822      1.465624895
           6
  t=        85.50000    1    1
C       1.465366001      2.025376321      2.032812483
C       2.786810240      2.042481805      2.135669696
H       0.528607915      2.780562158      2.435106709
H       0.255128853      1.430350094      1.787742334
H       2.446054605      3.179076695      2.015157581
H       3.492366356      1.528500295      1.481320423
           6
  t=        86.00000    1    1
C       1.487294385      2.040442422      2.044759092
C       2.792428150      2.051656542      2.149177946
H       0.521273914      2.782598685      2.439806233
H       0.292792708      1.439281909      1.809067900
H       2.471411425      3.183211504      2.016130417
H       3.456263388      1.572367904      1.498826466
           6
  t=        86.50000    1    1
C       1.506711635      2.055098937      2.056946568
C       2.797455529      2.061669920      2.162489112
H       0.524614481      2.784822378      2.445235301
H       0.344270450      1.446079320      1.828545499
H       2.506292901      3.187482239      2.018389570
H       3.423105722      1.612934349      1.515642903
           6
  t=        87.00000    1    1
C       1.523393802      2.069329787      2.069416245
C       2.801889401      2.072701426      2.175811583
H       0.538925295      2.787411538      2.451195657
H       0.409229108      1.450677688      1.845975126
H       2.550142081      3.192514590      2.022315710
H       3.396191605      1.647513148      1.528811725
           6
  t=        87.50000    1    1
C       1.537218735      2.083098760      2.082208804
C       2.805761917      2.084909701      2.189327522
H       0.564274965      2.790593847      2.457411788
H       0.486869161      1.453008640      1.861154890
H       2.602427042      3.198890291      2.028345674
H       3.377856255      1.673904449      1.535718155
           6
  t=        88.00000    1    1
C       1.548177195      2.096370736      2.095357074
C       2.809199158      2.098396323      2.203123000
H       0.600324013      2.794654698      2.463636940
H       0.575657799      1.452802010      1.873867762
H       2.662753296      3.207084782      2.036960047
H       3.368974208      1.690825677      1.534928615
           6
  t=        88.50000    1    1
C       1.556361757      2.109152974      2.108888025
C       2.812435147      2.113183748      2.217142394
H       0.646362232      2.799976311      2.469786812
H       0.673195160      1.449207858      1.883788410
H       2.730886528      3.217433270      2.048655972
H       3.368998208      1.698055300      1.526697009
           6
  t=        89.00000    1    1
C       1.561954179      2.121510653      2.122822297
C       2.815774241      2.129238142      2.231203275
H       0.701325577      2.807031607      2.476010561
H       0.776511482      1.440738582      1.890445178
H       2.806702257      3.229831687      2.063884854
H       3.376294152      1.696338538      1.512822260
           6
  t=        89.50000    1    1
C       1.565311359      2.133574068      2.137174853
C       2.819550307      2.146495745      2.245047672
H       0.763445003      2.816359318      2.482693458
H       0.881960067      1.425443328      1.893193754
H       2.889702791      3.243357349      2.082949128
H       3.388544543      1.687217407      1.496156579
           6
  t=        90.00000    1    1
C       1.566840753      2.145494282      2.151944026
C       2.824162111      2.164915488      2.258391097
H       0.830308278      2.829004286      2.490183619
H       0.985506938      1.400655099      1.891498872
H       2.978974704      3.256587988      2.106549065
H       3.403502344      1.672425667      1.479596589
           6
  t=        90.50000    1    1
C       1.566951649      2.157309208      2.167012050
C       2.830077629      2.184468256      2.270945297
H       0.898460634      2.846972732      2.498884580
H       1.084072718      1.364026153      1.885760912
H       3.073149496      3.267813814      2.136060115
H       3.418617012      1.653909799      1.465800889
           6
  t=        91.00000    1    1
C       1.566245637      2.168940156      2.182232685
C       2.837484645      2.204966637      2.282514128
H       0.963169859      2.872508568      2.510157046
H       1.176405830      1.315327664      1.876385736
H       3.170645106      3.275989389      2.171414837
H       3.432048448      1.633870943      1.457150097
           6
  t=        91.50000    1    1
C       1.565186291      2.180075959      2.197471734
C       2.846450329      2.226254834      2.292971089
H       1.020419571      2.907639120      2.525395084
H       1.262723151      1.257296552      1.864007578
H       3.269809257      3.280358417      2.211971333
H       3.442924298      1.613865321      1.455364228
           6
  t=        92.00000    1    1
C       1.564181395      2.190306232      2.212560729
C       2.856942354      2.248188315      2.302257620
H       1.067782396      2.953121180      2.545341758
H       1.343479590      1.195272077      1.850213217
H       3.368591675      3.280359780      2.257045770
H       3.450793456      1.594970253      1.461502428
           6
  t=        92.50000    1    1
C       1.563485695      2.199339869      2.227385746
C       2.868906065      2.270631073      2.310333514
H       1.104741735      3.008338272      2.569985135
H       1.418696815      1.134366986      1.836705493
H       3.465234732      3.275643505      2.306070349
H       3.455524262      1.578128729      1.476278174
           6
  t=        93.00000    1    1
C       1.563232886      2.207163492      2.241944639
C       2.882260819      2.293434339      2.317191449
H       1.132494781      3.070316910      2.598185656
H       1.487901354      1.078723704      1.824985691
H       3.558249050      3.265853588      2.358370803
H       3.457250224      1.564459946      1.500116839
           6
  t=        93.50000    1    1
C       1.563544673      2.213952061      2.256293207
C       2.896884902      2.316432350      2.322884011
H       1.152831269      3.134791970      2.628241418
H       1.550396619      1.031641686      1.816304192
H       3.646199692      3.250748562      2.413094630
H       3.456313243      1.555061429      1.533030942
           6
  t=        94.00000    1    1
C       1.564557427      2.219922049      2.270488007
C       2.912662974      2.339478718      2.327512887
H       1.167427041      3.197037488      2.658207626
H       1.605271160      0.996301440      1.812001315
H       3.727641612      3.230163928      2.469441981
H       3.453143361      1.550808024      1.574539266
           6
  t=        94.50000    1    1
C       1.566475519      2.225363285      2.284594451
C       2.929370788      2.362469540      2.331259146
H       1.177559076      3.253199975      2.686522377
H       1.652188517      0.974239049      1.812792505
H       3.801406691      3.204123374      2.526585813
H       3.448205030      1.551778033      1.623378281
           6
  t=        95.00000    1    1
C       1.569503531      2.230534503      2.298664838
C       2.946801109      2.385327536      2.334310751
H       1.183848894      3.300503924      2.712117024
H       1.690738762      0.966207636      1.819102336
H       3.866521801      3.172703315      2.583698262
H       3.442291390      1.557755254      1.678157048
           6
  t=        95.50000    1    1
C       1.573831465      2.235649972      2.312730113
C       2.964760002      2.407996065      2.336864547
H       1.186583049      3.336884826      2.734267614
H       1.720346447      0.972635750      1.831222260
H       3.922237697      3.136196848      2.639964565
H       3.436487464      1.568204311      1.737408578
           6
  t=        96.00000    1    1
C       1.579576974      2.240892322      2.326810707
C       2.983088968      2.430458558      2.339131612
H       1.185985370      3.361135457      2.752566625
H       1.740620350      0.993238681      1.849146351
H       3.968068606      3.095234715      2.694719783
H       3.431933088      1.582007683      1.799452663
           6
  t=        96.50000    1    1
C       1.586821867      2.246403832      2.340912134
C       3.001652530      2.452734821      2.341326223
H       1.182289003      3.372630599      2.766861524
H       1.751247874      1.027474273      1.872695287
H       4.003654427      3.050841932      2.747457422
H       3.429707326      1.597376367      1.862508683
           6
  t=        97.00000    1    1
C       1.595618189      2.252307539      2.355033531
C       3.020322042      2.474863892      2.343659873
H       1.175804034      3.371153128      2.777169013
H       1.752032312      1.074546090      1.901507317
H       4.028838324      3.004480384      2.797827737
H       3.430766408      1.611930810      1.924761656
           6
  t=        97.50000    1    1
C       1.605991584      2.258745300      2.369182606
C       3.038969164      2.496876893      2.346326257
H       1.166905110      3.356733944      2.783586812
H       1.742891024      1.133165504      1.934980711
H       4.043717799      2.957875247      2.845584996
H       3.435944473      1.623142370      1.984561461
           6
  t=        98.00000    1    1
C       1.617944227      2.265917092      2.383392936
C       3.057469009      2.518768208      2.349483058
H       1.155967638      3.329743761      2.786293700
H       1.723872408      1.200973772      1.972103022
H       4.048633983      2.912747257      2.890542154
H       3.445938824      1.628962440      2.040649815
           6
  t=        98.50000    1    1
C       1.631482302      2.274094224      2.397736542
C       3.075685657      2.540459522      2.353238472
H       1.143230527      3.291334018      2.785658904
H       1.695293036      1.273948740      2.011189184
H       4.044260599      2.870697013      2.932603230
H       3.461066124      1.628361480      2.092291119
           6
  t=        99.00000    1    1
C       1.646610819      2.283624729      2.412340900
C       3.093491073      2.561778088      2.357644245
H       1.128699699      3.243366430      2.782127460
H       1.657829469      1.346511458      2.049912053
H       4.031645810      2.833116303      2.971881298
H       3.481061653      1.621576257      2.139118887
           6
  t=        99.50000    1    1
C       1.663355295      2.294958566      2.427397704
C       3.110785964      2.582463442      2.362705867
H       1.112159874      3.188000229      2.776150111
H       1.612266073      1.411653015      2.085287935
H       4.012103374      2.801283342      3.008718349
H       3.504921665      1.609920295      2.180974466
           6
  t=       100.00000    1    1
C       1.681802847      2.308549959      2.443107448
C       3.127508342      2.602221818      2.368382289
H       1.092949000      3.128208083      2.768586706
H       1.558995694      1.461327363      2.113911376
H       3.987187604      2.776350015      3.043782843
H       3.531061624      1.595403114      2.217835135
           6
  t=       100.50000    1    1
C       1.702115462      2.324551291      2.459542487
C       3.143626846      2.620790066      2.374593544
H       1.069664689      3.067912491      2.760872716
H       1.497624572      1.489845458      2.133394520
H       3.958621201      2.759236117      3.078118657
H       3.557998469      1.580191341      2.249700079
           6
  t=       101.00000    1    1
C       1.724396965      2.342509093      2.476550501
C       3.159123179      2.637936497      2.381234328
H       1.040456923      3.011621795      2.754785039
H       1.428382349      1.497918913      2.143710815
H       3.928105268      2.750698645      3.113006029
H       3.584632376      1.566472129      2.276608490
           6
  t=       101.50000    1    1
C       1.748490875      2.361568887      2.493804413
C       3.173982379      2.653425527      2.388212520
H       1.004152439      2.962970236      2.752012457
H       1.354101668      1.491895119      2.146883324
H       3.897130003      2.751570865      3.149661355
H       3.609856591      1.556419406      2.298627170
           6
  t=       102.00000    1    1
C       1.773913541      2.380940251      2.510925141
C       3.188230745      2.667089603      2.395502136
H       0.961252437      2.923420650      2.753606211
H       1.279327054      1.479306962      2.145837692
H       3.867008218      2.762468123      3.189014472
H       3.632762260      1.551837037      2.315675995
           6
  t=       102.50000    1    1
C       1.800051875      2.400130431      2.527649647
C       3.201909463      2.678906342      2.403108604
H       0.913897665      2.892595220      2.759633887
H       1.208228607      1.465798380      2.143148269
H       3.838407770      2.783216520      3.231592889
H       3.653185248      1.553770983      2.327655153
           6
  t=       103.00000    1    1
C       1.826310126      2.418919573      2.543872772
C       3.215089117      2.688936417      2.411050674
H       0.865450127      2.869134371      2.769619586
H       1.143885356      1.454712554      2.140330381
H       3.811123049      2.813214776      3.277246047
H       3.671147896      1.562735683      2.334705370
           6
  t=       103.50000    1    1
C       1.852145064      2.437222075      2.559579779
C       3.227890483      2.697295962      2.419377536
H       0.819561586      2.851593161      2.782996928
H       1.088226826      1.447780690      2.138060109
H       3.784511676      2.851665247      3.325083291
H       3.686745083      1.578878700      2.337197083
           6
  t=       104.00000    1    1
C       1.877075563      2.455013286      2.574811635
C       3.240445719      2.704139289      2.428168750
H       0.779650915      2.838902560      2.799181031
H       1.042349198      1.445625624      2.136455454
H       3.757967098      2.897618515      3.373682638
H       3.700226507      1.602050655      2.335582985
           6
  t=       104.50000    1    1
C       1.900677310      2.472280532      2.589631677
C       3.252841090      2.709651347      2.437527146
H       0.748851249      2.830465564      2.817591483
H       1.007092184      1.448356141      2.135388513
H       3.731139503      2.949958171      3.421304963
H       3.711997218      1.631803391      2.330330542
           6
  t=       105.00000    1    1
C       1.922629699      2.489021395      2.604101800
C       3.265104548      2.714043308      2.447577054
H       0.729653510      2.826145541      2.837768257
H       0.983040210      1.455638238      2.134595631
H       3.703885254      3.007425968      3.466053909
H       3.722612651      1.667378366      2.321840772
           6
  t=       105.50000    1    1
C       1.942744082      2.505240912      2.618270463
C       3.277223292      2.717565263      2.458454755
H       0.723624515      2.826047424      2.859414030
H       0.970376251      1.466853664      2.133766222
H       3.676178369      3.068689495      3.506060760
H       3.732749409      1.707581267      2.310389021
           6
  t=       106.00000    1    1
C       1.960930035      2.520942232      2.632160093
C       3.289151089      2.720509567      2.470299159
H       0.731550532      2.830284168      2.882385221
H       0.969000789      1.481400250      2.132656948
H       3.648134397      3.132377863      3.539630993
H       3.743233549      1.750751078      2.296134286
           6
  t=       106.50000    1    1
C       1.977155431      2.536121347      2.645761936
C       3.300800875      2.723205410      2.483243525
H       0.753672245      2.838916470      2.906647719
H       0.978712352      1.498833107      2.131175806
H       3.620063532      3.197047627      3.565352097
H       3.755135906      1.794840665      2.279131628
           6
  t=       107.00000    1    1
C       1.991428147      2.550762987      2.659037195
C       3.312039558      2.725999949      2.497410651
H       0.789851160      2.851966205      2.932273600
H       0.999318435      1.518907206      2.129377420
H       3.592462989      3.261307009      3.582220293
H       3.769782300      1.837510304      2.259257196
           6
  t=       107.50000    1    1
C       2.003796743      2.564834288      2.671922639
C       3.322720877      2.729221108      2.512904335
H       0.839597401      2.869359206      2.959519221
H       1.030622626      1.541633114      2.127366636
H       3.565894510      3.324035700      3.589680781
H       3.788461430      1.876428063      2.236221201
           6
  t=       108.00000    1    1
C       2.014339504      2.578276387      2.684343105
C       3.332746375      2.733138423      2.529793500
H       0.901688997      2.891050366      2.988465544
H       1.072332987      1.567192294      2.125631044
H       3.541040114      3.384132569      3.587680246
H       3.812245559      1.910048425      2.209582781
           6
  t=       108.50000    1    1
C       2.023163814      2.590979762      2.696199522
C       3.342081390      2.737910857      2.548108345
H       0.974229600      2.917131654      3.019233588
H       1.124261335      1.596080097      2.124896539
H       3.518715057      3.440621784      3.576397087
H       3.841537429      1.938170760      2.179137234
           6
  t=       109.00000    1    1
C       2.030405505      2.602758713      2.707347089
C       3.350763870      2.743572011      2.567827109
H       1.054543208      2.948091050      3.052216153
H       1.186532569      1.629161837      2.126120141
H       3.499887482      3.492651260      3.556120791
H       3.875849278      1.962106214      2.145230011
           6
  t=       109.50000    1    1
C       2.036270375      2.613360625      2.717587164
C       3.358901213      2.750056789      2.588856502
H       1.139110439      2.984752542      3.088423819
H       1.259279515      1.667599515      2.130229479
H       3.485621267      3.539726441      3.527251006
H       3.913771870      1.984149120      2.109001766
           6
  t=       110.00000    1    1
C       2.041130245      2.622507274      2.726696338
C       3.366632806      2.757261818      2.611041659
H       1.223553630      3.027981119      3.129793912
H       1.341676565      1.712554703      2.137517370
H       3.476963980      3.582046810      3.490129351
H       3.953369499      2.006620408      2.072388156
           6
  t=       110.50000    1    1
C       2.045406631      2.629932877      2.734464031
C       3.374105585      2.765096139      2.634201398
H       1.303481171      3.079170015      3.178618517
H       1.431878272      1.764363296      2.147833054
H       3.475132006      3.620038268      3.445233023
H       3.992889385      2.031615866      2.037438773
           6
  t=       111.00000    1    1
C       2.049546280      2.635599996      2.740842447
C       3.381396160      2.773458716      2.658095244
H       1.375939808      3.139366815      3.236370340
H       1.526943943      1.821651437      2.160401993
H       3.481123184      3.654007288      3.393482119
H       4.030991428      2.060805308      2.005970288
           6
  t=       111.50000    1    1
C       2.053873052      2.639843460      2.746045362
C       3.388543299      2.782193593      2.682384155
H       1.440870671      3.208343637      3.302481006
H       1.623550897      1.881003794      2.174000253
H       3.495145215      3.684121250      3.336789241
H       4.066528568      2.095533168      1.979355020
           6
  t=       112.00000    1    1
C       2.058602084      2.643401644      2.750636439
C       3.395622857      2.791131214      2.706701407
H       1.500719724      3.283335541      3.374014460
H       1.717215781      1.936910704      2.185758619
H       3.516799850      3.711195237      3.277519600
H       4.098469049      2.136481108      1.958686391
           6
  t=       112.50000    1    1
C       2.063965672      2.647331035      2.755498349
C       3.402714254      2.800110941      2.730711113
H       1.558003357      3.359886747      3.446681241
H       1.802867493      1.981768333      2.190451340
H       3.545554570      3.736760154      3.218020863
H       4.126185801      2.183503190      1.944616637
           6
  t=       113.00000    1    1
C       2.070252447      2.652699673      2.761584321
C       3.409901602      2.809042208      2.754165746
H       1.613710273      3.433912876      3.516723536
H       1.875943112      2.007183695      2.181277303
H       3.580876873      3.762353191      3.160143804
H       4.149344073      2.235892338      1.937445001
           6
  t=       113.50000    1    1
C       2.077627741      2.660125514      2.769527098
C       3.417254106      2.817928914      2.776903996
H       1.667853095      3.502195811      3.581147562
H       1.934445008      2.008911911      2.154155704
H       3.622295545      3.788899024      3.105138936
H       4.167605407      2.292777024      1.937378092
           6
  t=       114.00000    1    1
C       2.086055040      2.669550389      2.779394342
C       3.424806640      2.826829803      2.798858159
H       1.720228057      3.561763389      3.637210227
H       1.979310869      1.990484866      2.111324594
H       3.669434977      3.816798660      3.053465917
H       4.180631019      2.353189702      1.944461803
           6
  t=       114.50000    1    1
C       2.095414762      2.680487789      2.790808438
C       3.432628285      2.835847949      2.820018518
H       1.770439464      3.610744769      3.683307073
H       2.012570115      1.959683671      2.059158761
H       3.721518021      3.845902392      3.005140760
H       4.188166122      2.415938678      1.958525151
           6
  t=       115.00000    1    1
C       2.105590638      2.692406799      2.803271652
C       3.440818159      2.845171178      2.840395409
H       1.818169634      3.648343049      3.718736780
H       2.036086127      1.923982889      2.004572854
H       3.777115107      3.875081726      2.960363420
H       4.190298925      2.479562925      1.978962480
           6
  t=       115.50000    1    1
C       2.116492693      2.704909827      2.816376666
C       3.449466963      2.854996003      2.859957837
H       1.863133891      3.674451992      3.743424340
H       2.051632204      1.889034284      1.953116508
H       3.834252010      3.902958458      2.919779110
H       4.187506390      2.542291092      2.004876766
           6
  t=       116.00000    1    1
C       2.128058189      2.717752510      2.829872958
C       3.458640084      2.865492534      2.878626654
H       1.904761132      3.689159037      3.757502422
H       2.060843644      1.858751294      1.908722303
H       3.891025289      3.928410775      2.884370503
H       4.180596177      2.602128917      2.035148314
           6
  t=       116.50000    1    1
C       2.140204314      2.730786107      2.843629057
C       3.468394559      2.876806149      2.896357141
H       1.942317494      3.692710583      3.761288754
H       2.065008327      1.835509259      1.873708536
H       3.946047374      3.950881043      2.855092652
H       4.170708991      2.657052369      2.068285487
           6
  t=       117.00000    1    1
C       2.152855711      2.743907732      2.857566353
C       3.478784637      2.889076173      2.913160615
H       1.974904224      3.685524981      3.755342990
H       2.064852997      1.820606317      1.849284492
H       3.998315954      3.970170577      2.832766406
H       4.159270668      2.705109429      2.102500318
           6
  t=       117.50000    1    1
C       2.165954942      2.757029744      2.871599829
C       3.489836903      2.902412626      2.929119656
H       2.001551052      3.668512193      3.740780329
H       2.060816812      1.814591983      1.835937139
H       4.046995961      3.986139178      2.817900778
H       4.148015004      2.744714180      2.135710690
           6
  t=       118.00000    1    1
C       2.179473972      2.770069446      2.885642306
C       3.501529364      2.916897934      2.944350081
H       2.021212666      3.642809370      3.718890826
H       2.053275694      1.817777584      1.833988208
H       4.091372905      3.998691678      2.810962617
H       4.138922014      2.774516513      2.165496702
           6
  t=       118.50000    1    1
C       2.193415702      2.782922147      2.899582049
C       3.513787487      2.932577511      2.958985854
H       2.032851668      3.609923031      3.691216400
H       2.042603931      1.830367224      1.843753513
H       4.130919709      4.007904964      2.812422779
H       4.134035422      2.793435272      2.189264907
           6
  t=       119.00000    1    1
C       2.207786919      2.795435466      2.913268076
C       3.526551640      2.949464072      2.973132702
H       2.035442752      3.571956277      3.659810831
H       2.029255500      1.852583405      1.865479443
H       4.165117092      4.013990413      2.822640726
H       4.135075511      2.800597678      2.204894924
           6
  t=       119.50000    1    1
C       2.222602262      2.807363971      2.926456253
C       3.539827920      2.967549366      2.986819392
H       2.028002217      3.532071710      3.627712405
H       2.013752289      1.884571724      1.899329071
H       4.193472857      4.017118996      2.841855649
H       4.142749231      2.795547360      2.211512414
           6
  t=       120.00000    1    1
C       2.237923187      2.818348103      2.938772276
C       3.553690819      2.986800913      2.999980584
H       2.009591610      3.494954876      3.599308628
H       1.996589340      1.925895060      1.945142110
H       4.215807342      4.017272078      2.870268465
H       4.156059712      2.778725943      2.209927934
           6
  t=       120.50000    1    1
C       2.253850741      2.827994191      2.949796180
C       3.568284812      3.007139081      3.012483604
H       1.978916255      3.465881479      3.579521271
H       1.978245859      1.975721935      2.002442282
H       4.232203421      4.014274975      2.907820793
H       4.172814024      2.751503616      2.202339415
           6
  t=       121.00000    1    1
C       2.270520149      2.836018081      2.959209372
C       3.583786031      3.028444696      3.024146708
H       1.934083854      3.449080563      3.572409828
H       1.959127540      2.033047567      2.070543207
H       4.242751845      4.007914017      2.954298408
H       4.190697974      2.715675702      2.191549820
           6
  t=       121.50000    1    1
C       2.287956150      2.842501921      2.967062483
C       3.600350651      3.050520192      3.034795523
H       1.874348186      3.445145346      3.578573954
H       1.939507810      2.096334237      2.147954491
H       4.247649494      3.998454702      3.009186488
H       4.207831759      2.673296491      2.180439199
           6
  t=       122.00000    1    1
C       2.306012025      2.847977953      2.973872107
C       3.617952190      3.073054260      3.044353771
H       1.802307439      3.450695493      3.594296682
H       1.919445058      2.162842657      2.231812495
H       4.247671620      3.986830369      3.071569898
H       4.222847351      2.626919702      2.171256619
           6
  t=       122.50000    1    1
C       2.324402457      2.853212756      2.980428701
C       3.636497082      3.095677171      3.052735388
H       1.722591683      3.461083010      3.614472272
H       1.898439761      2.228521403      2.317795192
H       4.244047517      3.974442687      3.140573471
H       4.234899589      2.579114346      2.165911683
           6
  t=       123.00000    1    1
C       2.342917803      2.859097293      2.987655115
C       3.655790500      3.117964209      3.059837511
H       1.640578602      3.472319834      3.634606242
H       1.874411585      2.287305878      2.399676603
H       4.238660456      3.963232391      3.215578637
H       4.243627347      2.532436708      2.165972766
           6
  t=       123.50000    1    1
C       2.361558014      2.866458249      2.996385480
C       3.675569753      3.139466424      3.065548906
H       1.560982925      3.482056477      3.652050888
H       1.843545770      2.332404811      2.470542299
H       4.233654861      3.955719444      3.296351192
H       4.249116980      2.489006605      2.172622351
           6
  t=       124.00000    1    1
C       2.380429281      2.875818665      3.007117594
C       3.695581322      3.159818842      3.069783906
H       1.487141199      3.489408410      3.665566916
H       1.802005727      2.359118487      2.526028633
H       4.230838306      3.953925228      3.383086939
H       4.251816435      2.450503435      2.186356782
           6
  t=       124.50000    1    1
C       2.399349907      2.887228157      3.019879587
C       3.715694762      3.178847157      3.072503310
H       1.421331775      3.494419077      3.674700623
H       1.749696194      2.367284901      2.566601531
H       4.230966611      3.958168971      3.475992952
H       4.252506227      2.418212297      2.207088676
           6
  t=       125.00000    1    1
C       2.417717975      2.900399796      3.034372198
C       3.735881371      3.196556489      3.073777763
H       1.365607516      3.497232113      3.679696511
H       1.691356052      2.360706338      2.595766834
H       4.233572369      3.967074812      3.574192042
H       4.252376271      2.392921059      2.234668983
           6
  t=       125.50000    1    1
C       2.434601490      2.914922496      3.050204714
C       3.756289783      3.213048213      3.073820259
H       1.322871502      3.497643973      3.681127115
H       1.633781190      2.344648995      2.617124979
H       4.237229253      3.978364355      3.675174114
H       4.252488152      2.375535898      2.269552497
           6
  t=       126.00000    1    1
C       2.449491026      2.930379836      3.066977300
C       3.776952990      3.228511423      3.072987451
H       1.294404501      3.496013977      3.679667136
H       1.582258497      2.323562813      2.633762015
H       4.240537559      3.989237787      3.775790086
H       4.253351000      2.366756125      2.311642061
           6
  t=       126.50000    1    1
C       2.462262307      2.946465202      3.084367181
C       3.797717107      3.243126298      3.071671318
H       1.280363350      3.492713809      3.675945944
H       1.540406347      2.300793641      2.647860379
H       4.242679345      3.997292850      3.872870739
H       4.255321997      2.366773012      2.360470485
           6
  t=       127.00000    1    1
C       2.472909390      2.962980937      3.102157582
C       3.818368013      3.257041418      3.070235716
H       1.281001658      3.488024127      3.670512328
H       1.510738727      2.278568171      2.660518439
H       4.243266515      4.000886532      3.963620429
H       4.258643853      2.375307001      2.415433686
           6
  t=       127.50000    1    1
C       2.481503994      2.979793903      3.120207448
C       3.838706158      3.270428286      3.069029997
H       1.296518082      3.482264241      3.663836426
H       1.494571735      2.258177792      2.672133763
H       4.242060777      3.998938585      4.045688228
H       4.263563305      2.391370514      2.475532901
           6
  t=       128.00000    1    1
C       2.488123316      2.996801611      3.138411134
C       3.858558710      3.283490070      3.068398747
H       1.327032315      3.475705930      3.656374905
H       1.492545488      2.240514276      2.682810661
H       4.238937924      3.990901714      4.117093949
H       4.270584302      2.413147615      2.539340173
           6
  t=       128.50000    1    1
C       2.492862196      3.013901930      3.156681990
C       3.877755391      3.296482215      3.068677267
H       1.372400027      3.468796031      3.648595192
H       1.504910096      2.226200147      2.692568633
H       4.233840136      3.976619309      4.176288204
H       4.280557776      2.437898731      2.604955132
           6
  t=       129.00000    1    1
C       2.495919591      3.030984583      3.174929604
C       3.896097990      3.309694367      3.070161730
H       1.431864233      3.462139021      3.641113883
H       1.531350067      2.215655705      2.701325401
H       4.226871268      3.956492656      4.222363040
H       4.294443476      2.462060491      2.670299632
           6
  t=       129.50000    1    1
C       2.497595487      3.047914493      3.193050239
C       3.913382170      3.323416883      3.073092397
H       1.503850231      3.456645280      3.634705062
H       1.571091964      2.209114644      2.708982114
H       4.218299926      3.931399542      4.255034019
H       4.313181206      2.481760763      2.733356104
           6
  t=       130.00000    1    1
C       2.498383739      3.064493760      3.210880994
C       3.929401107      3.337880028      3.077655410
H       1.584826775      3.453959840      3.630704355
H       1.622988913      2.206750922      2.715528877
H       4.208551036      3.902584687      4.274445385
H       4.337603974      2.493550189      2.792377633
           6
  t=       130.50000    1    1
C       2.498932840      3.080450979      3.228157289
C       3.943940715      3.353162683      3.083968381
H       1.668958162      3.456958241      3.631180742
H       1.685984181      2.208688665      2.721380290
H       4.198324518      3.871131077      4.280992760
H       4.368728063      2.495640178      2.846236250
           6
  t=       131.00000    1    1
C       2.500068053      3.095436556      3.244484209
C       3.956876930      3.369144124      3.092064935
H       1.748156610      3.469493718      3.639406653
H       1.758994614      2.215213903      2.727245188
H       4.188306362      3.837826544      4.275006811
H       4.406683146      2.488707776      2.894925018
           6
  t=       131.50000    1    1
C       2.502797275      3.109004650      3.259355485
C       3.968212883      3.385534614      3.101926004
H       1.812621985      3.496412384      3.660127904
H       1.840562870      2.226627964      2.733663331
H       4.179090189      3.803613084      4.256863924
H       4.450086034      2.475428446      2.939041738
           6
  t=       132.00000    1    1
C       2.507921321      3.120782733      3.272342023
C       3.978012981      3.401944443      3.113470335
H       1.855429021      3.541821240      3.697437429
H       1.928784697      2.242981248      2.740906885
H       4.171394807      3.769735828      4.227586138
H       4.496737679      2.459482276      2.979280406
           6
  t=       132.50000    1    1
C       2.515626484      3.130776121      3.283365307
C       3.986357318      3.417955319      3.126498922
H       1.877125540      3.605879251      3.751561621
H       2.021272519      2.263791730      2.749002919
H       4.166134781      3.737846049      4.189705910
H       4.544389116      2.444461902      3.016161938
           6
  t=       133.00000    1    1
C       2.525574233      3.139426378      3.292745110
C       3.993301449      3.433175469      3.140719694
H       1.884344757      3.684240772      3.818395623
H       2.115489269      2.287964981      2.757615365
H       4.164409510      3.710049125      4.147225748
H       4.591216654      2.433108745      3.049794677
           6
  t=       133.50000    1    1
C       2.537288541      3.147490702      3.301100788
C       3.998908589      3.447266381      3.155674252
H       1.885270479      3.769669207      3.891222212
H       2.208570340      2.313497716      2.765801003
H       4.167346828      3.688793686      4.106005832
H       4.635692187      2.427225106      3.080060969
           6
  t=       134.00000    1    1
C       2.550492211      3.155772789      3.309065264
C       4.003208123      3.459905835      3.170721029
H       1.885732009      3.855338091      3.963888425
H       2.297393096      2.337315313      2.771916386
H       4.176560914      3.676935213      4.074184597
H       4.676447711      2.428119511      3.106721808
           6
  t=       134.50000    1    1
C       2.565082901      3.164923619      3.317121624
C       4.006182861      3.470804783      3.185166205
H       1.888868482      3.936408243      4.032169622
H       2.379308992      2.356078688      2.774040610
H       4.194155341      3.677408411      4.060735695
H       4.712313357      2.436722845      3.129460113
           6
  t=       135.00000    1    1
C       2.580960963      3.175365193      3.325578247
C       4.007842707      3.479807725      3.198584031
H       1.896219282      4.009916057      4.093580503
H       2.453029048      2.367417021      2.770779963
H       4.221686430      3.692017982      4.071192712
H       4.742551786      2.453389302      3.148019830
           6
  t=       135.50000    1    1
C       2.597991371      3.187248132      3.334564766
C       4.008307440      3.486981972      3.211124732
H       1.908449339      4.074287756      4.146826676
H       2.518416372      2.370845959      2.761913971
H       4.259038234      3.720499960      4.103847746
H       4.766932568      2.477844156      3.162289068
           6
  t=       136.00000    1    1
C       2.616070311      3.200507208      3.344070963
C       4.007850702      3.492572975      3.223411568
H       1.925754588      4.128647650      4.191149060
H       2.575337425      2.367483163      2.748348886
H       4.304249872      3.760949066      4.151339464
H       4.785330577      2.509603235      3.172177162
           6
  t=       136.50000    1    1
C       2.635104831      3.214947391      3.354001084
C       4.006881215      3.496941367      3.236197599
H       1.948101653      4.172342852      4.225976537
H       2.623248148      2.359386691      2.731796288
H       4.354294648      3.810548984      4.204731475
H       4.797587324      2.548104398      3.177647791
           6
  t=       137.00000    1    1
C       2.654956674      3.230334576      3.364227595
C       4.005844359      3.500472475      3.250073262
H       1.975401557      4.204716950      4.250771373
H       2.661453696      2.348912532      2.714310489
H       4.406322885      3.866472828      4.256965186
H       4.803676743      2.592673089      3.178727177
           6
  t=       137.50000    1    1
C       2.675452477      3.246445483      3.374636580
C       4.005112021      3.503514802      3.265377426
H       2.007439739      4.225306927      4.265153307
H       2.689611369      2.338373974      2.697834617
H       4.458170109      3.926271558      4.303666345
H       4.803955028      2.642415926      3.175546245
           6
  t=       138.00000    1    1
C       2.696376849      3.263089391      3.385154784
C       4.004981355      3.506385146      3.282260450
H       2.043829431      4.233982823      4.268991761
H       2.707995213      2.329822169      2.684003889
H       4.508105546      3.987726653      4.342208845
H       4.799291383      2.696127940      3.168307679
           6
  t=       138.50000    1    1
C       2.717410245      3.280118434      3.395746736
C       4.005774193      3.509398872      3.300749099
H       2.084143935      4.230677998      4.262177476
H       2.717107841      2.324739614      2.674267284
H       4.554749505      4.048893899      4.371357329
H       4.790962358      2.752341640      3.157010905
           6
  t=       139.00000    1    1
C       2.738218656      3.297390099      3.406389356
C       4.007724763      3.512856427      3.320812137
H       2.127916717      4.215607346      4.244864155
H       2.717689379      2.324396279      2.669659015
H       4.597149578      4.108306638      4.390650271
H       4.780835723      2.809156937      3.141576736
           6
  t=       139.50000    1    1
C       2.758456750      3.314750366      3.417054033
C       4.011032497      3.517062127      3.342420332
H       2.174638135      4.189301815      4.217444821
H       2.710540655      2.329868992      2.670997366
H       4.634432140      4.164721552      4.399940231
H       4.771232424      2.864418489      3.121630504
           6
  t=       140.00000    1    1
C       2.777783660      3.332030768      3.427698817
C       4.015879354      3.522316861      3.365583866
H       2.223752298      4.152533000      4.180423104
H       2.696399808      2.342115036      2.679005191
H       4.665721750      4.216963735      4.399174957
H       4.764739111      2.915994417      3.096376559
           6
  t=       140.50000    1    1
C       2.795883209      3.349048696      3.438263211
C       4.022444479      3.528872787      3.390331717
H       2.274461211      4.106500384      4.134630852
H       2.675984961      2.361843297      2.694145995
H       4.690309000      4.263999751      4.388479158
H       4.763777944      2.962181069      3.064770375
           6
  t=       141.00000    1    1
C       2.812564113      3.365524161      3.448571251
C       4.030956231      3.536857466      3.416634618
H       2.324522311      4.054281989      4.082945226
H       2.650192273      2.389275832      2.716240181
H       4.707789835      4.305206486      4.368210818
H       4.769657576      3.002117761      3.026201891
           6
  t=       141.50000    1    1
C       2.827884777      3.381003938      3.458240185
C       4.041743420      3.546240600      3.444369296
H       2.369138973      4.001838399      4.031381446
H       2.620036076      2.424205326      2.744526268
H       4.717899981      4.340299443      4.338763777
H       4.781810651      3.036097217      2.981053136
           6
  t=       142.00000    1    1
C       2.842171017      3.394788731      3.466637358
C       4.055227761      3.556948261      3.473369002
H       2.401271059      3.957864031      3.988587585
H       2.586304755      2.466368053      2.778217401
H       4.720236613      4.368766971      4.300298679
H       4.797984433      3.065413912      2.930827718
           6
  t=       142.50000    1    1
C       2.856078992      3.406024785      3.472955802
C       4.071710787      3.568844778      3.503358334
H       2.411644017      3.933135811      3.965521329
H       2.549815103      2.515357030      2.816135519
H       4.714793444      4.390531106      4.253269200
H       4.815231376      3.091565510      2.878189490
           6
  t=       143.00000    1    1
C       2.870135877      3.414363385      3.476841735
C       4.091255712      3.581716722      3.533897825
H       2.393921026      3.933516695      3.968454448
H       2.511568112      2.570176372      2.856932245
H       4.702209701      4.406064704      4.199210038
H       4.831213240      3.115910441      2.826132449
           6
  t=       143.50000    1    1
C       2.884337257      3.420341297      3.478765222
C       4.113590775      3.595317709      3.564501323
H       2.350788854      3.955850258      3.994677598
H       2.472418250      2.628370056      2.898453348
H       4.683688078      4.416525561      4.140529049
H       4.844476904      3.139443225      2.777304015
           6
  t=       144.00000    1    1
C       2.898201281      3.425062867      3.479736631
C       4.138320869      3.609365123      3.594703859
H       2.291763035      3.991115879      4.035323674
H       2.432495798      2.686507543      2.938144471
H       4.660904455      4.423773752      4.080045308
H       4.854150204      3.162963497      2.733807754
           6
  t=       144.50000    1    1
C       2.911271220      3.429591874      3.480735839
C       4.165006500      3.623476928      3.624027948
H       2.226274069      4.031095108      4.082039533
H       2.391083754      2.740885786      2.973379585
H       4.636285631      4.431016822      4.020945412
H       4.859771976      3.187061804      2.697449942
           6
  t=       145.00000    1    1
C       2.923373177      3.434702343      3.482482365
C       4.193027241      3.637094015      3.651996091
H       2.161204340      4.070506440      4.129275722
H       2.347239231      2.788494148      3.002002700
H       4.613262562      4.443781303      3.966765609
H       4.861436641      3.211942840      2.669515900
           6
  t=       145.50000    1    1
C       2.934507735      3.440839357      3.485421999
C       4.221729607      3.649570540      3.678198422
H       2.100955525      4.106632436      4.173815633
H       2.300447352      2.827600736      3.022881756
H       4.595335382      4.468933634      3.920584952
H       4.859537055      3.237581752      2.650847208
           6
  t=       146.00000    1    1
C       2.944698575      3.448161663      3.489774594
C       4.250606729      3.660406850      3.702383222
H       2.048172191      4.138340252      4.213858552
H       2.251270566      2.858116622      3.036182777
H       4.584488434      4.511850083      3.883843340
H       4.854639367      3.263886119      2.642018359
           6
  t=       146.50000    1    1
C       2.953979359      3.456598249      3.495549691
C       4.279343356      3.669527730      3.724521221
H       2.004194737      4.165456251      4.248632915
H       2.201622659      2.881570688      3.043351495
H       4.580124492      4.573049077      3.855876238
H       4.847441934      3.290724696      2.643254794
           6
  t=       147.00000    1    1
C       2.962306626      3.466005406      3.502666313
C       4.307858680      3.677290197      3.744678513
H       1.969477258      4.188159588      4.277967536
H       2.154204630      2.900035165      3.046236861
H       4.579727693      4.647917584      3.835040857
H       4.838786279      3.317917395      2.654698895
           6
  t=       147.50000    1    1
C       2.969603895      3.476252259      3.511018129
C       4.336168332      3.684252904      3.762924651
H       1.943920843      4.206683445      4.302011698
H       2.111557201      2.915364842      3.046529687
H       4.580580605      4.729539575      3.819906009
H       4.829673095      3.345195045      2.676379971
           6
  t=       148.00000    1    1
C       2.975842802      3.487236713      3.520474505
C       4.364220957      3.690964680      3.779348105
H       1.927330729      4.221169103      4.320928312
H       2.075703494      2.929025432      3.045821275
H       4.580817048      4.811393646      3.809680127
H       4.821090103      3.372148890      2.707837788
           6
  t=       148.50000    1    1
C       2.981019096      3.498902301      3.530911359
C       4.391868983      3.697870739      3.794075623
H       1.919828741      4.231584992      4.334684722
H       2.048311026      2.941948222      3.045479980
H       4.579611121      4.888553067      3.804130956
H       4.813882936      3.398173775      2.747937161
           6
  t=       149.00000    1    1
C       2.985130299      3.511232646      3.542243772
C       4.418895494      3.705318814      3.807281752
H       1.921702499      4.237778149      4.343215986
H       2.030768587      2.954606087      3.046429906
H       4.576914255      4.957643529      3.803250880
H       4.809037970      3.422375765      2.794758539
           6
  t=       149.50000    1    1
C       2.988206982      3.524230325      3.554427788
C       4.445016458      3.713574129      3.819219559
H       1.933240672      4.239562682      4.346520726
H       2.024050202      2.967201608      3.049163119
H       4.573133548      5.016573630      3.806972281
H       4.807905597      3.443638520      2.845387173
           6
  t=       150.00000    1    1
C       2.990317860      3.537902548      3.567458202
C       4.469903284      3.722849178      3.830224160
H       1.954743815      4.236812658      4.344656609
H       2.028674044      2.979757643      3.053775208
H       4.568816872      5.064098464      3.815110715
H       4.812215793      3.460692155      2.895923139
           6
  t=       150.50000    1    1
C       2.991572289      3.552252159      3.581345925
C       4.493220835      3.733330955      3.840705235
H       1.986471332      4.229557422      4.337764545
H       2.044673701      2.992128238      3.060048639
H       4.564465942      5.099473145      3.827414138
H       4.823864197      3.472136057      2.941683460
           6
  t=       151.00000    1    1
C       2.992113932      3.567281333      3.596101314
C       4.514666162      3.745182764      3.851082409
H       2.028581670      4.217928182      4.326033128
H       2.071626453      3.004024658      3.067591610
H       4.560519269      5.122268426      3.843602047
H       4.844574567      3.476585231      2.978028337
           6
  t=       151.50000    1    1
C       2.992141329      3.582980256      3.611710301
C       4.534011490      3.758517059      3.861658564
H       2.080879236      4.202195986      4.309758628
H       2.108648858      3.015080102      3.076006945
H       4.557415043      5.132288958      3.863382483
H       4.875336099      3.473107761      3.001909217
           6
  t=       152.00000    1    1
C       2.991941673      3.599309276      3.628112693
C       4.551125325      3.773364040      3.872496815
H       2.142549109      4.182961779      4.289541919
H       2.154482175      3.024836984      3.084969504
H       4.555667408      5.129492994      3.886509448
H       4.915853065      3.461714651      3.013261544
           6
  t=       152.50000    1    1
C       2.991918359      3.616170087      3.645178191
C       4.565987985      3.789640957      3.883411148
H       2.211757338      4.161591788      4.266785698
H       2.207512334      3.032622176      3.094039215
H       4.555874729      5.114146432      3.912765125
H       4.964402901      3.443604307      3.015109599
           6
  t=       153.00000    1    1
C       2.992590780      3.633381686      3.662700570
C       4.578645828      3.807180553      3.894072137
H       2.285287261      4.140598455      4.244194608
H       2.265965458      3.037540391      3.102472064
H       4.558666082      5.086799460      3.941951324
H       5.018605779      3.420759143      3.012073570
           6
  t=       153.50000    1    1
C       2.994610845      3.650659536      3.680354144
C       4.589161175      3.825756241      3.904141765
H       2.358053260      4.123852557      4.226138031
H       2.328161110      3.038688761      3.109455728
H       4.564611696      5.048399245      3.973891349
H       5.076146983      3.395354483      3.008681592
           6
  t=       154.00000    1    1
C       2.998829911      3.667563070      3.697612690
C       4.597595461      3.845042420      3.913350657
H       2.422268411      4.117047194      4.219188515
H       2.392551202      3.035343243      3.114435253
H       4.574254043      5.000958367      4.008443557
H       5.134942537      3.369538085      3.008537778
           6
  t=       154.50000    1    1
C       3.006135301      3.683558699      3.713834964
C       4.604021799      3.864592855      3.921512794
H       2.469182795      4.126661013      4.230883705
H       2.457749700      3.027106158      3.117205470
H       4.588167451      4.948066025      4.045593992
H       5.193109803      3.345315042      3.014181000
           6
  t=       155.00000    1    1
C       3.017067761      3.698290624      3.728591609
C       4.608488321      3.883883233      3.928469567
H       2.493738212      4.156502607      4.265805767
H       2.522666978      3.014058178      3.117997416
H       4.607056979      4.894727730      4.085799350
H       5.249074684      3.324277711      3.027347401
           6
  t=       155.50000    1    1
C       3.031578923      3.711815231      3.741939267
C       4.611030594      3.902268885      3.934041216
H       2.497409247      4.204998022      4.322353360
H       2.586595907      2.996853466      3.117490432
H       4.631551259      4.847783176      4.130338008
H       5.301593614      3.307515979      3.049147618
           6
  t=       156.00000    1    1
C       3.049088949      3.724591948      3.754403908
C       4.611729407      3.919031173      3.938028820
H       2.487133577      4.265358689      4.392865289
H       2.649104666      2.976628648      3.116696154
H       4.662230790      4.815286593      4.181426552
H       5.349526745      3.295716225      3.080117606
           6
  t=       156.50000    1    1
C       3.068895798      3.737143733      3.766585430
C       4.610719477      3.933651193      3.940260077
H       2.470404615      4.329876450      4.468523825
H       2.709924218      2.954709751      3.116730234
H       4.699725419      4.803146041      4.241644203
H       5.391779923      3.289304217      3.120285136
           6
  t=       157.00000    1    1
C       3.090406922      3.749800992      3.778921563
C       4.608201801      3.946102154      3.940716717
H       2.452671829      4.393189313      4.542739674
H       2.769113522      2.932499899      3.118437353
H       4.744171543      4.811271632      4.312155329
H       5.427373889      3.288710913      3.169232308
           6
  t=       157.50000    1    1
C       3.113207761      3.762672398      3.791659205
C       4.604419065      3.956876824      3.939624152
H       2.437376096      4.452309939      4.611333139
H       2.826757170      2.911493020      3.122498267
H       4.794866056      4.833653114      4.391597347
H       5.455534290      3.294273424      3.226192748
           6
  t=       158.00000    1    1
C       3.136980290      3.775737077      3.804907271
C       4.599712353      3.966684595      3.937441575
H       2.426742568      4.505410762      4.671506189
H       2.882661991      2.893251975      3.129599017
H       4.850111354      4.862257711      4.476484387
H       5.475651967      3.306085068      3.289994924
           6
  t=       158.50000    1    1
C       3.161423910      3.788978559      3.818736029
C       4.594515367      3.976181696      3.934743233
H       2.422730729      4.550433843      4.720595745
H       2.936169255      2.879302116      3.140493962
H       4.907552186      4.890178973      4.562463039
H       5.487195432      3.323961702      3.359221134
           6
  t=       159.00000    1    1
C       3.186284070      3.802445938      3.833193345
C       4.589231681      3.985837101      3.932037928
H       2.426819545      4.585068849      4.756502589
H       2.986493406      2.870813551      3.155833395
H       4.964945910      4.913005311      4.645614023
H       5.489938199      3.347282047      3.432606523
           6
  t=       159.50000    1    1
C       3.211401107      3.816142997      3.848248318
C       4.584150174      3.995956779      3.929706310
H       2.439313310      4.608292249      4.778728071
H       3.033112519      2.868426676      3.175981456
H       5.020519200      4.928483507      4.723202304
H       5.484331530      3.374991523      3.508853142
           6
  t=       160.00000    1    1
C       3.236633265      3.830024327      3.863829420
C       4.579479347      4.006759698      3.928063558
H       2.459798107      4.620333076      4.787882493
H       3.075719881      2.872234284      3.200864283
H       5.072770047      4.935720718      4.793425183
H       5.471802755      3.405593071      3.586323955
           6
  t=       160.50000    1    1
C       3.261763810      3.844030756      3.879870273
C       4.575431867      4.018434253      3.927385969
H       2.487778655      4.621734310      4.784752410
H       3.114004576      2.882049909      3.230155198
H       5.120457402      4.934616944      4.855040494
H       5.454447569      3.437290426      3.663299940
           6
  t=       161.00000    1    1
C       3.286474277      3.858094510      3.896311892
C       4.572252561      4.031153673      3.927899196
H       2.522657853      4.613185116      4.770203509
H       3.147634297      2.897484468      3.263362996
H       5.162674264      4.925688347      4.907325390
H       5.434979824      3.468010750      3.738143505
           6
  t=       161.50000    1    1
C       3.310377401      3.872142942      3.913106201
C       4.570191318      4.045082434      3.929762967
H       2.563739361      4.595555411      4.745155436
H       3.176235634      2.917890495      3.299862739
H       5.198840917      4.909899890      4.950110815
H       5.416685926      3.495472432      3.809398594
           6
  t=       162.00000    1    1
C       3.333136926      3.886117670      3.930222103
C       4.569428982      4.060345786      3.933059121
H       2.610234828      4.569973681      4.710574298
H       3.199512257      2.942272804      3.338910566
H       5.228629987      4.888520834      4.983785399
H       5.402829779      3.517476140      3.875849675
           6
  t=       162.50000    1    1
C       3.354470990      3.899979177      3.947630326
C       4.570173510      4.077027786      3.937831261
H       2.661155935      4.537719007      4.667542798
H       3.217233667      2.969302208      3.379679469
H       5.251798629      4.862804186      5.008816072
H       5.395753641      3.532288248      3.936603407
           6
  t=       163.00000    1    1
C       3.374176102      3.913659408      3.965252245
C       4.572724662      4.095131649      3.944104828
H       2.714698658      4.500778890      4.617915690
H       3.229416508      2.997425983      3.421243460
H       5.268181414      4.833860688      5.025504092
H       5.396263240      3.539135854      3.991063454
           6
  t=       163.50000    1    1
C       3.392172595      3.926994073      3.982893989
C       4.577508766      4.114558295      3.951891759
H       2.767405454      4.462446033      4.565092717
H       3.236312815      3.025097756      3.462637457
H       5.277695625      4.802766379      5.033999127
H       5.403516085      3.538334812      4.038813358
           6
  t=       164.00000    1    1
C       3.408633475      3.939651349      4.000176746
C       4.585035415      4.135118961      3.961195856
H       2.812875623      4.428063358      4.514866171
H       3.238223532      3.050920343      3.502891609
H       5.280253325      4.770665238      5.034332638
H       5.415566251      3.530998535      4.079467721
           6
  t=       164.50000    1    1
C       3.424063410      3.951122968      4.016549966
C       4.595752662      4.156588862      3.972050604
H       2.841910796      4.405114387      4.474984113
H       3.235379529      3.073543296      3.541043178
H       5.275604719      4.738641809      5.026368370
H       5.430278721      3.518644225      4.112538656
           6
  t=       165.00000    1    1
C       3.439116491      3.960888776      4.031496023
C       4.609972919      4.178757714      3.984528485
H       2.844938586      4.401421032      4.452669063
H       3.227984643      3.091273868      3.575962542
H       5.263473329      4.707894259      5.009983602
H       5.445781977      3.502648208      4.137360181
           6
  t=       165.50000    1    1
C       3.454065845      3.968823149      4.044933278
C       4.627836227      4.201442242      3.998651840
H       2.818373629      4.419661005      4.449526758
H       3.216162124      3.102650476      3.606828514
H       5.244026892      4.679949664      4.985619175
H       5.460447232      3.483948047      4.153413477
           6
  t=       166.00000    1    1
C       3.468570282      3.975273624      4.057221601
C       4.649314741      4.224469568      4.014370593
H       2.767056146      4.456311210      4.461410665
H       3.200105817      3.106687284      3.633243063
H       5.218013730      4.656486839      4.954331549
H       5.472889391      3.463292655      4.160495229
           6
  t=       166.50000    1    1
C       3.481924042      3.980846283      4.068899266
C       4.674175545      4.247619275      4.031567824
H       2.701621063      4.504277282      4.481470664
H       3.180151096      3.103154637      3.655302237
H       5.186710923      4.639425916      4.918006056
H       5.482046028      3.441490453      4.158453477
           6
  t=       167.00000    1    1
C       3.493565705      3.986026247      4.080335488
C       4.701938396      4.270575136      4.049986675
H       2.632283658      4.557130363      4.504245707
H       3.157052801      3.093169691      3.673741553
H       5.152160442      4.631139213      4.879934882
H       5.487317189      3.419468356      4.147382756
           6
  t=       167.50000    1    1
C       3.503196658      3.991055452      4.091695590
C       4.731776483      4.292902638      4.069021503
H       2.566509619      4.610150972      4.526648603
H       3.132304387      3.079471300      3.689378414
H       5.118841185      4.635028604      4.846290486
H       5.488674993      3.398099806      4.128627078
           6
  t=       168.00000    1    1
C       3.510748313      3.996031991      4.103037780
C       4.762771008      4.313974289      4.087721295
H       2.508553900      4.660602997      4.547049693
H       3.107360923      3.064708496      3.703026576
H       5.092872681      4.655998073      4.827286790
H       5.486055279      3.378876038      4.103426848
           6
  t=       168.50000    1    1
C       3.516364383      4.000994584      4.114368182
C       4.793964451      4.333092819      4.105061945
H       2.461170611      4.706833341      4.564537765
H       3.083503040      3.051312633      3.715421961
H       5.079852998      4.699221863      4.833828980
H       5.479522303      3.363691616      4.073182064
           6
  t=       169.00000    1    1
C       3.520289630      4.005973879      4.125673805
C       4.824749594      4.349837223      4.120626100
H       2.425986932      4.747864480      4.578685172
H       3.061820858      3.041237945      3.727218324
H       5.080988384      4.766676268      4.869425479
H       5.469471403      3.354244905      4.039286061
           6
  t=       169.50000    1    1
C       3.522806688      4.011011936      4.136956555
C       4.854954054      4.364276607      4.134803003
H       2.403514825      4.783182648      4.589434216
H       3.043175728      3.035904306      3.738962794
H       5.092890430      4.855157096      4.927730878
H       5.456603969      3.351509377      4.002934002
           6
  t=       170.00000    1    1
C       3.524214197      4.016144521      4.148233889
C       4.884577246      4.376917238      4.148446314
H       2.393376433      4.812616739      4.597032269
H       3.028300298      3.036376317      3.750964062
H       5.110864288      4.956852301      4.996434809
H       5.441708553      3.355944879      3.965500252
           6
  t=       170.50000    1    1
C       3.524743795      4.021403441      4.159531592
C       4.913569544      4.388355271      4.162244342
H       2.395250121      4.836012756      4.601735269
H       3.017791346      3.043427325      3.763430889
H       5.131547667      5.063887787      5.065299761
H       5.425703478      3.367323591      3.928248709
           6
  t=       171.00000    1    1
C       3.524583026      4.026901741      4.170912091
C       4.941827130      4.399095841      4.176579402
H       2.408780528      4.853165480      4.603522204
H       3.011823674      3.056919513      3.776530264
H       5.153047445      5.169322680      5.127644107
H       5.409664772      3.385563362      3.892415621
           6
  t=       171.50000    1    1
C       3.523821099      4.032826070      4.182462166
C       4.969237348      4.409469724      4.191654526
H       2.433811931      4.863633601      4.602197411
H       3.010273244      3.076125100      3.790199231
H       5.174501639      5.268196540      5.179433547
H       5.395013594      3.410628268      3.858840581
           6
  t=       172.00000    1    1
C       3.522532461      4.039383584      4.194271578
C       4.995657843      4.419701013      4.207587389
H       2.470158321      4.867005783      4.597564384
H       3.012835398      3.100007419      3.804228345
H       5.195543660      5.357322462      5.218412293
H       5.383416352      3.442014613      3.827713621
           6
  t=       172.50000    1    1
C       3.520883686      4.046783092      4.206409082
C       5.020864106      4.429994677      4.224432037
H       2.517310563      4.863065917      4.589585113
H       3.019077867      3.127255946      3.818381804
H       5.216172834      5.434333190      5.243428051
H       5.376505445      3.478685816      3.798997583
           6
  t=       173.00000    1    1
C       3.519118151      4.055211449      4.218922213
C       5.044591994      4.440511104      4.242170685
H       2.574441828      4.851830536      4.578486719
H       3.028425651      3.156443838      3.832323560
H       5.236603241      5.497673928      5.254236444
H       5.375716084      3.519469355      3.772691266
           6
  t=       173.50000    1    1
C       3.517542757      4.064804893      4.231835831
C       5.066609328      4.451350377      4.260746559
H       2.640156561      4.833832539      4.564896537
H       3.040125806      3.185999359      3.845515434
H       5.257029510      5.546763973      5.251276447
H       5.382111751      3.563168855      3.748646824
           6
  t=       174.00000    1    1
C       3.516539382      4.075640178      4.245145891
C       5.086726060      4.462585890      4.280128427
H       2.712190869      4.810538227      4.549952510
H       3.053352395      3.214053015      3.857224741
H       5.277474927      5.581162814      5.234848546
H       5.396473243      3.608838898      3.726578869
           6
  t=       174.50000    1    1
C       3.516598328      4.087684280      4.258800464
C       5.104772326      4.474265430      4.300306630
H       2.787099662      4.784793559      4.535345374
H       3.067305759      3.238623347      3.866713191
H       5.297827452      5.600367184      5.205090770
H       5.419339090      3.655942328      3.706130767
           6
  t=       175.00000    1    1
C       3.518376815      4.100687097      4.272650067
C       5.120596077      4.486389035      4.321257151
H       2.859533783      4.761458092      4.523504066
H       3.081335129      3.258191447      3.873556942
H       5.317950649      5.604094853      5.162317864
H       5.450826199      3.704400437      3.687050072
           6
  t=       175.50000    1    1
C       3.522730594      4.114119021      4.286412802
C       5.134042587      4.498844086      4.342852169
H       2.921899983      4.747917911      4.517807149
H       3.095094877      3.271930664      3.877782772
H       5.337898781      5.593440589      5.108032401
H       5.490466017      3.754211570      3.669310940
           6
  t=       176.00000    1    1
C       3.530552037      4.127240166      4.299753774
C       5.144998014      4.511443306      4.364851690
H       2.965660532      4.752963305      4.521857426
H       3.108452644      3.279865454      3.879797270
H       5.357964071      5.570666185      5.044754800
H       5.537359669      3.805346964      3.653233731
           6
  t=       176.50000    1    1
C       3.542332301      4.139506031      4.312439328
C       5.153474606      4.524012927      4.386980073
H       2.985782336      4.782145521      4.537828422
H       3.121476314      3.282695506      3.880266551
H       5.378362569      5.537996239      4.974974731
H       5.590257920      3.857889741      3.639557770
           6
  t=       177.00000    1    1
C       3.557980556      4.150874270      4.324439241
C       5.159560924      4.536327124      4.408918232
H       2.983270064      4.834634838      4.565463251
H       3.134495195      3.281520145      3.879964168
H       5.399281574      5.498032369      4.901234263
H       5.647666544      3.912164114      3.629386571
           6
  t=       177.50000    1    1
C       3.576807848      4.161825311      4.335966973
C       5.163444672      4.548006204      4.430303043
H       2.965031151      4.902740388      4.601746017
H       3.148096612      3.277952777      3.879563262
H       5.421071317      5.455324819      4.826606793
H       5.707713276      3.968496993      3.623772827
           6
  t=       178.00000    1    1
C       3.597993759      4.173025698      4.347284341
C       5.165246616      4.558434215      4.450680936
H       2.939327830      4.976471196      4.642944801
H       3.162929879      3.273802391      3.879891169
H       5.445005522      5.417585591      4.755186975
H       5.768549651      4.026755509      3.623811320
           6
  t=       178.50000    1    1
C       3.620910708      4.184955710      4.358602394
C       5.164958850      4.566826040      4.469625568
H       2.912345097      5.048282000      4.686081481
H       3.179625210      3.270706488      3.881666355
H       5.473520576      5.395050845      4.691008465
H       5.828496361      4.086243628      3.630293461
           6
  t=       179.00000    1    1
C       3.645142999      4.197857096      4.370056862
C       5.162538141      4.572559164      4.486911716
H       2.887993388      5.113755321      4.729195637
H       3.198732046      3.269945617      3.885422438
H       5.509202410      5.396426608      4.636053434
H       5.885976008      4.145929319      3.643730212
           6
  t=       179.50000    1    1
C       3.670393605      4.211812804      4.381720048
C       5.158121481      4.575650188      4.502588000
H       2.868697087      5.170368384      4.771049509
H       3.220625024      3.272571498      3.891574568
H       5.552496339      5.423365199      4.589511381
H       5.939651225      4.204445140      3.664313818
           6
  t=       180.00000    1    1
C       3.696410113      4.226813997      4.393622970
C       5.152155863      4.576790747      4.516837406
H       2.855900358      5.216718577      4.810867589
H       3.245451534      3.279363582      3.900394533
H       5.600482876      5.469940682      4.549494849
H       5.988531358      4.260204192      3.691885477
           6
  t=       180.50000    1    1
C       3.722943701      4.242813965      4.405773518
C       5.145286712      4.576914987      4.529809027
H       2.850439288      5.252024127      4.848162458
H       3.273110221      3.290774962      3.912000679
H       5.648391451      5.527461400      4.514783101
H       6.031926466      4.311652378      3.726164410
           6
  t=       181.00000    1    1
C       3.749769571      4.259767073      4.418153066
C       5.138151780      4.576805548      4.541576387
H       2.852475071      5.275971956      4.883108569
H       3.303237009      3.306913685      3.926180106
H       5.691696078      5.588853277      4.484594101
H       6.069644793      4.357286942      3.767316970
           6
  t=       181.50000    1    1
C       3.776524686      4.277592066      4.430762751
C       5.131527558      4.577102230      4.552107475
H       2.861935630      5.288570424      4.915516113
H       3.335436672      3.327507547      3.942790842
H       5.726799108      5.649234336      4.459451264
H       6.100824717      4.395598238      3.815519397
           6
  t=       182.00000    1    1
C       3.802713228      4.296047553      4.443661012
C       5.126281050      4.578416202      4.561318337
H       2.878679702      5.290761521      4.944199312
H       3.369333018      3.351842765      3.961921664
H       5.751826671      5.705106258      4.441450772
H       6.123434607      4.425450219      3.870076549
           6
  t=       182.50000    1    1
C       3.828176110      4.314960237      4.456854287
C       5.122636108      4.580962693      4.569295901
H       2.902490342      5.283706399      4.968776354
H       3.404485256      3.379282102      3.983514191
H       5.766976714      5.755597779      4.430838742
H       6.137162562      4.446690589      3.930069968
           6
  t=       183.00000    1    1
C       3.852799081      4.334252906      4.470340712
C       5.120634464      4.584800315      4.576193228
H       2.933602336      5.267985681      4.989025921
H       3.440464852      3.409255615      4.007391641
H       5.772829725      5.800783123      4.427061640
H       6.142485920      4.459456102      3.994649699
           6
  t=       183.50000    1    1
C       3.876406181      4.353914326      4.484144061
C       5.120316210      4.589955513      4.582164926
H       2.972551234      5.243711437      5.004791633
H       3.476778382      3.441066179      4.033087188
H       5.769894451      5.840970314      4.429224174
H       6.140472794      4.463842495      4.063208663
           6
  t=       184.00000    1    1
C       3.898747108      4.373937759      4.498289061
C       5.121822615      4.596493609      4.587362807
H       3.019319422      5.211295299      5.015935288
H       3.512842222      3.473579266      4.060133136
H       5.758558744      5.876191107      4.436802395
H       6.132635755      4.459842886      4.134773168
           6
  t=       184.50000    1    1
C       3.919540192      4.394302936      4.512799456
C       5.125325312      4.604510758      4.591967008
H       3.073375965      5.171651622      5.022346113
H       3.547966888      3.505174133      4.087978403
H       5.739248748      5.906205335      4.449513244
H       6.121080255      4.447499573      4.207858713
           6
  t=       185.00000    1    1
C       3.938523392      4.414962106      4.527694844
C       5.130970202      4.614133819      4.596164062
H       3.133755869      5.126196913      5.024119626
H       3.581344662      3.533886178      4.115907305
H       5.712469923      5.930657191      4.467111619
H       6.108457432      4.426773828      4.280874380
           6
  t=       185.50000    1    1
C       3.955529029      4.435795182      4.542955830
C       5.138835487      4.625501981      4.600136384
H       3.198642773      5.077167102      5.021906926
H       3.612184405      3.557723673      4.143121624
H       5.678938963      5.949127689      4.489234153
H       6.097724264      4.397612837      4.352388187
           6
  t=       186.00000    1    1
C       3.970567074      4.456537614      4.558467326
C       5.148941432      4.638763800      4.604020941
H       3.264555307      5.028154528      5.017413276
H       3.639989313      3.575138531      4.169055079
H       5.639553269      5.961006616      4.515505249
H       6.091601257      4.359964705      4.421376028
           6
  t=       186.50000    1    1
C       3.983914675      4.476722010      4.573944437
C       5.161286524      4.654048700      4.607885850
H       3.325398849      4.984889257      5.014250453
H       3.664794610      3.585118016      4.193444134
H       5.595315906      5.965513340      4.545587991
H       6.091860341      4.313919840      4.487409620
           6
  t=       187.00000    1    1
C       3.996120499      4.495697579      4.588914651
C       5.175930420      4.671443561      4.611747094
H       3.372518054      4.954594844      5.017903584
H       3.686894489      3.587573675      4.216479997
H       5.547166871      5.961843024      4.579176923
H       6.098674091      4.259867365      4.550557973
           6
  t=       187.50000    1    1
C       4.007875981      4.512749919      4.602808652
C       5.192995602      4.690942759      4.615617223
H       3.396407240      4.944249990      5.034560119
H       3.706572463      3.583457962      4.238786240
H       5.496225903      5.949400595      4.615926446
H       6.110446572      4.199050806      4.610989870
           6
  t=       188.00000    1    1
C       4.019565098      4.527467747      4.615296065
C       5.212558619      4.712395163      4.619541737
H       3.392451329      4.956678626      5.067369498
H       3.724106555      3.574239040      4.261092732
H       5.444139932      5.928226452      4.655383895
H       6.124380434      4.133839181      4.668673152
           6
  t=       188.50000    1    1
C       4.031000527      4.539923959      4.626502643
C       5.234571828      4.735523008      4.623601086
H       3.364326877      4.988932432      5.114012243
H       3.739717451      3.561410771      4.284021586
H       5.392836296      5.899299447      4.697059151
H       6.137450874      4.067149276      4.723338264
           6
  t=       189.00000    1    1
C       4.041629566      4.550542063      4.636920094
C       5.258792038      4.759913811      4.627890650
H       3.321826959      5.034177842      5.167802898
H       3.753652081      3.546528264      4.308113091
H       5.344286349      5.864692865      4.740567434
H       6.147130122      4.002054876      4.774519602
           6
  t=       189.50000    1    1
C       4.051001340      4.559720329      4.647017086
C       5.284853183      4.785023364      4.632497379
H       3.274136088      5.085979966      5.222375682
H       3.766144025      3.531317963      4.333807591
H       5.300490732      5.827860014      4.785721394
H       6.151733867      3.941550083      4.821709400
           6
  t=       190.00000    1    1
C       4.058951993      4.567747249      4.657103208
C       5.312288180      4.810163767      4.637458086
H       3.227548276      5.139727939      5.273404182
H       3.777449812      3.517282525      4.361375221
H       5.263260554      5.794111771      4.832873677
H       6.150418524      3.888191428      4.864483656
           6
  t=       190.50000    1    1
C       4.065528771      4.574803911      4.667348512
C       5.340642740      4.834603207      4.642732110
H       3.185826968      5.192394819      5.318418660
H       3.787743946      3.505658632      4.390879764
H       5.233820665      5.769749513      4.883098443
H       6.142871460      3.844030065      4.902632385
           6
  t=       191.00000    1    1
C       4.070880682      4.581016704      4.677845865
C       5.369545280      4.857700783      4.648217809
H       3.151312051      5.241877742      5.355975304
H       3.797005185      3.497490103      4.422242867
H       5.212476371      5.760275376      4.938064301
H       6.129120884      3.810753654      4.936113717
           6
  t=       191.50000    1    1
C       4.075221476      4.586510384      4.688643343
C       5.398671864      4.879112926      4.653829416
H       3.125441282      5.286657828      5.385350218
H       3.805037759      3.493553607      4.455198661
H       5.198876646      5.767882017      4.999063233
H       6.109588755      3.789519074      4.965074557
           6
  t=       192.00000    1    1
C       4.078811716      4.591418481      4.699767419
C       5.427669462      4.898884641      4.659594643
H       3.108988712      5.325737567      5.406219123
H       3.811595547      3.494260953      4.489383369
H       5.192908412      5.790386427      5.066005380
H       6.084962016      3.780967632      4.989647149
           6
  t=       192.50000    1    1
C       4.081920479      4.595880091      4.711241135
C       5.456148581      4.917303488      4.665659255
H       3.102229712      5.358525810      5.418514171
H       3.816462400      3.499715991      4.524328791
H       5.195041295      5.822999545      5.137295502
H       6.056146705      3.785291819      5.009951330
           6
  t=       193.00000    1    1
C       4.084822869      4.600049853      4.723088736
C       5.483694150      4.934697737      4.672228348
H       3.105109512      5.384599253      5.422270884
H       3.819425499      3.509769122      4.559525291
H       5.206124209      5.860684970      5.210548729
H       6.024229252      3.802346761      5.026113361
           6
  t=       193.50000    1    1
C       4.087793623      4.604119206      4.735328049
C       5.509909684      4.951344214      4.679496566
H       3.117256155      5.403607805      5.417627751
H       3.820311096      3.523942871      4.594520979
H       5.226906970      5.899268650      5.283333361
H       5.990456277      3.831554365      5.038346561
           6
  t=       194.00000    1    1
C       4.091070265      4.608322120      4.747968466
C       5.534461018      4.967459869      4.687606415
H       3.138183480      5.415177802      5.404762029
H       3.819054202      3.541364256      4.628986076
H       5.257784660      5.935743133      5.353626797
H       5.956135394      3.871795708      5.047016131
           6
  t=       194.50000    1    1
C       4.094853543      4.612937963      4.761025747
C       5.557087963      4.983231076      4.696640257
H       3.167478882      5.418950423      5.383850772
H       3.815661666      3.560836677      4.662667768
H       5.298444472      5.967936675      5.419792700
H       5.922693426      3.921248343      5.052664953
           6
  t=       195.00000    1    1
C       4.099323427      4.618268811      4.774513900
C       5.577574456      4.998851136      4.706636714
H       3.204719966      5.414816017      5.355195131
H       3.810181847      3.581029079      4.695353794
H       5.347843480      5.994110332      5.480366396
H       5.891977423      3.977189150      5.056041691
           6
  t=       195.50000    1    1
C       4.104592275      4.624573632      4.788425394
C       5.595756063      5.014541266      4.717597131
H       3.249325452      5.403139693      5.319332772
H       3.802833545      3.600621599      4.726825605
H       5.404687526      6.013045236      5.534117930
H       5.866264538      4.036070042      5.058130908
           6
  t=       196.00000    1    1
C       4.110728676      4.632020204      4.802729292
C       5.611512683      5.030592756      4.729479694
H       3.300358564      5.384817559      5.277069055
H       3.794016999      3.618436061      4.756823516
H       5.467763873      6.024117796      5.580070381
H       5.847917862      4.093326575      5.060230700
           6
  t=       196.50000    1    1
C       4.117849399      4.640653934      4.817358358
C       5.624740662      5.047367922      4.742206230
H       3.356131741      5.361391330      5.229575410
H       3.784186865      3.633676122      4.785112538
H       5.536035143      6.027211049      5.617457300
H       5.839051379      4.143472014      5.063903751
           6
  t=       197.00000    1    1
C       4.126179638      4.650340169      4.832176159
C       5.635368353      5.065216163      4.755691560
H       3.413508853      5.335694647      5.178695600
H       3.773839366      3.646129199      4.811546852
H       5.608560458      6.022542831      5.645706486
H       5.841416272      4.181108657      5.070664932
           6
  t=       197.50000    1    1
C       4.136082142      4.660707113      4.846980075
C       5.643393513      5.084321348      4.769893549
H       3.467239576      5.312768801      5.127037639
H       3.763587625      3.656097278      4.835987557
H       5.684349409      6.010529637      5.664412812
H       5.856344459      4.202715981      5.081366740
           6
  t=       198.00000    1    1
C       4.148045325      4.671182076      4.861565477
C       5.648908144      5.104553157      4.784849615
H       3.510235739      5.299706344      5.077317166
H       3.754130968      3.664202563      4.858265567
H       5.762292477      5.991797104      5.673408465
H       5.884418294      4.208330451      5.095622828
           6
  t=       198.50000    1    1
C       4.162565375      4.681166245      4.875817183
C       5.652111462      5.125454528      4.800658436
H       3.535327629      5.303722083      5.031194641
H       3.746184157      3.671231055      4.878285343
H       5.841171346      5.967305759      5.672918780
H       5.925024799      4.201572182      5.111839587
           6
  t=       199.00000    1    1
C       4.179864618      4.690346994      4.889783109
C       5.653297263      5.146382098      4.817427498
H       3.538702265      5.328603735      4.988292377
H       3.740505000      3.677945835      4.896108260
H       5.919732723      5.938456464      5.663625743
H       5.976322517      4.187880792      5.127799642
           6
  t=       199.50000    1    1
C       4.199703142      4.698913378      4.903623968
C       5.652784150      5.166648987      4.835243604
H       3.522276802      5.372318132      4.946703137
H       3.737924213      3.685018054      4.911930316
H       5.996860910      5.907195446      5.646595617
H       6.035741621      4.172603957      5.141198655
           6
  t=       200.00000    1    1
C       4.221414173      4.707411186      4.917458417
C       5.650918242      5.185655015      4.854127690
H       3.492619067      5.428363839      4.904845651
H       3.739284033      3.693030732      4.926011552
H       6.071785534      5.875870086      5.623228306
H       6.100463229      4.159960831      5.150294586
