           6
  t=         0.00000    2    2
C      -0.647987200      0.005364031     -0.006281291
C       0.661093390     -0.002074692      0.009600179
H      -1.320706322      0.922812569      0.015978580
H      -1.253094043     -0.933151300      0.004299231
H       1.207142152      0.871402961     -0.030970102
H       1.210489150     -0.900258920     -0.028854451
           6
  t=         0.50000    2    2
C      -0.649395524      0.006138240     -0.006628100
C       0.661952154     -0.001907008      0.009063105
H      -1.316690750      0.910083511      0.019724858
H      -1.249415982     -0.927271305      0.004863098
H       1.206155843      0.885121230     -0.029525533
H       1.210329932     -0.918350763     -0.024077350
           6
  t=         1.00000    2    2
C      -0.652980957      0.006913252     -0.006980186
C       0.664342041     -0.001903701      0.008553493
H      -1.309847285      0.895177513      0.023977159
H      -1.244309786     -0.919735841      0.004759607
H       1.207707202      0.902152002     -0.028803549
H       1.211074354     -0.937284543     -0.018680665
           6
  t=         1.50000    2    2
C      -0.658554646      0.007648384     -0.007336485
C       0.668286208     -0.002057133      0.008063899
H      -1.300992229      0.879286697      0.028943031
H      -1.238206116     -0.911258662      0.003780310
H       1.211114125      0.921049287     -0.028931396
H       1.212125288     -0.955698881     -0.012460261
           6
  t=         2.00000    2    2
C      -0.665837928      0.008293982     -0.007696750
C       0.673739959     -0.002338816      0.007587304
H      -1.291203434      0.863913784      0.034864992
H      -1.231683577     -0.902757901      0.001703803
H       1.215696282      0.940287495     -0.030033510
H       1.213031620     -0.972400579     -0.005232101
           6
  t=         2.50000    2    2
C      -0.674476496      0.008790175     -0.008063702
C       0.680592567     -0.002708156      0.007117405
H      -1.281778750      0.850844195      0.042026330
H      -1.225446653     -0.895323529     -0.001690865
H       1.220853902      0.958394207     -0.032222739
H       1.213493029     -0.986382962      0.003161860
           6
  t=         3.00000    2    2
C      -0.684061873      0.009071820     -0.008444317
C       0.688674641     -0.003118497      0.006648631
H      -1.274129663      0.842010342      0.050755563
H      -1.220279755     -0.890139235     -0.006618426
H       1.226095689      0.974060107     -0.035596428
H       1.213347839     -0.996865160      0.012854662
           6
  t=         3.50000    2    2
C      -0.694181881      0.009085057     -0.008849678
C       0.697777175     -0.003521253      0.006176389
H      -1.269529522      0.839120408      0.061411020
H      -1.216939495     -0.888295264     -0.013280106
H       1.231056837      0.986246861     -0.040234931
H       1.212569903     -1.003363915      0.023956381
           6
  t=         4.00000    2    2
C      -0.704471050      0.008806832     -0.009292170
C       0.707664793     -0.003869476      0.005696373
H      -1.268817550      0.843224665      0.074339500
H      -1.216025823     -0.890578168     -0.021856443
H       1.235518679      0.994239705     -0.046200278
H       1.211266889     -1.005712903      0.036561645
           6
  t=         4.50000    1    1
C      -0.714647553      0.008257198     -0.009781539
C       0.718087636     -0.004119616      0.005203677
H      -1.272194862      0.854396776      0.089812167
H      -1.217875063     -0.897293949     -0.032489679
H       1.239407748      0.997650907     -0.053531561
H       1.209668772     -1.004049937      0.050755212
           6
  t=         5.00000    1    1
C      -0.719167438      0.012366104     -0.005399637
C       0.733169256      0.000642500      0.009557997
H      -1.220931852      0.929910251      0.164354573
H      -1.164222915     -0.850175259      0.014227431
H       1.300805248      1.054700860     -0.002845268
H       1.266114859     -0.940826427      0.123320370
           6
  t=         5.50000    1    1
C      -0.722016714      0.017321160     -0.000898576
C       0.747544953      0.005980326      0.013982319
H      -1.171133068      1.007059975      0.237241555
H      -1.117885372     -0.815208035      0.061501874
H       1.359139126      1.104526944      0.048409109
H       1.322908479     -0.876806223      0.194161573
           6
  t=         6.00000    1    1
C      -0.722778148      0.024214384      0.003754231
C       0.761179854      0.012194683      0.018593560
H      -1.121674211      1.081045710      0.307265961
H      -1.083219565     -0.800406621      0.110075940
H       1.412658185      1.145436830      0.099250354
H       1.380477643     -0.814079080      0.262943418
           6
  t=         6.50000    1    1
C      -0.721229005      0.033671745      0.008558506
C       0.774090194      0.019462459      0.023502593
H      -1.072210729      1.148092144      0.373271272
H      -1.062007708     -0.809427680      0.161075843
H       1.460018963      1.176541120      0.148607340
H       1.438755953     -0.753890182      0.329449551
           6
  t=         7.00000    1    1
C      -0.717402601      0.045652703      0.013558051
C       0.786352988      0.027873890      0.028812008
H      -1.022825982      1.205600752      0.434321674
H      -1.052901689     -0.839361568      0.214955326
H       1.500175701      1.197349502      0.195482315
H       1.497003748     -0.696652496      0.393415448
           6
  t=         7.50000    1    1
C      -0.711523623      0.059602903      0.018884809
C       0.798080527      0.037415704      0.034619549
H      -0.973806619      1.252128082      0.489747980
H      -1.052397075     -0.882316106      0.270878838
H       1.532539823      1.207978601      0.239115756
H       1.553931041     -0.642167735      0.454368457
           6
  t=         8.00000    1    1
C      -0.703825300      0.074881330      0.024722986
C       0.809397631      0.048012363      0.041032524
H      -0.925530569      1.286937698      0.539028540
H      -1.056870885     -0.929903431      0.327223914
H       1.556725800      1.208889443      0.278924187
H       1.607970112     -0.590010101      0.511562610
           6
  t=         8.50000    1    1
C      -0.694513821      0.090941435      0.031237996
C       0.820441366      0.059548483      0.048150135
H      -0.878342092      1.309853838      0.581919509
H      -1.063432975     -0.975322594      0.382286290
H       1.572552555      1.200999349      0.314483889
H       1.657579799     -0.539834777      0.564216638
           6
  t=         9.00000    1    1
C      -0.683714987      0.107395793      0.038565988
C       0.831334371      0.071913732      0.056073455
H      -0.832591179      1.320920988      0.618256935
H      -1.070117268     -1.013873623      0.434625342
H       1.579873728      1.185459865      0.345402030
H       1.701328025     -0.491606615      0.611501313
           6
  t=         9.50000    1    1
C      -0.671496269      0.123969620      0.046804426
C       0.842172319      0.085025392      0.064903310
H      -0.788654002      1.320473188      0.647966683
H      -1.075584432     -1.042521757      0.483138096
H       1.578580428      1.163375474      0.371302888
H       1.738024520     -0.445539031      0.652606682
           6
  t=        10.00000    1    1
C      -0.657888934      0.140480958      0.056015471
C       0.853030549      0.098823330      0.074726964
H      -0.746979664      1.309174075      0.671092379
H      -1.078996329     -1.059668643      0.527042913
H       1.568622490      1.135887345      0.391771598
H       1.766805225     -0.402150511      0.686905131
           6
  t=        10.50000    1    1
C      -0.642918281      0.156791884      0.066241967
C       0.863955650      0.113252888      0.085606586
H      -0.708126678      1.287896704      0.687765045
H      -1.079788128     -1.064452939      0.565729614
H       1.550146682      1.104626948      0.406347722
H       1.787263385     -0.362512206      0.714084961
           6
  t=        11.00000    1    1
C      -0.626625839      0.172790486      0.077516254
C       0.874957107      0.128227945      0.097558882
H      -0.672806462      1.257629400      0.698170048
H      -1.077579611     -1.056424731      0.598719451
H       1.523789465      1.071804719      0.414737004
H       1.799475584     -0.327913057      0.734149388
           6
  t=        11.50000    1    1
C      -0.609067272      0.188363381      0.089853781
C       0.885980117      0.143590221      0.110545614
H      -0.641831371      1.219647956      0.702629485
H      -1.072120032     -1.035405296      0.625635815
H       1.490977699      1.040277916      0.417078212
H       1.803892831     -0.299427836      0.747285702
           6
  t=        12.00000    1    1
C      -0.590293108      0.203344975      0.103230177
C       0.896880953      0.159099542      0.124479385
H      -0.615900885      1.175985926      0.701854558
H      -1.063224196     -1.001417340      0.646162905
H       1.453857387      1.013647468      0.414035524
H       1.801198115     -0.277833278      0.753766121
           6
  t=        12.50000    1    1
C      -0.570329763      0.217479981      0.117564023
C       0.907414665      0.174420835      0.139215409
H      -0.595480162      1.129841700      0.697198945
H      -1.050779013     -0.954684232      0.660031307
H       1.415187507      0.996562930      0.406845635
H       1.792218007     -0.263719440      0.753965056
           6
  t=        13.00000    1    1
C      -0.549167891      0.230407817      0.132702584
C       0.917257828      0.189115107      0.154550630
H      -0.581053941      1.085869056      0.690902881
H      -1.034850245     -0.895682483      0.667038090
H       1.378299267      0.994802873      0.397239337
H       1.777914272     -0.257514680      0.748353924
           6
  t=        13.50000    1    1
C      -0.526763698      0.241690430      0.148409698
C       0.926094593      0.202740537      0.170270964
H      -0.573362773      1.050091756      0.686128437
H      -1.015797429     -0.825377566      0.667148441
H       1.346419537      1.013957787      0.386912839
H       1.759401860     -0.259383498      0.737474218
           6
  t=        14.00000    1    1
C      -0.503067091      0.250895643      0.164407103
C       0.933740422      0.215072950      0.186220993
H      -0.573340569      1.029157230      0.686347079
H      -0.994254520     -0.745489279      0.660518354
H       1.321363644      1.056874818      0.376745704
H       1.738035299     -0.269279774      0.721986528
           6
  t=        14.50000    1    1
C      -0.478047772      0.257766446      0.180460817
C       0.940216698      0.226310456      0.202335551
H      -0.581898954      1.028377775      0.694074502
H      -0.971173258     -0.658591433      0.647641775
H       1.302709938      1.121461010      0.366462740
H       1.715483801     -0.287147236      0.702720934
           6
  t=        15.00000    1    1
C      -0.451721918      0.262539073      0.196467527
C       0.945710180      0.237055548      0.218593602
H      -0.599313515      1.049073801      0.709131968
H      -0.948296007     -0.569171998      0.629973212
H       1.288529481      1.200779128      0.355270568
H       1.693661640     -0.312875052      0.680676768
           6
  t=        15.50000    1    1
C      -0.424151231      0.266009099      0.212448846
C       0.950474148      0.248028534      0.234978161
H      -0.624752395      1.087777536      0.728587200
H      -0.928404936     -0.483502281      0.610071694
H       1.276834815      1.286340990      0.342568710
H       1.674223827     -0.346298750      0.656772594
           6
  t=        16.00000    1    1
C      -0.395351263      0.269323613      0.228435204
C       0.954765463      0.259812889      0.251485492
H      -0.656422691      1.138574807      0.748326096
H      -0.915874944     -0.409477055      0.591495911
H       1.266429953      1.370880133      0.328242471
H       1.658072963     -0.386963753      0.631360459
           6
  t=        16.50000    1    1
C      -0.365339128      0.273636960      0.244415186
C       0.958868102      0.272739154      0.268121113
H      -0.691896602      1.195304437      0.764646819
H      -0.916200252     -0.354850063      0.577873850
H       1.257154084      1.449531120      0.312593516
H       1.645256435     -0.433783124      0.604282784
           6
  t=        17.00000    1    1
C      -0.334287795      0.279741615      0.260421420
C       0.963140958      0.286909345      0.284885935
H      -0.728868408      1.253026399      0.775057595
H      -0.933622698     -0.324100588      0.571200350
H       1.249388278      1.519178696      0.296159970
H       1.635113877     -0.484880765      0.575098764
           6
  t=        17.50000    1    1
C      -0.302764845      0.287833868      0.276643896
C       0.968024051      0.302283123      0.301763535
H      -0.765378467      1.308311432      0.778435701
H      -0.967893590     -0.315954925      0.570375730
H       1.243602386      1.577352196      0.279457486
H       1.626487077     -0.537488714      0.543446986
           6
  t=        18.00000    1    1
C      -0.271718586      0.297609728      0.293376993
C       0.973934024      0.318711352      0.318721983
H      -0.799579922      1.358788751      0.774697556
H      -1.013573963     -0.324276112      0.572027939
H       1.240117187      1.622616766      0.262850262
H       1.618104598     -0.588538976      0.509291610
           6
  t=        18.50000    1    1
C      -0.242226965      0.308622922      0.310853249
C       0.981285367      0.335971529      0.335722577
H      -0.829982903      1.402806740      0.764235491
H      -1.063427027     -0.341950614      0.572993746
H       1.239147242      1.654549146      0.246642980
H       1.608930757     -0.635101288      0.472789188
           6
  t=        19.00000    1    1
C      -0.215306032      0.320515617      0.329195135
C       0.990548004      0.353848696      0.352707039
H      -0.855579150      1.438996299      0.747615384
H      -1.111453110     -0.363304336      0.571345641
H       1.240933506      1.673124940      0.231061941
H       1.598224110     -0.674631050      0.434310115
           6
  t=        19.50000    1    1
C      -0.191823908      0.333031569      0.348433369
C       1.002212794      0.372165188      0.369594525
H      -0.875770858      1.466541810      0.725697059
H      -1.153536068     -0.384552042      0.566085248
H       1.245725817      1.678494800      0.216190234
H       1.585516186     -0.705078257      0.394507186
           6
  t=        20.00000    1    1
C      -0.172386824      0.345989879      0.368516907
C       1.016648126      0.390773035      0.386292979
H      -0.890345890      1.485447329      0.699488607
H      -1.187115518     -0.403540944      0.557005014
H       1.253705108      1.671031034      0.202156030
H       1.570687633     -0.725053307      0.354156766
           6
  t=        20.50000    1    1
C      -0.157285395      0.359281238      0.389351008
C       1.033979897      0.409545076      0.402703265
H      -0.899275001      1.496096759      0.669814160
H      -1.210601975     -0.419128344      0.544518712
H       1.264982522      1.651359871      0.189300249
H       1.553971255     -0.733891382      0.313990270
           6
  t=        21.00000    1    1
C      -0.146545506      0.372858950      0.410836847
C       1.054082366      0.428360570      0.418721718
H      -0.902496637      1.498826527      0.637393330
H      -1.222962658     -0.430707005      0.529232245
H       1.279763579      1.620319107      0.177988045
H       1.535873962     -0.731378781      0.274729780
           6
  t=        21.50000    1    1
C      -0.139986488      0.386723308      0.432881069
C       1.076618174      0.447073703      0.434253388
H      -0.899828759      1.493856511      0.602879267
H      -1.223520939     -0.437981219      0.511799101
H       1.298375606      1.579252933      0.168485518
H       1.517076777     -0.717641306      0.237046361
           6
  t=        22.00000    1    1
C      -0.137325666      0.400905946      0.455401566
C       1.101127565      0.465475775      0.449230026
H      -0.890880188      1.481284882      0.566746172
H      -1.211707789     -0.440787959      0.492926396
H       1.321227833      1.530392425      0.160903529
H       1.498320367     -0.693061387      0.201439446
           6
  t=        22.50000    1    1
C      -0.138305151      0.415454465      0.478323825
C       1.127131022      0.483234829      0.463618689
H      -0.875053795      1.461103421      0.529272647
H      -1.186741706     -0.438891737      0.473424536
H       1.348872267      1.477285023      0.155086691
H       1.480314875     -0.658025422      0.168255821
           6
  t=        23.00000    1    1
C      -0.142627518      0.430393689      0.501516600
C       1.154097405      0.499872213      0.477440915
H      -0.851990768      1.433640850      0.491145099
H      -1.148007490     -0.432005251      0.454226569
H       1.382215695      1.425461087      0.150176179
H       1.463964431     -0.613272143      0.138042106
           6
  t=        23.50000    1    1
C      -0.149561137      0.445686919      0.524739548
C       1.181224882      0.514872333      0.490836082
H      -0.822379051      1.400043837      0.453702215
H      -1.096273819     -0.420056314      0.436422791
H       1.422507230      1.381745065      0.144323826
H       1.450313010     -0.560263901      0.111420519
           6
  t=        24.00000    1    1
C      -0.158225178      0.461217462      0.547803941
C       1.207738932      0.527856071      0.504024348
H      -0.788181263      1.362860591      0.418184789
H      -1.033251338     -0.403490965      0.420658075
H       1.471026589      1.351859946      0.135006716
H       1.440487425     -0.500917935      0.088653843
           6
  t=        24.50000    1    1
C      -0.167768903      0.476834721      0.570584504
C       1.232986045      0.538654618      0.517193798
H      -0.752019825      1.325400664      0.385238459
H      -0.960733686     -0.383024377      0.407491089
H       1.528686945      1.339356616      0.120350771
H       1.435640455     -0.437573560      0.069663404
           6
  t=        25.00000    1    1
C      -0.177295387      0.492315332      0.593038995
C       1.256506166      0.547536436      0.530438416
H      -0.717414528      1.292332049      0.354718379
H      -0.881024173     -0.360139318      0.397225143
H       1.595172471      1.343967481      0.100222597
H       1.436705437     -0.373685809      0.053807594
           6
  t=        25.50000    1    1
C      -0.185905158      0.507391957      0.615239645
C       1.278058534      0.555160102      0.543739228
H      -0.688445821      1.269578712      0.325439085
H      -0.796871714     -0.337389059      0.389827029
H       1.668748703      1.362117062      0.076508918
H       1.444397220     -0.313711754      0.039783760
           6
  t=        26.00000    1    1
C      -0.192792939      0.521927686      0.637358043
C       1.297603845      0.562340953      0.557007701
H      -0.668670480      1.262338639      0.295450186
H      -0.711545308     -0.318409673      0.384835867
H       1.746571379      1.388520898      0.052417337
H       1.459258734     -0.262012744      0.025805926
           6
  t=        26.50000    1    1
C      -0.197345942      0.536078199      0.659577229
C       1.315188036      0.569800011      0.570142092
H      -0.659829727      1.272888774      0.263132355
H      -0.628377707     -0.307597015      0.381308888
H       1.825526882      1.418231698      0.031303601
H       1.481628429     -0.221969106      0.010111693
           6
  t=        27.00000    1    1
C      -0.199339611      0.550260836      0.681976119
C       1.330945516      0.578000130      0.583052682
H      -0.661031885      1.299291002      0.228403601
H      -0.549734357     -0.308640905      0.378025975
H       1.903033110      1.447717668      0.015623327
H       1.511284869     -0.194909202     -0.008323686
           6
  t=        27.50000    1    1
C      -0.198871559      0.564923825      0.704446052
C       1.345054641      0.587121088      0.595621258
H      -0.669598517      1.336759320      0.192966841
H      -0.476453204     -0.323028276      0.374158855
H       1.977176515      1.474821930      0.006857465
H       1.547338996     -0.179886340     -0.029152448
           6
  t=        28.00000    1    1
C      -0.196205426      0.580316195      0.726722850
C       1.357725233      0.597148646      0.607667689
H      -0.682386672      1.379899748      0.159419989
H      -0.408143699     -0.349398590      0.369831267
H       2.046519064      1.498229246      0.005931560
H       1.588336617     -0.174349522     -0.050727578
           6
  t=        28.50000    1    1
C      -0.191645531      0.596416108      0.748495131
C       1.369170645      0.607955076      0.618985821
H      -0.696622273      1.423945796      0.130229278
H      -0.343946629     -0.383723295      0.366029423
H       2.110149427      1.517366576      0.013269274
H       1.632639703     -0.175205561     -0.070758388
           6
  t=        29.00000    1    1
C      -0.185430775      0.613018791      0.769490325
C       1.379581317      0.619387028      0.629384904
H      -0.710203154      1.465337093      0.107211166
H      -0.283410776     -0.420848326      0.364120923
H       2.167497980      1.532130085      0.028978854
H       1.678841947     -0.179677073     -0.087016400
           6
  t=        29.50000    1    1
C      -0.177710255      0.629878669      0.789486478
C       1.389128345      0.631316330      0.638732186
H      -0.721570066      1.501796827      0.091632365
H      -0.226698688     -0.456346286      0.365417235
H       2.218093261      1.542598864      0.052945618
H       1.725755970     -0.185540291     -0.097738540
           6
  t=        30.00000    1    1
C      -0.168555831      0.646761084      0.808307781
C       1.397969445      0.643655186      0.646954600
H      -0.729584790      1.532004835      0.084337479
H      -0.174363269     -0.486873413      0.370993040
H       2.261456426      1.548931809      0.084939845
H       1.772252250     -0.191135424     -0.101648865
           6
  t=        30.50000    1    1
C      -0.157970963      0.663447290      0.825808777
C       1.406249809      0.656351084      0.654011365
H      -0.733491752      1.555292638      0.085880832
H      -0.127178795     -0.509894408      0.381747272
H       2.297002748      1.551292756      0.124781904
H       1.817245403     -0.195260913     -0.097801844
           6
  t=        31.00000    1    1
C      -0.145936341      0.679763423      0.841895070
C       1.414114093      0.669371874      0.659885970
H      -0.732827282      1.571376527      0.096547810
H      -0.085963860     -0.523677151      0.398249278
H       2.324074290      1.549817890      0.172295802
H       1.859794526     -0.197046570     -0.085554682
           6
  t=        31.50000    1    1
C      -0.132442368      0.695592140      0.856535819
C       1.421693298      0.682695278      0.664590585
H      -0.727338855      1.580228757      0.116372506
H      -0.051378131     -0.527250095      0.420666138
H       2.342099465      1.544621173      0.227184780
H       1.899202999     -0.195886468     -0.064589341
           6
  t=        32.00000    1    1
C      -0.117483416      0.710851892      0.869731124
C       1.429099048      0.696312584      0.668165609
H      -0.716936147      1.581974847      0.145277327
H      -0.023993243     -0.520161384      0.448956370
H       2.350652457      1.535821685      0.289051061
H       1.934980848     -0.191401565     -0.034871501
           6
  t=        32.50000    1    1
C      -0.101060137      0.725478883      0.881502592
C       1.436416374      0.710222358      0.670685155
H      -0.701697833      1.576909301      0.183077745
H      -0.004248399     -0.502306035      0.482943594
H       2.349576546      1.523603493      0.357328836
H       1.966797222     -0.183398131      0.003384946
           6
  t=        33.00000    1    1
C      -0.083187730      0.739419185      0.891907979
C       1.443689880      0.724410339      0.672271323
H      -0.681963153      1.565630079      0.229336092
H       0.007738199     -0.473869669      0.522259072
H       2.339201024      1.508393334      0.431154102
H       1.994429888     -0.171902720      0.049707339
           6
  t=        33.50000    1    1
C      -0.063851829      0.752595127      0.901023270
C       1.450906252      0.738828594      0.673087074
H      -0.658459810      1.549192103      0.283353434
H       0.012035599     -0.435149421      0.566424764
H       2.320469858      1.491224149      0.509409420
H       2.017581011     -0.157209440      0.103542871
           6
  t=        34.00000    1    1
C      -0.043031433      0.764924970      0.908986662
C       1.457991570      0.753362292      0.673350165
H      -0.632575708      1.529412798      0.343884057
H       0.008989186     -0.386992855      0.614644984
H       2.295339462      1.474145039      0.590666390
H       2.035967257     -0.139994951      0.164119907
           6
  t=        34.50000    1    1
C      -0.020699064      0.776355547      0.915978648
C       1.464852423      0.767832341      0.673296536
H      -0.606251170      1.508647775      0.409377974
H      -0.001075514     -0.330991502      0.665857993
H       2.266372447      1.459937975      0.673480686
H       2.049426429     -0.121037795      0.230532426
           6
  t=        35.00000    1    1
C       0.003197718      0.786863975      0.922259996
C       1.471384990      0.782032998      0.673142746
H      -0.582137142      1.490073713      0.477810248
H      -0.018026724     -0.269968225      0.718630482
H       2.236605888      1.451831614      0.756627629
H       2.058052893     -0.101196213      0.301775681
           6
  t=        35.50000    1    1
C       0.028784047      0.796502583      0.928151653
C       1.477397077      0.795825882      0.673054839
H      -0.563441275      1.477648930      0.546798323
H      -0.041824025     -0.208687864      0.771402679
H       2.209470501      1.452919806      0.839569925
H       2.062382206     -0.081732169      0.376526466
           6
  t=        36.00000    1    1
C       0.056274142      0.805453929      0.933874722
C       1.482654465      0.809194460      0.673131678
H      -0.553161323      1.475134022      0.614688979
H      -0.072671079     -0.153321268      0.823141212
H       2.187468136      1.465199921      0.922603138
H       2.063352274     -0.064211066      0.453363196
           6
  t=        36.50000    1    1
C       0.085803850      0.814057312      0.939497843
C       1.487091472      0.822250569      0.673464513
H      -0.553153857      1.485077025      0.681177030
H      -0.111109970     -0.110406665      0.873316944
H       2.170980066      1.488839006      1.005843080
H       2.062144385     -0.050185354      0.531099173
           6
  t=        37.00000    1    1
C       0.117280979      0.822696591      0.944954951
C       1.490857060      0.835214616      0.674179375
H      -0.563017328      1.507571954      0.747143708
H      -0.157846329     -0.084335652      0.921959852
H       2.158516299      1.522122171      1.088539111
H       2.059876169     -0.040842815      0.608859327
           6
  t=        37.50000    1    1
C       0.150271433      0.831587842      0.950127726
C       1.494252805      0.848325816      0.675430799
H      -0.579820949      1.540299202      0.813892715
H      -0.212708093     -0.074964975      0.969509431
H       2.147796632      1.562256219      1.169099222
H       2.057304043     -0.036638971      0.686060911
           6
  t=        38.00000    1    1
C       0.184016464      0.840693610      0.954952011
C       1.497651867      0.861749539      0.677384783
H      -0.599101417      1.579674962      0.882340871
H      -0.273660529     -0.077791580      1.016270962
H       2.136684280      1.606340965      1.245546190
H       2.054661309     -0.037117089      0.762245554
           6
  t=        38.50000    1    1
C       0.217568433      0.849835501      0.959482528
C       1.501460213      0.875537514      0.680190372
H      -0.616340253      1.622068180      0.952641054
H      -0.337012288     -0.086531458      1.062013058
H       2.123681124      1.651861389      1.316020672
H       2.051690641     -0.040905829      0.836923087
           6
  t=        39.00000    1    1
C       0.249983281      0.858855199      0.963874940
C       1.506099798      0.889659153      0.683966626
H      -0.627982720      1.664575486      1.024245496
H      -0.398861862     -0.095905748      1.106150400
H       2.107964778      1.696817087      1.379064839
H       2.047979392     -0.046129316      0.909410924
           6
  t=        39.50000    1    1
C       0.280429055      0.867684397      0.968338086
C       1.511974019      0.904038083      0.688817808
H      -0.631515246      1.705080995      1.096135024
H      -0.456004456     -0.102470751      1.148024344
H       2.089156168      1.739776338      1.433629808
H       2.043294817     -0.050959717      0.978704920
           6
  t=        40.00000    1    1
C       0.308254340      0.876329928      0.973094862
C       1.519424317      0.918577393      0.694818571
H      -0.625462117      1.742210358      1.167103051
H      -0.506102109     -0.104331627      1.187042050
H       2.067143450      1.779819895      1.479102230
H       2.037628640     -0.053924921      1.043672372
           6
  t=        40.50000    1    1
C       0.333004510      0.884829209      0.978358488
C       1.528712456      0.933184679      0.701996253
H      -0.609219853      1.775141330      1.236020289
H      -0.547629565     -0.100604946      1.222669371
H       2.042065901      1.816407704      1.515235711
H       2.031010898     -0.053890862      1.103356698
           6
  t=        41.00000    1    1
C       0.354355504      0.893228154      0.984328549
C       1.540036909      0.947782403      0.710338684
H      -0.582735819      1.803373750      1.301813137
H      -0.579630528     -0.090985260      1.254478856
H       2.014336135      1.849327468      1.542118923
H       2.023516539     -0.050073700      1.156937115
           6
  t=        41.50000    1    1
C       0.372119442      0.901569497      0.991177038
C       1.553503134      0.962327343      0.719821273
H      -0.546281572      1.826681243      1.363561756
H      -0.601605925     -0.075617116      1.282049087
H       1.984573714      1.878527128      1.559897019
H       2.015280578     -0.042044634      1.203853282
           6
  t=        42.00000    1    1
C       0.386182754      0.909896296      0.999039926
C       1.569136709      0.976798663      0.730440449
H      -0.500229555      1.844951814      1.420402521
H      -0.613210497     -0.054825111      1.305016985
H       1.953559451      1.904020274      1.568703993
H       2.006597915     -0.029645467      1.243620342
           6
  t=        42.50000    1    1
C       0.396571509      0.918247088      1.008004488
C       1.586840278      0.991194338      0.742191236
H      -0.445123730      1.858153938      1.471651318
H      -0.614263524     -0.028968509      1.323080840
H       1.922116575      1.925819209      1.568751178
H       1.997857936     -0.012932774      1.276032093
           6
  t=        43.00000    1    1
C       0.403417388      0.926658501      1.018118815
C       1.606412857      1.005519413      0.755078788
H      -0.381568926      1.866237844      1.516776186
H      -0.604521475      0.001745164      1.335948192
H       1.890985325      1.943838840      1.560232533
H       1.989507528      0.007939276      1.301084560
           6
  t=        43.50000    1    1
C       0.406943673      0.935167483      1.029398759
C       1.627571823      1.019782940      0.769112323
H      -0.310390715      1.869118015      1.555408494
H      -0.583699585      0.037274855      1.343335084
H       1.860914990      1.957938199      1.543319790
H       1.982045280      0.032690103      1.318959857
           6
  t=        44.00000    1    1
C       0.407469146      0.943807859      1.041823510
C       1.649969838      1.033994917      0.784277824
H      -0.232861896      1.866803217      1.587411258
H      -0.551755406      0.077558603      1.345048108
H       1.832879648      1.968140178      1.518342296
H       1.976067748      0.060827833      1.330074042
           6
  t=        44.50000    1    1
C       0.405401313      0.952608368      1.055344659
C       1.673211011      1.048145754      0.800530236
H      -0.150621759      1.859696706      1.612835243
H      -0.509137654      0.122250185      1.341020430
H       1.807980249      1.975033834      1.485969861
H       1.972423575      0.091478190      1.334887043
           6
  t=        45.00000    1    1
C       0.401236409      0.961578027      1.069864760
C       1.696826447      1.062196413      0.817771774
H      -0.065529919      1.848967401      1.631985985
H      -0.456842876      0.170481257      1.331358071
H       1.787515608      1.979889904      1.447503440
H       1.972344329      0.123427601      1.334012676
           6
  t=        45.50000    1    1
C       0.395613480      0.970735439      1.085198618
C       1.720287401      1.076084774      0.835822612
H       0.019903617      1.836620999      1.645728141
H      -0.397061188      0.220301295      1.316571870
H       1.773406320      1.984760122      1.404898379
H       1.977295230      0.155087665      1.328469547
           6
  t=        46.00000    1    1
C       0.389335323      0.980173137      1.101060698
C       1.743091761      1.089716423      0.854444061
H       0.102997729      1.825403391      1.655730888
H      -0.333837423      0.268114774      1.297753124
H       1.767379084      1.992348138      1.360347223
H       1.988692657      0.184626814      1.319551142
           6
  t=        46.50000    1    1
C       0.383371738      0.990116862      1.117084156
C       1.764794232      1.102963569      0.873389877
H       0.181305891      1.818535758      1.664304450
H      -0.273150142      0.308518936      1.276587098
H       1.770307567      2.005647220      1.315897474
H       2.007838229      0.210066184      1.308519801
           6
  t=        47.00000    1    1
C       0.378785526      1.000968842      1.132866162
C       1.785032770      1.115692786      0.892447371
H       0.252626022      1.819124202      1.674070659
H      -0.222427130      0.334450672      1.255172902
H       1.782318968      2.027352960      1.273092144
H       2.035884604      0.229464262      1.296445928
           6
  t=        47.50000    1    1
C       0.376476552      1.013222820      1.148071735
C       1.803566937      1.127817001      0.911468560
H       0.315334488      1.829572744      1.687500478
H      -0.188672756      0.338450281      1.235241382
H       1.803258933      2.059130381      1.232665202
H       2.073756622      0.241365922      1.284148555
           6
  t=        48.00000    1    1
C       0.376875028      1.027179043      1.162577792
C       1.820252213      1.139321213      0.930411850
H       0.368551589      1.850895340      1.706062329
H      -0.174758915      0.316666625      1.217189968
H       1.832836225      2.100923449      1.194465027
H       2.122092896      0.245265508      1.271875700
           6
  t=        48.50000    1    1
C       0.379877273      1.042708051      1.176461448
C       1.835017198      1.150245902      0.949333154
H       0.411926344      1.882585431      1.729997914
H      -0.177896962      0.271761165      1.200322585
H       1.870562400      2.151021447      1.157748411
H       2.181030421      0.241779097      1.259239832
           6
  t=        49.00000    1    1
C       0.385075894      1.059279823      1.189885966
C       1.847857570      1.160626234      0.968358663
H       0.445365335      1.922845153      1.758550522
H      -0.191396065      0.212338317      1.183859247
H       1.915542788      2.206225767      1.121565506
H       2.249772311      0.233195268      1.245278442
           6
  t=        49.50000    1    1
C       0.392046472      1.076320477      1.203026626
C       1.858884193      1.170516039      0.987618099
H       0.469065167      1.968543766      1.789996173
H      -0.208521545      0.148228116      1.167708020
H       1.966720384      2.262370198      1.085179674
H       2.326180525      0.223177706      1.228909803
           6
  t=        50.00000    1    1
C       0.400517633      1.093487186      1.216037032
C       1.868303521      1.179999290      1.007183160
H       0.483137139      2.016063041      1.822293685
H      -0.224845309      0.086596400      1.152326477
H       2.023054954      2.315544073      1.048240630
H       2.407529425      0.215173878      1.209383155
           6
  t=        50.50000    1    1
C       0.410329045      1.110591895      1.229024491
C       1.876389125      1.189179625      1.027059720
H       0.487627071      2.062485262      1.853705147
H      -0.237887152      0.031831976      1.138401757
H       2.083578898      2.362601684      1.010867509
H       2.490911327      0.211864307      1.186281524
           6
  t=        51.00000    1    1
C       0.421355181      1.127533243      1.242065356
C       1.883483768      1.198139375      1.047193300
H       0.482675767      2.105581703      1.882817831
H      -0.246116056     -0.013189709      1.126634129
H       2.146927250      2.401158692      0.973595623
H       2.573430814      0.215213338      1.159521402
           6
  t=        51.50000    1    1
C       0.433463378      1.144247891      1.255214049
C       1.889957300      1.206939294      1.067484528
H       0.468570300      2.143717134      1.908534784
H      -0.248446218     -0.046357871      1.117632791
H       2.211431394      2.429669432      0.937198931
H       2.652557404      0.226321923      1.129352210
           6
  t=        52.00000    1    1
C       0.446508193      1.160659127      1.268499750
C       1.896160203      1.215646769      1.087807142
H       0.445858079      2.175793517      1.930122413
H      -0.244255883     -0.066055711      1.111888692
H       2.275482558      2.447332169      0.902508307
H       2.726287514      0.245584117      1.096342504
           6
  t=        52.50000    1    1
C       0.460355772      1.176694306      1.281934375
C       1.902385079      1.224339423      1.108031092
H       0.415557681      2.201110284      1.947036514
H      -0.233404053     -0.071379390      1.109728275
H       2.337620130      2.453918895      0.870369630
H       2.793030598      0.272965358      1.061271813
           6
  t=        53.00000    1    1
C       0.474915000      1.192306453      1.295521059
C       1.908833900      1.233096118      1.128035394
H       0.378919929      2.219293570      1.958914217
H      -0.216027699     -0.062195801      1.111297510
H       2.396703428      2.449654350      0.841544653
H       2.851492560      0.308101716      1.024999535
           6
  t=        53.50000    1    1
C       0.490115152      1.207469028      1.309266135
C       1.915660093      1.241993886      1.147703300
H       0.337243421      2.230162654      1.965494341
H      -0.192332536     -0.038763310      1.116601678
H       2.451711105      2.435074373      0.816717675
H       2.900616398      0.350294771      0.988412950
           6
  t=        54.00000    1    1
C       0.505882120      1.222162616      1.323182508
C       1.923010633      1.251110905      1.166911983
H       0.291834714      2.233663347      1.966555500
H      -0.162507078     -0.001486922      1.125569112
H       2.501604565      2.410847087      0.796584009
H       2.939454422      0.398635381      0.952419575
           6
  t=        54.50000    1    1
C       0.522125113      1.236373263      1.337286332
C       1.931047001      1.260521181      1.185528630
H       0.243919617      2.229829068      1.961932549
H      -0.126745977      0.049111884      1.138122020
H       2.545429518      2.377700454      0.781873973
H       2.967087438      0.452168126      0.917922123
           6
  t=        55.00000    1    1
C       0.538747189      1.250098274      1.351587420
C       1.939926328      1.270286265      1.203418168
H       0.194652210      2.218870931      1.951542943
H      -0.085378377      0.112219150      1.154224257
H       2.582430912      2.336512683      0.773373966
H       2.982728364      0.509916309      0.885745417
           6
  t=        55.50000    1    1
C       0.555656643      1.263348734      1.366080222
C       1.949765870      1.280446084      1.220463869
H       0.145096555      2.201438142      1.935579579
H      -0.039045159      0.186450348      1.173787916
H       2.612154405      2.288739941      0.771740462
H       2.986103932      0.570551257      0.856585033
           6
  t=        56.00000    1    1
C       0.572812222      1.276163841      1.380747707
C       1.960633998      1.291026239      1.236571827
H       0.096140657      2.178617651      1.914548631
H       0.011258145      0.269699569      1.196548835
H       2.634280830      2.236449185      0.777436200
H       2.977317662      0.632252812      0.831058103
           6
  t=        56.50000    1    1
C       0.590251011      1.288671644      1.395579841
C       1.972538562      1.302040238      1.251676736
H       0.048518687      2.151889442      1.889187793
H       0.063941355      0.358443535      1.221908429
H       2.648803560      2.181823977      0.790756379
H       2.956696783      0.693193998      0.809628051
           6
  t=        57.00000    1    1
C       0.608104939      1.301158747      1.410593203
C       1.985406167      1.313472963      1.265759427
H       0.002808114      2.122926493      1.860350571
H       0.116379037      0.447129125      1.248848764
H       2.656198613      2.127682835      0.811698018
H       2.925115761      0.751201478      0.792493152
           6
  t=        57.50000    1    1
C       0.626656638      1.314172377      1.425858541
C       1.999044559      1.325277640      1.278873664
H      -0.040511483      2.093400814      1.828920629
H       0.164206714      0.527128176      1.275688728
H       2.657645182      2.077672346      0.839797729
H       2.884203410      0.803621594      0.779430575
           6
  t=        58.00000    1    1
C       0.646335709      1.328487280      1.441480910
C       2.013090969      1.337359679      1.291174818
H      -0.081122076      2.064910796      1.795820548
H       0.201653998      0.587310396      1.300278956
H       2.655338819      2.036337222      0.874070117
H       2.836420158      0.847337021      0.769549377
           6
  t=        58.50000    1    1
C       0.667521724      1.344807545      1.457532639
C       2.027049570      1.349578746      1.302908716
H      -0.118717536      2.038669638      1.761908522
H       0.223649496      0.617874867      1.320879151
H       2.652622029      2.008641265      0.913156479
H       2.784574042      0.879254137      0.761299298
           6
  t=        59.00000    1    1
C       0.690154439      1.363221276      1.473966728
C       2.040424085      1.361792354      1.314369948
H      -0.152870979      2.015613943      1.727874806
H       0.229701356      0.616703665      1.337346589
H       2.653393588      1.999238489      0.955790719
H       2.731462559      0.896548277      0.752448726
           6
  t=        59.50000    1    1
C       0.713738670      1.383241501      1.490652101
C       2.052829929      1.373902234      1.325828091
H      -0.182830563      1.996589892      1.694459930
H       0.223608010      0.588630754      1.350546140
H       2.661155114      2.012004225      1.000996382
H       2.679516880      0.896637499      0.740718351
           6
  t=        60.00000    1    1
C       0.737487846      1.404037068      1.507433217
C       2.064135957      1.385899463      1.337478918
H      -0.207598727      1.982222362      1.662532504
H       0.211592297      0.542932594      1.361529037
H       2.677849009      2.048637477      1.048065265
H       2.630509400      0.877931542      0.724417161
           6
  t=        60.50000    1    1
C       0.760645961      1.424819950      1.524194696
C       2.074569269      1.397901094      1.349333289
H      -0.226143128      1.972756682      1.632776724
H       0.199422222      0.488923829      1.371069104
H       2.702695505      2.107115233      1.097096293
H       2.584721815      0.840888504      0.703233640
           6
  t=        61.00000    1    1
C       0.782657066      1.445020656      1.540871302
C       2.084620963      1.410100276      1.361167510
H      -0.237538641      1.968038430      1.605378835
H       0.191114895      0.433718259      1.379998639
H       2.732775059      2.181541069      1.148939971
H       2.540904165      0.788929842      0.678741535
           6
  t=        61.50000    1    1
C       0.803163051      1.464304334      1.557421674
C       2.094808079      1.422658023      1.372657315
H      -0.241007993      1.967582719      1.580363781
H       0.188703014      0.381900467      1.389156673
H       2.764762999      2.264753496      1.204201563
H       2.497677392      0.727188733      0.653828278
           6
  t=        62.00000    1    1
C       0.821976473      1.482510619      1.573793434
C       2.105525617      1.435670061      1.383527897
H      -0.236067083      1.970822250      1.557880169
H       0.192992496      0.336078866      1.399193566
H       2.795853185      2.350434112      1.262940132
H       2.454084450      0.660712679      0.631534495
           6
  t=        62.50000    1    1
C       0.838999097      1.499589091      1.589928919
C       2.117044019      1.449155318      1.393613528
H      -0.222561484      1.977324322      1.538324375
H       0.204263571      0.297698801      1.410368931
H       2.823714584      2.433167116      1.324369732
H       2.409969737      0.594280090      0.614651980
           6
  t=        63.00000    1    1
C       0.854203906      1.515532299      1.605786207
C       2.129496917      1.463072162      1.402857585
H      -0.200643395      1.986755027      1.522068496
H       0.222338699      0.267670790      1.422769661
H       2.846902752      2.509423090      1.387398212
H       2.365837064      0.531428647      0.604988145
           6
  t=        63.50000    1    1
C       0.867656035      1.530358336      1.621349026
C       2.142912719      1.477363128      1.411269786
H      -0.170981539      1.998896196      1.509251267
H       0.246636428      0.246380405      1.436487091
H       2.864668436      2.576649487      1.450846935
H       2.322571220      0.475012605      0.603569628
           6
  t=        64.00000    1    1
C       0.879476381      1.544053313      1.636606033
C       2.157243573      1.491984717      1.418891203
H      -0.134651437      2.013778854      1.499929147
H       0.276558845      0.234245931      1.451688372
H       2.876694853      2.633112993      1.513704957
H       2.281292036      0.426999809      0.610829546
           6
  t=        64.50000    1    1
C       0.889871637      1.556597894      1.651562412
C       2.172377458      1.506888548      1.425788484
H      -0.093321729      2.031590930      1.493948001
H       0.311393096      0.231610268      1.468590379
H       2.883079386      2.677959314      1.575192499
H       2.243155557      0.388520612      0.626628995
           6
  t=        65.00000    1    1
C       0.899083962      1.567942049      1.666223113
C       2.188165570      1.522016250      1.432051784
H      -0.049015101      2.052763146      1.491009950
H       0.350568027      0.238991818      1.487516008
H       2.884086507      2.710594880      1.634547816
H       2.209378754      0.360511135      0.650571463
           6
  t=        65.50000    1    1
C       0.907397140      1.578023925      1.680592854
C       2.204419679      1.537299809      1.437809957
H      -0.003993202      2.077896290      1.490716914
H       0.393555178      0.256943354      1.508761477
H       2.880115711      2.730611771      1.690889189
H       2.181213638      0.343773170      0.682048933
           6
  t=        66.00000    1    1
C       0.915131845      1.586783930      1.694676306
C       2.220921811      1.552671312      1.443215655
H       0.039521478      2.107741388      1.492673799
H       0.439545359      0.285744442      1.532494147
H       2.871739900      2.738087450      1.743346454
H       2.159895275      0.338717978      0.720284696
           6
  t=        66.50000    1    1
C       0.922590463      1.594160960      1.708476074
C       2.237459230      1.568060839      1.448418882
H       0.079707779      2.143116952      1.496529432
H       0.487500228      0.325422937      1.558775663
H       2.859626643      2.733424174      1.791098043
H       2.146547338      0.345658191      0.764571401
           6
  t=        67.00000    1    1
C       0.930003915      1.600102952      1.721985522
C       2.253847085      1.583400921      1.453548813
H       0.115530705      2.184695610      1.502074740
H       0.536570844      0.375812982      1.587431512
H       2.844460313      2.717135707      1.833391975
H       2.141820445      0.364997578      0.814584482
           6
  t=        67.50000    1    1
C       0.937498300      1.604617671      1.735181984
C       2.269933049      1.598622325      1.458715128
H       0.146964684      2.232614535      1.509382083
H       0.586044531      0.436479521      1.618073012
H       2.826936876      2.689709918      1.869508024
H       2.146069402      0.397278557      0.870323670
           6
  t=        68.00000    1    1
C       0.945131777      1.607878814      1.748018805
C       2.285575549      1.613689259      1.464037245
H       0.175032354      2.286141771      1.518925577
H       0.634890744      0.506023351      1.650192722
H       2.807771241      2.651887258      1.898912258
H       2.159581126      0.442248633      0.931489179
           6
  t=        68.50000    1    1
C       0.952918563      1.610313775      1.760460459
C       2.300623094      1.628552144      1.469638425
H       0.201309490      2.343620707      1.531375555
H       0.681613400      0.581545907      1.683249224
H       2.787860681      2.604885755      1.921337802
H       2.183014398      0.498743026      0.997173575
           6
  t=        69.00000    1    1
C       0.960913932      1.612660332      1.772484082
C       2.314876275      1.643136315      1.475626041
H       0.227401903      2.402846008      1.547466700
H       0.724164551      0.657291914      1.716484906
H       2.768785449      2.551325315      1.937236583
H       2.216948522      0.564200985      1.065940854
           6
  t=        69.50000    1    1
C       0.969275627      1.615971438      1.784074613
C       2.328104727      1.657389338      1.482063615
H       0.254682298      2.461485390      1.567777599
H       0.759462794      0.723422312      1.749058420
H       2.752932868      2.495260265      1.947958575
H       2.261570256      0.634817680      1.136126381
           6
  t=        70.00000    1    1
C       0.978238745      1.621534821      1.795226938
C       2.340071977      1.671331118      1.488946697
H       0.284226235      2.517281418      1.592539934
H       0.783955059      0.766837059      1.780323778
H       2.743025695      2.441237210      1.955612966
H       2.316650704      0.705822661      1.206149201
           6
  t=        70.50000    1    1
C       0.987987519      1.630413842      1.805932737
C       2.350491501      1.685072419      1.496181930
H       0.316596078      2.568230538      1.621724590
H       0.795191848      0.777002943      1.810011349
H       2.742465612      2.395236155      1.963585859
H       2.381894230      0.769782210      1.274133540
           6
  t=        71.00000    1    1
C       0.998515162      1.642731139      1.816152182
C       2.359021754      1.698870092      1.503573135
H       0.351924853      2.612928560      1.655168075
H       0.793474333      0.753998553      1.838420052
H       2.754895296      2.363965699      1.976345777
H       2.457374547      0.816791424      1.338287623
           6
  t=        71.50000    1    1
C       1.009718329      1.657702399      1.825826709
C       2.365314494      1.713094903      1.510902005
H       0.390007402      2.650640506      1.692654988
H       0.780685806      0.707373148      1.866051031
H       2.783283349      2.353150320      1.997950151
H       2.543825894      0.837239261      1.397567356
           6
  t=        72.00000    1    1
C       1.021436590      1.674209182      1.834940601
C       2.369313289      1.727826210      1.518048424
H       0.430318164      2.681208920      1.733848631
H       0.758439349      0.649413030      1.893285350
H       2.828178237      2.363896355      2.029224342
H       2.642196330      0.830271903      1.452721572
           6
  t=        72.50000    1    1
C       1.033456818      1.691279453      1.843551148
C       2.371536415      1.742719879      1.525156009
H       0.472292226      2.704997405      1.778262453
H       0.729901454      0.590492903      1.919757500
H       2.886322412      2.391780314      2.066772989
H       2.749505746      0.805257560      1.505603773
           6
  t=        73.00000    1    1
C       1.045588365      1.708278449      1.851756755
C       2.372835457      1.757383202      1.532552557
H       0.515363702      2.722614903      1.825389460
H       0.697770949      0.537571569      1.945054596
H       2.952160328      2.430504445      2.105698816
H       2.861301279      0.773169252      1.556952583
           6
  t=        73.50000    1    1
C       1.057719115      1.724842729      1.859647454
C       2.374067714      1.771576056      1.540586040
H       0.558710029      2.734803303      1.874792549
H       0.664070593      0.494512218      1.968837254
H       3.020364815      2.474649420      2.141728263
H       2.972830518      0.742013110      1.606598968
           6
  t=        74.00000    1    1
C       1.069761384      1.740726787      1.867318877
C       2.375963710      1.785207956      1.549506666
H       0.601429437      2.742363386      1.926028956
H       0.630325751      0.463585212      1.990846679
H       3.086775237      2.520315560      2.171957305
H       3.079970654      0.716621218      1.654027603
           6
  t=        74.50000    1    1
C       1.081656788      1.755743613      1.874866488
C       2.379066872      1.798266716      1.559466076
H       0.642533096      2.746379586      1.978636810
H       0.597715636      0.446209152      2.010928808
H       3.148276252      2.565089093      2.194793695
H       3.179866995      0.699277890      1.698502217
           6
  t=        75.00000    1    1
C       1.093425836      1.769799045      1.882370827
C       2.383696394      1.810784446      1.570532309
H       0.680878293      2.748256937      2.032119918
H       0.567229652      0.442685720      2.029069351
H       3.202662815      2.607254886      2.209632546
H       3.270830148      0.690730912      1.739367776
           6
  t=        75.50000    1    1
C       1.105151808      1.782862380      1.889869190
C       2.389970862      1.822825091      1.582728646
H       0.715506285      2.749331716      2.086190146
H       0.539509542      0.452595904      2.045324070
H       3.248558430      2.645758656      2.216395531
H       3.352148221      0.690721203      1.776213161
           6
  t=        76.00000    1    1
C       1.116884980      1.794914688      1.897364503
C       2.397973571      1.834438071      1.596064752
H       0.745700893      2.750561886      2.140751730
H       0.515199169      0.475689238      2.059851684
H       3.284970521      2.679972720      2.215264079
H       3.423294491      0.698805647      1.808643952
           6
  t=        76.50000    1    1
C       1.128651014      1.805948960      1.904855610
C       2.407719381      1.845669454      1.610518680
H       0.771175533      2.752538512      2.195851092
H       0.494962820      0.511739347      2.072681235
H       3.311375917      2.709585971      2.206545606
H       3.483931627      0.714465249      1.836552574
           6
  t=        77.00000    1    1
C       1.140414647      1.815977872      1.912359358
C       2.419227021      1.856553974      1.626051908
H       0.792019310      2.755391998      2.251492850
H       0.479443191      0.560618159      2.083736142
H       3.327474137      2.734456748      2.190573437
H       3.533825283      0.737274406      1.859935913
           6
  t=        77.50000    1    1
C       1.152089273      1.825044119      1.919926687
C       2.432517302      1.867133911      1.642608070
H       0.808683191      2.758871473      2.307507192
H       0.469147758      0.622040498      2.092809251
H       3.333155355      2.754494062      2.167661310
H       3.572910848      0.766847630      1.878921872
           6
  t=        78.00000    1    1
C       1.163555738      1.833220332      1.927645069
C       2.447625719      1.877462057      1.660122964
H       0.821877873      2.762472593      2.363476466
H       0.464444583      0.695428563      2.099580651
H       3.328429608      2.769583683      2.138077583
H       3.601096390      0.802886777      1.893702375
           6
  t=        78.50000    1    1
C       1.174685611      1.840615855      1.935627708
C       2.464608343      1.887588657      1.678532768
H       0.832426672      2.765531703      2.418718894
H       0.465600035      0.779836686      2.103703798
H       3.313385087      2.779642690      2.102121114
H       3.618066246      0.845182514      1.904418456
           6
  t=        79.00000    1    1
C       1.185389433      1.847405577      1.944001388
C       2.483475032      1.897542506      1.697761712
H       0.841161868      2.767356206      2.472225837
H       0.472674724      0.873663956      2.104939007
H       3.288402869      2.784787587      2.060396400
H       3.623494952      0.893484783      1.911106079
           6
  t=        79.50000    1    1
C       1.195671353      1.853859807      1.952874527
C       2.504151094      1.907302036      1.717722611
H       0.848856762      2.767368237      2.522809920
H       0.485177440      0.974253583      2.103295833
H       3.254305641      2.785654832      2.013914839
H       3.617118274      0.947427867      1.913678672
           6
  t=        80.00000    1    1
C       1.205663275      1.860366433      1.962320356
C       2.526463918      1.916768611      1.738298938
H       0.856200804      2.765230694      2.569329264
H       0.501509965      1.077492969      2.099094108
H       3.212605530      2.783623367      1.964089169
H       3.598817940      1.006635910      1.912061437
           6
  t=        80.50000    1    1
C       1.215718135      1.867445436      1.972349392
C       2.550094546      1.925747425      1.759354985
H       0.863798187      2.761133929      2.610882756
H       0.518094343      1.177290837      2.093030138
H       3.165685499      2.781136496      1.912646790
H       3.568779841      1.070691829      1.906223510
           6
  t=        81.00000    1    1
C       1.226408414      1.875711042      1.982923042
C       2.574620159      1.933941976      1.780761939
H       0.872168226      2.755642314      2.646845618
H       0.529042266      1.266082670      2.086034727
H       3.116636848      2.782079915      1.861259839
H       3.527498384      1.138924207      1.896181499
           6
  t=        81.50000    1    1
C       1.238419559      1.885735880      1.993995833
C       2.599501000      1.941006307      1.802406411
H       0.881684556      2.749316529      2.676806115
H       0.527070983      1.336749757      2.078973185
H       3.069028454      2.791831815      1.811137684
H       3.476577771      1.209811913      1.882165400
           6
  t=        82.00000    1    1
C       1.252260044      1.897799395      2.005573287
C       2.624122441      1.946783921      1.824202726
H       0.892627258      2.742768649      2.700640790
H       0.506606510      1.385325781      2.072028805
H       3.025718048      2.815545654      1.762565387
H       3.419719125      1.280090730      1.864785373
           6
  t=        82.50000    1    1
C       1.267923628      1.911726277      2.017711800
C       2.647791315      1.951639332      1.846110603
H       0.905243063      2.736818764      2.718482960
H       0.467684580      1.412759414      2.064590861
H       2.987650074      2.855226449      1.715203899
H       3.364029413      1.343732383      1.844665883
           6
  t=        83.00000    1    1
C       1.284906683      1.927016152      2.030467105
C       2.669608264      1.956624297      1.868134375
H       0.919651757      2.732461068      2.730695989
H       0.416053383      1.423604793      2.055818534
H       2.954046105      2.908453873      1.668981701
H       3.321136611      1.391038761      1.821640170
           6
  t=        83.50000    1    1
C       1.302540369      1.943100467      2.043862630
C       2.688552239      1.963196323      1.890339942
H       0.935761702      2.730618935      2.737767996
H       0.359663244      1.423288681      2.045230131
H       2.923694615      2.969667354      1.624704515
H       3.304529738      1.410627810      1.793831675
           6
  t=        84.00000    1    1
C       1.320232629      1.959498541      2.057876776
C       2.704182426      1.972368722      1.912824163
H       0.953360630      2.732071375      2.740315956
H       0.305569190      1.416308360      2.032845732
H       2.895882297      3.032834784      1.583803669
H       3.320386696      1.396908716      1.758275252
           6
  t=        84.50000    1    1
C       1.337531296      1.975840730      2.072422383
C       2.717007550      1.984183234      1.935550388
H       0.972073123      2.737591292      2.739290270
H       0.258808012      1.405890734      2.019100576
H       2.870473559      3.093596911      1.547616993
H       3.363507770      1.354148100      1.713722688
           6
  t=        85.00000    1    1
C       1.354168417      1.991872706      2.087379423
C       2.728176587      1.997857186      1.958216176
H       0.991454651      2.747970040      2.735811911
H       0.222244689      1.394020133      2.004532696
H       2.847648930      3.149169393      1.517082677
H       3.420794015      1.294711181      1.662610817
           6
  t=        85.50000    1    1
C       1.370040344      2.007439438      2.102627585
C       2.738666088      2.012552713      1.980390243
H       1.010944652      2.763769073      2.730930207
H       0.197179113      1.381906026      1.989748097
H       2.827799664      3.197535558      1.492905195
H       3.480713601      1.230674737      1.609152455
           6
  t=        86.00000    1    1
C       1.385112953      2.022438358      2.118062494
C       2.749004417      2.027748648      2.001743561
H       1.029976592      2.785302139      2.725452474
H       0.184304198      1.370500761      1.975339928
H       2.811216570      3.237643144      1.475495800
H       3.536960139      1.169257168      1.556700164
           6
  t=        86.50000    1    1
C       1.399365437      2.036806311      2.133594786
C       2.759461722      2.043144153      2.022068833
H       1.048127047      2.812607512      2.720027924
H       0.183933160      1.360577553      1.961821429
H       2.798104036      3.269090657      1.464936799
H       3.586468400      1.114385689      1.507544107
           6
  t=        87.00000    1    1
C       1.412815596      2.050532642      2.149144732
C       2.770158855      2.058554163      2.041252491
H       1.065067416      2.845414630      2.715150990
H       0.196031934      1.352689080      1.949650011
H       2.788641706      3.291626111      1.461086697
H       3.627769251      1.068362317      1.463177184
           6
  t=        87.50000    1    1
C       1.425481876      2.063635604      2.164655958
C       2.781081381      2.073920676      2.059277161
H       1.080575028      2.883176350      2.711008801
H       0.220563363      1.347342975      1.939275202
H       2.783041303      3.305121887      1.463702392
H       3.660863036      1.031827798      1.424084617
           6
  t=        88.00000    1    1
C       1.437369980      2.076155939      2.180099631
C       2.792154633      2.089252544      2.076176565
H       1.094572714      2.925047465      2.707432301
H       0.257461771      1.345074846      1.931170138
H       2.781434639      3.309731855      1.472546250
H       3.686582514      1.004346938      1.390141707
           6
  t=        88.50000    1    1
C       1.448481511      2.088158905      2.195468018
C       2.803325154      2.104563460      2.091991589
H       1.107150068      2.969851460      2.704003388
H       0.306396739      1.346401157      1.925778811
H       2.783807968      3.305805376      1.487391303
H       3.705800116      0.985289666      1.361154462
           6
  t=        89.00000    1    1
C       1.458821993      2.099725581      2.210764668
C       2.814569216      2.119864031      2.106748290
H       1.118524618      3.016171495      2.700205901
H       0.366800379      1.351766706      1.923495034
H       2.790103389      3.293713836      1.508064841
H       3.719141059      0.974164124      1.337065197
           6
  t=        89.50000    1    1
C       1.468419904      2.110942796      2.226002962
C       2.825873367      2.135159965      2.120455575
H       1.128925839      3.062442472      2.695559518
H       0.437883771      1.361505459      1.924620348
H       2.800371928      3.273879969      1.534363750
H       3.726934678      0.970676083      1.317990209
           6
  t=        90.00000    1    1
C       1.477351298      2.121902402      2.241207743
C       2.837213773      2.150430318      2.133118929
H       1.138495757      3.107071800      2.689694422
H       0.518609775      1.375760823      1.929300525
H       2.814832733      3.247014336      1.565883884
H       3.729234732      0.974719256      1.304196319
           6
  t=        90.50000    1    1
C       1.485760063      2.132711418      2.256415448
C       2.848551768      2.165605339      2.144750734
H       1.147292971      3.148570357      2.682355093
H       0.607505718      1.394299076      1.937462070
H       2.833842444      3.214272524      1.601953477
H       3.725844840      0.986416806      1.296102601
           6
  t=        91.00000    1    1
C       1.493885111      2.143525510      2.271675126
C       2.859854777      2.180565299      2.155373784
H       1.155389358      3.185657965      2.673348585
H       0.702080568      1.416021100      1.948686993
H       2.857779469      3.177211149      1.641752481
H       3.716347124      1.006163218      1.294283973
           6
  t=        91.50000    1    1
C       1.502039594      2.154575572      2.287046788
C       2.871115304      2.195111378      2.165047239
H       1.162960970      3.217243118      2.662528502
H       0.798576627      1.438584115      1.962181631
H       2.887072117      3.138351536      1.684145636
H       3.700252814      1.034489256      1.299395745
           6
  t=        92.00000    1    1
C       1.510596422      2.166192968      2.302619152
C       2.882319528      2.208863703      2.173910481
H       1.170250028      3.242416599      2.649804002
H       0.892297153      1.458169614      1.976668042
H       2.922345534      3.102509940      1.727118371
H       3.677112496      1.071884412      1.312103317
           6
  t=        92.50000    1    1
C       1.519984800      2.178816891      2.318541029
C       2.893388987      2.221240813      2.182176743
H       1.177419024      3.260551493      2.635180779
H       0.978228779      1.469555218      1.990155603
H       2.964540820      3.076891894      1.767714050
H       3.646656613      1.118687674      1.333034265
           6
  t=        93.00000    1    1
C       1.530592463      2.192900222      2.334985487
C       2.904174865      2.231614300      2.190044290
H       1.184397325      3.271443815      2.618861310
H       1.052149332      1.467202499      2.000353436
H       3.015079319      3.069090743      1.802986066
H       3.608909729      1.175139614      1.362798886
           6
  t=        93.50000    1    1
C       1.542598234      2.208686003      2.352040419
C       2.914529089      2.239568281      2.197557375
H       1.190860435      3.275424123      2.601247825
H       1.112247575      1.447722353      2.005893845
H       3.075553345      3.083997083      1.831604124
H       3.564048892      1.241467729      1.402118347
           6
  t=        94.00000    1    1
C       1.555931966      2.226019120      2.369615822
C       2.924393939      2.245199147      2.204534611
H       1.196278568      3.273307245      2.582875299
H       1.159606896      1.412077129      2.007330906
H       3.146533320      3.120854547      1.855129325
H       3.512473643      1.317350889      1.451576316
           6
  t=        94.50000    1    1
C       1.570402122      2.244334779      2.387428948
C       2.933777186      2.249276423      2.210791084
H       1.200053911      3.266433581      2.564281429
H       1.197240502      1.365686716      2.007116768
H       3.226367194      3.172649647      1.877250854
H       3.455610387      1.400602825      1.510066233
           6
  t=        95.00000    1    1
C       1.585809477      2.262952766      2.405175954
C       2.942785168      2.252782274      2.216247163
H       1.201444024      3.256551220      2.546022570
H       1.227974430      1.314980843      2.007949583
H       3.312072535      3.230863924      1.901403891
H       3.395464745      1.487966204      1.575467787
           6
  t=        95.50000    1    1
C       1.602010197      2.281232712      2.422609012
C       2.951450320      2.256721219      2.221056069
H       1.199578003      3.245864131      2.528706734
H       1.253763348      1.265478181      2.012016920
H       3.400546211      3.288924950      1.929769951
H       3.335383477      1.573951741      1.643931171
           6
  t=        96.00000    1    1
C       1.618910300      2.298639738      2.439554397
C       2.959500409      2.262345441      2.225877793
H       1.193684415      3.236718455      2.512845653
H       1.275904545      1.221238676      2.020789638
H       3.489311505      3.342538440      1.963118467
H       3.281681163      1.647900464      1.706910181
           6
  t=        96.50000    1    1
C       1.636474329      2.314778937      2.455915576
C       2.966342887      2.271406896      2.231948235
H       1.182799099      3.231254927      2.498783060
H       1.295268980      1.185225306      2.035132228
H       3.576031906      3.388249069      2.001552721
H       3.244270587      1.691993810      1.749516991
           6
  t=        97.00000    1    1
C       1.654590760      2.329428046      2.471678901
C       2.971680338      2.285223514      2.240213889
H       1.166512135      3.230450292      2.486592389
H       1.312106177      1.159297497      2.055443373
H       3.658917749      3.423807004      2.044720374
H       3.229974632      1.692589871      1.760516315
           6
  t=        97.50000    1    1
C       1.672986876      2.342566078      2.486878923
C       2.975921100      2.303912319      2.250729681
H       1.145027932      3.233866022      2.476449421
H       1.326836769      1.144992530      2.081487939
H       3.736003733      3.447935418      2.091689690
H       3.238517541      1.648722333      1.739833080
           6
  t=        98.00000    1    1
C       1.691345599      2.354295526      2.501532595
C       2.980016036      2.326215571      2.262500962
H       1.119585397      3.239996118      2.468664343
H       1.340015542      1.143218712      2.112816114
H       3.805447845      3.459966343      2.141509401
H       3.262395634      1.575422434      1.700208080
           6
  t=        98.50000    1    1
C       1.709342657      2.364804809      2.515667013
C       2.984949607      2.350464849      2.274373473
H       1.091615543      3.246999283      2.463341315
H       1.352116384      1.154420325      2.149131807
H       3.865565761      3.459752020      2.193440877
H       3.293521770      1.491870152      1.656002785
           6
  t=        99.00000    1    1
C       1.726661378      2.374315923      2.529328866
C       2.991310733      2.375561866      2.285687403
H       1.062592537      3.253200905      2.460558391
H       1.363406730      1.178219168      2.190248869
H       3.915796887      3.448148014      2.247027688
H       3.327470904      1.409704341      1.615087480
           6
  t=        99.50000    1    1
C       1.743036590      2.383032778      2.542560412
C       2.999413348      2.400924502      2.296167941
H       1.033976769      3.257296775      2.460544767
H       1.374105664      1.213779811      2.235767891
H       3.955954232      3.425998821      2.301714236
H       3.362169522      1.334726771      1.580959018
           6
  t=       100.00000    1    1
C       1.758262741      2.391119005      2.555398425
C       3.009431893      2.426294832      2.305756931
H       1.007190914      3.258384414      2.463493439
H       1.384348755      1.259902685      2.285159394
H       3.985947089      3.394023381      2.356899601
H       3.396520801      1.269444143      1.554809553
           6
  t=       100.50000    1    1
C       1.772224997      2.398742330      2.567874625
C       3.021396838      2.451564800      2.314512231
H       0.983643233      3.255886484      2.469646473
H       1.394184959      1.314919825      2.337665930
H       4.005798126      3.352997904      2.411871346
H       3.430050109      1.214614511      1.536799538
           6
  t=       101.00000    1    1
C       1.784922964      2.406111132      2.580027954
C       3.035209949      2.476671889      2.322570624
H       0.964455951      3.249512860      2.479092609
H       1.403443756      1.376484048      2.392376604
H       4.015894598      3.304003467      2.465862085
H       3.462593694      1.170056079      1.526424639
           6
  t=       101.50000    1    1
C       1.796492442      2.413526322      2.591899065
C       3.050690186      2.501480819      2.330072498
H       0.950362353      3.239196623      2.491847379
H       1.411520167      1.441133852      2.448164985
H       4.016974979      3.248424066      2.518073128
H       3.493823855      1.135939663      1.523437217
           6
  t=       102.00000    1    1
C       1.807191649      2.421425582      2.603540484
C       3.067578959      2.525816070      2.337146125
H       0.941808329      3.225048038      2.507910979
H       1.417013136      1.503829616      2.503745519
H       4.010181439      3.187821821      2.567758645
H       3.523558013      1.112508670      1.527714109
           6
  t=       102.50000    1    1
C       1.817366422      2.430336236      2.615008270
C       3.085510960      2.549503747      2.343899341
H       0.938918112      3.207619216      2.527247997
H       1.417767701      1.558206002      2.558015851
H       3.997550602      3.124256286      2.614554824
H       3.552022275      1.099305416      1.538803998
           6
  t=       103.00000    1    1
C       1.827378154      2.440744479      2.626322729
C       3.104027392      2.572340204      2.350374977
H       0.941510701      3.188053943      2.549849040
H       1.411420254      1.597830422      2.610433286
H       3.982435273      3.060551890      2.658851818
H       3.579569099      1.095427513      1.556116510
           6
  t=       103.50000    1    1
C       1.837507534      2.452906977      2.637456866
C       3.122585733      2.594086464      2.356521792
H       0.949261179      3.167765089      2.575669215
H       1.396443434      1.618616217      2.661112464
H       3.969633352      3.000130702      2.702083564
H       3.606372765      1.099915914      1.579080151
           6
  t=       104.00000    1    1
C       1.847859847      2.466689430      2.648370657
C       3.140595034      2.614512917      2.362203709
H       0.961674059      3.148401886      2.604514186
H       1.373420497      1.620730238      2.710448106
H       3.964936151      2.946369920      2.746722298
H       3.632341215      1.111913564      1.607120705
           6
  t=       104.50000    1    1
C       1.858365302      2.481620686      2.659055564
C       3.157568320      2.633483392      2.367268673
H       0.977964904      3.131847891      2.636048338
H       1.345123731      1.608008880      2.758537686
H       3.973273506      2.901433019      2.795472044
H       3.657191006      1.130773696      1.639685837
           6
  t=       105.00000    1    1
C       1.868873765      2.497087861      2.669550037
C       3.173316652      2.650995975      2.371657146
H       0.996988735      3.120041388      2.669869206
H       1.315389973      1.585911318      2.804976345
H       3.996364871      2.865579019      2.849868289
H       3.680551106      1.156165574      1.676298669
           6
  t=       105.50000    1    1
C       1.879257279      2.512509670      2.679923142
C       3.188008841      2.667129530      2.375458407
H       1.017281169      3.114756460      2.705616776
H       1.287827303      1.559696337      2.849057754
H       4.032001684      2.837672314      2.909426452
H       3.701999562      1.188178616      1.716623357
           6
  t=       106.00000    1    1
C       1.889459871      2.527438176      2.690249892
C       3.202064815      2.681961349      2.378884585
H       1.037307585      3.117405500      2.743099236
H       1.265037951      1.533366747      2.889993257
H       4.075276543      2.816220199      2.971835291
H       3.721039417      1.227306815      1.760530088
           6
  t=       106.50000    1    1
C       1.899476209      2.541579355      2.700600663
C       3.215972628      2.695521956      2.382198286
H       1.055851944      3.128877353      2.782265895
H       1.248599222      1.509561707      2.927023263
H       4.120675905      2.800128314      3.033938345
H       3.737070991      1.274256292      1.808017918
           6
  t=       107.00000    1    1
C       1.909310438      2.554782512      2.711035417
C       3.230120115      2.707804705      2.385637417
H       1.072374671      3.149371533      2.823133770
H       1.239305982      1.489892206      2.959472641
H       4.163865054      2.788929030      3.092913086
H       3.749502979      1.329559024      1.859018184
           6
  t=       107.50000    1    1
C       1.918946696      2.567012522      2.721602369
C       3.244746878      2.718790855      2.389387440
H       1.087169172      3.178336357      2.865686138
H       1.237461490      1.475385096      2.986817107
H       4.202056732      2.782579949      3.146771700
H       3.757859986      1.393424077      1.913275269
           6
  t=       108.00000    1    1
C       1.928342008      2.578315091      2.732341283
C       3.259980100      2.728434336      2.393579410
H       1.101270877      3.214557889      2.909773374
H       1.243085418      1.466812121      3.008720785
H       4.233652207      2.781242631      3.194321364
H       3.761682244      1.466136387      1.970432084
           6
  t=       108.50000    1    1
C       1.937436027      2.588781093      2.743288900
C       3.275871924      2.736668453      2.398307274
H       1.116179231      3.256350058      2.955077564
H       1.256034837      1.464895041      3.025006126
H       4.257882736      2.785257390      3.235059835
H       3.760479728      1.548031888      2.029929105
           6
  t=       109.00000    1    1
C       1.946164976      2.598525209      2.754483862
C       3.292413828      2.743485313      2.403671172
H       1.133528859      3.301785422      3.001162366
H       1.276100908      1.470329735      3.035566506
H       4.274398998      2.795092688      3.268894266
H       3.754037464      1.638601219      2.090748457
           6
  t=       109.50000    1    1
C       1.954485162      2.607690075      2.765961026
C       3.309530543      2.749006195      2.409799303
H       1.154723998      3.348913905      3.047561457
H       1.303008645      1.483568842      3.040346804
H       4.283026095      2.811042572      3.295742825
H       3.742818612      1.735903023      2.151550497
           6
  t=       110.00000    1    1
C       1.962397910      2.616424462      2.777745419
C       3.327029157      2.753591189      2.416883143
H       1.180728622      3.395970218      3.093792666
H       1.336475974      1.504875534      3.039350169
H       4.283704043      2.833333355      3.315535501
H       3.728484135      1.835149707      2.210304476
           6
  t=       110.50000    1    1
C       1.969948205      2.624872433      2.789859497
C       3.344540186      2.757979301      2.425184804
H       1.212209533      3.441445744      3.139298861
H       1.376107904      1.534228983      3.032652872
H       4.276517203      2.862241124      3.328334072
H       3.714544509      1.927072263      2.264038647
           6
  t=       111.00000    1    1
C       1.977233488      2.633188750      2.802329420
C       3.361437382      2.763462893      2.435025050
H       1.249572321      3.484065190      3.183478939
H       1.421217524      1.571141177      3.020380380
H       4.261565130      2.897972167      3.334157015
H       3.707482577      1.995984231      2.309076361
           6
  t=       111.50000    1    1
C       1.984421597      2.641558082      2.815159001
C       3.377021687      2.771421861      2.446651946
H       1.292766917      3.522811423      3.225850181
H       1.470490475      1.614434284      3.002793036
H       4.239200182      2.940646619      3.332951143
H       3.714640251      2.025317603      2.342691867
           6
  t=       112.00000    1    1
C       1.991732973      2.650206726      2.828327850
C       3.390938160      2.782440156      2.460120548
H       1.341432178      3.556704525      3.265903509
H       1.522099824      1.662332541      2.980484835
H       4.209932503      2.990257504      3.324809616
H       3.739298134      2.008180401      2.364294022
           6
  t=       112.50000    1    1
C       1.999446110      2.659439172      2.841774531
C       3.403317633      2.795954376      2.475271504
H       1.395003296      3.584872134      3.303242443
H       1.573676504      1.711889255      2.954338794
H       4.174789999      3.046662229      3.310245699
H       3.778484795      1.951619365      2.375513853
           6
  t=       113.00000    1    1
C       2.007899332      2.669683066      2.855406618
C       3.414587580      2.810526964      2.491788909
H       1.452634844      3.606809723      3.337662118
H       1.622295009      1.758341580      2.925308774
H       4.135729799      3.109649689      3.290402609
H       3.824889030      1.873146745      2.379324707
           6
  t=       113.50000    1    1
C       2.017444853      2.681434745      2.869135586
C       3.425048423      2.824897300      2.509348465
H       1.513230397      3.622406657      3.369166706
H       1.664808893      1.795757697      2.894157774
H       4.095148146      3.179068468      3.266824906
H       3.872580892      1.788063365      2.378333912
           6
  t=       114.00000    1    1
C       2.028458209      2.695171620      2.882919067
C       3.434730506      2.838269360      2.527648003
H       1.575525682      3.631723202      3.397799658
H       1.698257770      1.818314402      2.861156678
H       4.055622908      3.255035917      3.241479814
H       3.918370801      1.705811306      2.374365276
           6
  t=       114.50000    1    1
C       2.041219627      2.711121539      2.896759178
C       3.443502330      2.850118662      2.546389822
H       1.638157912      3.635205237      3.423699526
H       1.720976790      1.822832629      2.826049791
H       4.019887302      3.338157891      3.216745148
H       3.960781008      1.632052481      2.368680241
           6
  t=       115.00000    1    1
C       2.055794325      2.729021299      2.910630276
C       3.451242861      2.860135323      2.565357150
H       1.699695455      3.633931868      3.447275320
H       1.733406672      1.811215521      2.788722335
H       3.990101306      3.429045679      3.194346341
H       3.999307530      1.570022075      2.362147662
           6
  t=       115.50000    1    1
C       2.072053395      2.748221281      2.924440014
C       3.457992760      2.868196016      2.584452570
H       1.758743337      3.629391129      3.469250446
H       1.737425342      1.789218553      2.749722257
H       3.967181490      3.527080039      3.174271846
H       4.033602366      1.522305976      2.355768913
           6
  t=       116.00000    1    1
C       2.089786436      2.767912906      2.938022244
C       3.463939199      2.874433440      2.603698915
H       1.814131587      3.623403647      3.490766714
H       1.735351550      1.763859664      2.710241582
H       3.950435941      3.630206091      3.154992159
H       4.063485433      1.490174075      2.350447338
           6
  t=       116.50000    1    1
C       2.108790415      2.787351848      2.951171557
C       3.469328589      2.879184941      2.623188314
H       1.864848024      3.618081879      3.513242601
H       1.729302900      1.741139942      2.671777061
H       3.938187811      3.734955661      3.134319377
H       4.089011290      1.473830427      2.346805432
           6
  t=       117.00000    1    1
C       2.128881161      2.805978181      2.963697732
C       3.474401784      2.882850547      2.642995214
H       1.910012332      3.615540145      3.538075518
H       1.720993135      1.725089026      2.635762966
H       3.928778483      3.837375557      3.110495198
H       4.110329696      1.472989578      2.345149334
           6
  t=       117.50000    1    1
C       2.149857081      2.823396097      2.975447143
C       3.479397810      2.885758010      2.663122320
H       1.948862403      3.617478478      3.566531978
H       1.711717012      1.718395209      2.603480009
H       3.921134592      3.933713911      3.082469578
H       4.127535328      1.487825991      2.345780198
           6
  t=       118.00000    1    1
C       2.171483778      2.839380617      2.986331463
C       3.484544742      2.888177026      2.683510826
H       1.980932228      3.624701073      3.599436467
H       1.702482260      1.722769051      2.576001769
H       3.914623167      4.020801005      3.049831484
H       4.140794798      1.518461811      2.348964162
           6
  t=       118.50000    1    1
C       2.193507829      2.853898474      2.996356099
C       3.490054070      2.890308929      2.704062340
H       2.006171710      3.636807949      3.636769284
H       1.694022171      1.738891927      2.554122142
H       3.908950726      4.096498047      3.012760970
H       4.150218029      1.564751775      2.354854980
           6
  t=       119.00000    1    1
C       2.215648548      2.867062976      3.005625055
C       3.496153902      2.892296984      2.724653526
H       2.024916359      3.652310603      3.677569015
H       1.686847276      1.766745418      2.538380382
H       3.903985892      4.159410920      2.971766403
H       4.155716842      1.626539708      2.363596796
           6
  t=       119.50000    1    1
C       2.237574230      2.879065510      3.014329308
C       3.503125373      2.894270639      2.745159207
H       2.037813203      3.669132708      3.720084491
H       1.681319970      1.805854959      2.529052660
H       3.899617495      4.208460964      2.927447855
H       4.156995588      1.703632176      2.375280476
           6
  t=       120.00000    1    1
C       2.258893393      2.890112040      3.022717101
C       3.511291658      2.896393580      2.765465624
H       2.045723879      3.685222024      3.762200927
H       1.677663047      1.855411003      2.526108845
H       3.895780226      4.242805641      2.880442684
H       4.153849060      1.795328896      2.389811104
           6
  t=       120.50000    1    1
C       2.279236909      2.900410581      3.031047905
C       3.520901444      2.898898587      2.785463883
H       2.049596614      3.699165705      3.801854275
H       1.676043789      1.914037679      2.529292736
H       3.892421956      4.262239635      2.831851585
H       4.146649014      1.899371527      2.406614007
           6
  t=       121.00000    1    1
C       2.298333932      2.910176648      3.039527801
C       3.532077193      2.902003672      2.805031894
H       2.050076519      3.709950303      3.837311193
H       1.676669998      1.980273530      2.538609430
H       3.889553207      4.267252870      2.783239002
H       4.136300101      2.012579259      2.424852197
           6
  t=       121.50000    1    1
C       2.315981596      2.919583694      3.048323629
C       3.544828043      2.905989724      2.824134867
H       2.047677430      3.716809800      3.867205732
H       1.679456495      2.052794615      2.553945429
H       3.887295650      4.258634092      2.735882497
H       4.124560402      2.130839541      2.443154068
           6
  t=       122.00000    1    1
C       2.332066317      2.928793297      3.057581955
C       3.558896603      2.911371586      2.842915522
H       2.043134260      3.719560769      3.890586504
H       1.683900954      2.129667806      2.574659465
H       3.885758234      4.237456527      2.690992641
H       4.115508810      2.247135684      2.458454699
           6
  t=       122.50000    1    1
C       2.346556953      2.937977454      3.067428290
C       3.573687956      2.918928241      2.861772132
H       2.037228812      3.718362350      3.907004553
H       1.689011159      2.208377711      2.599630319
H       3.885101217      4.204935749      2.649657920
H       4.116655368      2.351276803      2.464994500
           6
  t=       123.00000    1    1
C       2.359501362      2.947326836      3.077996795
C       3.588388884      2.929483648      2.881278037
H       2.030538569      3.713600028      3.916354628
H       1.693007691      2.285859373      2.627383703
H       3.885570814      4.162710404      2.613117427
H       4.138075613      2.432213692      2.454683596
           6
  t=       123.50000    1    1
C       2.371090066      2.957050690      3.089440315
C       3.602592328      2.943219510      2.901716776
H       2.023475787      3.705871597      3.918795615
H       1.693204567      2.358615280      2.655935838
H       3.887367888      4.112292131      2.582685234
H       4.184422556      2.486676038      2.422832993
           6
  t=       124.00000    1    1
C       2.381594685      2.967343174      3.101906109
C       3.616639605      2.959543563      2.922784419
H       2.016471456      3.695974829      3.914809460
H       1.686606344      2.423231275      2.682906774
H       3.890678625      4.056007712      2.559443606
H       4.250770935      2.519697117      2.372125271
           6
  t=       124.50000    1    1
C       2.391254285      2.978309719      3.115480206
C       3.631331775      2.977531874      2.943750756
H       2.009836879      3.684980804      3.905276324
H       1.670686204      2.477246559      2.706267425
H       3.895760759      3.997271306      2.544098005
H       4.326684706      2.539005509      2.310679718
           6
  t=       125.00000    1    1
C       2.400205504      2.989898410      3.130116956
C       3.647293777      2.996374747      2.963965591
H       2.003642556      3.674337909      3.891641815
H       1.644571133      2.519838101      2.725035147
H       3.903091130      3.940297565      2.536738297
H       4.403414847      2.550027863      2.246235016
           6
  t=       125.50000    1    1
C       2.408468735      3.001896904      3.145617171
C       3.664776482      3.015398643      2.983085159
H       1.997760316      3.665811681      3.875700696
H       1.609577361      2.551704165      2.739536495
H       3.913684123      3.890241113      2.536560748
H       4.475526646      2.555701670      2.183943222
           6
  t=       126.00000    1    1
C       2.416012307      3.013990381      3.161665030
C       3.683731567      3.033974823      3.001061261
H       1.991742392      3.661447214      3.859501199
H       1.568574373      2.574416446      2.751014080
H       3.929194261      3.853059667      2.541588369
H       4.539897006      2.557695528      2.126827997
           6
  t=       126.50000    1    1
C       2.422809425      3.025850407      3.177914246
C       3.703904315      3.051554887      3.018041073
H       1.984806408      3.663317452      3.845191389
H       1.524990471      2.589758772      2.761019688
H       3.951594713      3.834481065      2.549056363
H       4.595261259      2.556872912      2.076326871
           6
  t=       127.00000    1    1
C       2.428878559      3.037212660      3.194055096
C       3.724938304      3.067789316      3.034225181
H       1.976127241      3.673079494      3.834668812
H       1.482232920      2.599433363      2.770973220
H       3.982346104      3.837966315      2.556510934
H       4.641603546      2.553727827      2.032876619
           6
  t=       127.50000    1    1
C       2.434283462      3.047923889      3.209863231
C       3.746504743      3.082639666      3.049702508
H       1.965247049      3.691631867      3.829196175
H       1.443306875      2.604850219      2.781892613
H       4.021545419      3.863156058      2.563255382
H       4.679437698      2.548595280      1.996506960
           6
  t=       128.00000    1    1
C       2.439096397      3.057955915      3.225216043
C       3.768382371      3.096340287      3.064394484
H       1.952304931      3.718922046      3.829190187
H       1.410710204      2.607092243      2.794401263
H       4.067804571      3.906238622      2.570594101
H       4.709290231      2.541799890      1.967270609
           6
  t=       128.50000    1    1
C       2.443367072      3.067397282      3.240088412
C       3.790449100      3.109264426      3.078110341
H       1.938072254      3.753890288      3.834166714
H       1.386435732      2.606957364      2.808892181
H       4.118848266      3.961618640      2.580978133
H       4.731534707      2.533696302      1.945380074
           6
  t=       129.00000    1    1
C       2.447125445      3.076419101      3.254526582
C       3.812634630      3.121794801      3.090633485
H       1.923753484      3.794700434      3.842985230
H       1.371966407      2.605024785      2.825645874
H       4.172238917      4.023572179      2.596936785
H       4.746402013      2.524666152      1.931195909
           6
  t=       129.50000    1    1
C       2.450407767      3.085223672      3.268609268
C       3.834882724      3.134235149      3.101786731
H       1.910672481      3.839208582      3.854239878
H       1.368223486      2.601693762      2.844864841
H       4.225956579      4.087258705      2.620297794
H       4.753905106      2.515264832      1.925267091
           6
  t=       130.00000    1    1
C       2.453267007      3.094001833      3.282421190
C       3.857141336      3.146779514      3.111456209
H       1.900080020      3.885355106      3.866549953
H       1.375586311      2.597217465      2.866641479
H       4.278583661      4.149166066      2.651973097
H       4.753820473      2.506224843      1.928317283
           6
  t=       130.50000    1    1
C       2.455772557      3.102921012      3.296040182
C       3.879363493      3.159537485      3.119588133
H       1.893082619      3.931279653      3.878678542
H       1.394046103      2.591790524      2.890953834
H       4.329016046      4.207055212      2.692268947
H       4.745887349      2.498150121      1.941012599
           6
  t=       131.00000    1    1
C       2.458009140      3.112128954      3.309530773
C       3.901498686      3.172569307      3.126187536
H       1.890612351      3.975322073      3.889600966
H       1.423360716      2.585614684      2.917678879
H       4.376293326      4.259386377      2.741038059
H       4.729968540      2.491560454      1.963819122
           6
  t=       131.50000    1    1
C       2.460088292      3.121753796      3.322946025
C       3.923487412      3.185912540      3.131302531
H       1.893330445      4.016064977      3.898520083
H       1.463021218      2.578845705      2.946609919
H       4.419651175      4.304873625      2.797798106
H       4.706056052      2.487029052      1.997017480
           6
  t=       132.00000    1    1
C       2.462170606      3.131916691      3.336332665
C       3.945251157      3.199582791      3.135014033
H       1.901613616      4.052347332      3.904870938
H       1.512093340      2.571450678      2.977408062
H       4.458556617      4.342322714      2.861746599
H       4.674262407      2.485314505      2.040793029
           6
  t=       132.50000    1    1
C       2.464494812      3.142761949      3.349737715
C       3.966683661      3.213567543      3.137394408
H       1.915640962      4.083173409      3.908288963
H       1.569100005      2.563005284      3.009563789
H       4.492610476      4.370554839      2.931930510
H       4.634706275      2.487445266      2.095550314
           6
  t=       133.00000    1    1
C       2.467412287      3.154465386      3.363198931
C       3.987619674      3.227829275      3.138535256
H       1.935315291      4.107771832      3.908656559
H       1.631785396      2.552543421      3.042409390
H       4.521560170      4.388603494      3.007273856
H       4.587775424      2.494477415      2.161609276
           6
  t=       133.50000    1    1
C       2.471336644      3.167208210      3.376749713
C       4.007842026      3.242339268      3.138595819
H       1.960165762      4.125744688      3.906123692
H       1.697227377      2.538615508      3.075134675
H       4.545385537      4.396034664      3.086622507
H       4.534542245      2.506875492      2.238488786
           6
  t=       134.00000    1    1
C       2.476683143      3.181169349      3.390418963
C       4.027090112      3.257110807      3.137819955
H       1.989450122      4.137075119      3.901032620
H       1.762290002      2.519377063      3.106886792
H       4.564257382      4.392865977      3.168823920
H       4.476871292      2.524192831      2.324601881
           6
  t=       134.50000    1    1
C       2.483814895      3.196502984      3.404211713
C       4.045067391      3.272226847      3.136532820
H       2.022175114      4.142088130      3.893902448
H       1.824272575      2.492918607      3.136991020
H       4.578534185      4.379389674      3.252758632
H       4.417304861      2.544896042      2.417289223
           6
  t=       135.00000    1    1
C       2.492983395      3.213254825      3.418071744
C       4.061417843      3.287918486      3.135197971
H       2.057067409      4.141515524      3.885509328
H       1.881608351      2.458117238      3.165241219
H       4.588886532      4.356199292      3.337268346
H       4.359257855      2.565484320      2.512285374
           6
  t=       135.50000    1    1
C       2.504301637      3.231269828      3.431877620
C       4.075723851      3.304687018      3.134484740
H       2.092629661      4.136663060      3.876809494
H       1.934069992      2.415486810      3.191958414
H       4.596316221      4.324302035      3.421130280
H       4.307083000      2.579005055      2.603007325
           6
  t=       136.00000    1    1
C       2.517797971      3.250164081      3.445440228
C       4.087624025      3.323221296      3.135075563
H       2.127078848      4.129548256      3.868982963
H       1.982407545      2.367338831      3.217865441
H       4.602155500      4.285290589      3.503294181
H       4.264449420      2.575902974      2.682724183
           6
  t=       136.50000    1    1
C       2.533540121      3.269352059      3.458593326
C       4.096912419      3.344054535      3.137434280
H       2.158226312      4.123319756      3.863105793
H       2.027740065      2.317255280      3.243383249
H       4.607716192      4.241071375      3.582673955
H       4.232761882      2.548164324      2.747478974
           6
  t=       137.00000    1    1
C       2.551618996      3.288160469      3.471204862
C       4.103577185      3.367020343      3.141541292
H       2.183594742      4.122014097      3.860129282
H       2.071291861      2.269260624      3.268752238
H       4.614270219      4.193583973      3.658486935
H       4.211059410      2.495793936      2.798669687
           6
  t=       137.50000    1    1
C       2.572099575      3.306027746      3.483167427
C       4.107707942      3.391208053      3.147015643
H       2.200919363      4.129187183      3.860793876
H       2.114053216      2.226849457      3.294264980
H       4.623061439      4.144507651      3.730620117
H       4.197530485      2.427604679      2.841195485
           6
  t=       138.00000    1    1
C       2.594989025      3.322643250      3.494396688
C       4.109404573      3.415530873      3.153478590
H       2.208659715      4.146497564      3.865501259
H       2.156474399      2.192640396      3.320309448
H       4.635145923      4.095216046      3.799450590
H       4.190933691      2.354597094      2.879407523
           6
  t=       138.50000    1    1
C       2.620106846      3.337988380      3.504844181
C       4.108831617      3.439138379      3.160673570
H       2.206797844      4.173026904      3.874297687
H       2.198728928      2.168500176      3.347315155
H       4.651039605      4.046756348      3.865547633
H       4.190787676      2.285130619      2.915895321
           6
  t=       139.00000    1    1
C       2.647091628      3.352228610      3.514558653
C       4.106269814      3.461499561      3.168471293
H       2.196881236      4.205899876      3.886457419
H       2.240810813      2.155758362      3.375516342
H       4.670532740      3.999652876      3.929143549
H       4.196721941      2.224582292      2.951877802
           6
  t=       139.50000    1    1
C       2.675480980      3.365613082      3.523647545
C       4.102080860      3.482315419      3.176853600
H       2.181343398      4.241476697      3.900846591
H       2.282626744      2.155307326      3.405010427
H       4.692789854      3.953937404      3.989824562
H       4.208431626      2.176261858      2.987741361
           6
  t=       140.00000    1    1
C       2.704791385      3.378387034      3.532251479
C       4.096693384      3.501483927      3.185885884
H       2.162858379      4.276331775      3.916254177
H       2.324000253      2.167532116      3.435695799
H       4.716508525      3.909524022      4.046569819
H       4.225375584      2.141589286      3.023364653
           6
  t=       140.50000    1    1
C       2.734578276      3.390756761      3.540524077
C       4.090548937      3.518998012      3.195676103
H       2.143843301      4.307671304      3.931579219
H       2.364680364      2.192443372      3.467276057
H       4.740277459      3.866546954      4.098032666
H       4.246834907      2.120839676      3.058374801
           6
  t=       141.00000    1    1
C       2.764423500      3.402885754      3.548629443
C       4.084111269      3.534913406      3.206319488
H       2.126285454      4.333529321      3.945932556
H       2.404358083      2.229490914      3.499288109
H       4.762784778      3.825413844      4.142911021
H       4.271899847      2.113509310      3.092335975
           6
  t=       141.50000    1    1
C       2.793917974      3.414913787      3.556734676
C       4.077867244      3.549291004      3.217877292
H       2.111724363      4.352679764      3.958643578
H       2.442650853      2.277521247      3.531215249
H       4.782936602      3.786756170      4.180123863
H       4.299580513      2.118955190      3.124795574
           6
  t=       142.00000    1    1
C       2.822653399      3.426981691      3.565005791
C       4.072321794      3.562179819      3.230367128
H       2.101333104      4.364469098      3.969243647
H       2.479064690      2.334686407      3.562525251
H       4.799923223      3.751329913      4.208885586
H       4.328856084      2.136660690      3.155351982
           6
  t=       142.50000    1    1
C       2.850207089      3.439261055      3.573600911
C       4.068002902      3.573605864      3.243768228
H       2.095981842      4.368672828      3.977456314
H       2.512905614      2.398343936      3.592739444
H       4.813241477      3.719930224      4.228674454
H       4.358798833      2.166343064      3.183645394
           6
  t=       143.00000    1    1
C       2.876152807      3.451981698      3.582667461
C       4.065459727      3.583617372      3.258007401
H       2.096282337      4.365452326      3.983183198
H       2.543057578      2.464663357      3.621506041
H       4.822705990      3.693230433      4.239291491
H       4.388633726      2.207684896      3.209440400
           6
  t=       143.50000    1    1
C       2.900048379      3.465463388      3.592342595
C       4.065300985      3.592281395      3.272972346
H       2.102697943      4.355203887      3.986429767
H       2.567653512      2.528324127      3.648735804
H       4.828381872      3.671932934      4.240793652
H       4.417714918      2.260298833      3.232467677
           6
  t=       144.00000    1    1
C       2.921472695      3.480097158      3.602742333
C       4.068145429      3.599671547      3.288524536
H       2.115558581      4.338601370      3.987322942
H       2.584303443      2.582869341      3.674544056
H       4.830620875      3.656986232      4.233603084
H       4.445395651      2.323482845      3.252331039
           6
  t=       144.50000    1    1
C       2.940098362      3.496233315      3.613930796
C       4.074476518      3.605848692      3.304526937
H       2.134942342      4.316711487      3.986184143
H       2.591018636      2.622359050      3.699074403
H       4.830129577      3.649481519      4.218553194
H       4.471020376      2.396119573      3.268600827
           6
  t=       145.00000    1    1
C       2.955691533      3.513997975      3.625919118
C       4.084577403      3.610891506      3.320846365
H       2.160565834      4.291016443      3.983546115
H       2.586990578      2.643499873      3.722340178
H       4.827971310      3.650373043      4.196859455
H       4.494030163      2.476625724      3.280969824
           6
  t=       145.50000    1    1
C       2.968104065      3.533149392      3.638683037
C       4.098496274      3.614944217      3.337339057
H       2.191574653      4.263483850      3.980159942
H       2.573109624      2.647114499      3.744065005
H       4.825673510      3.660630036      4.170451226
H       4.514052631      2.562403745      3.289036085
           6
  t=       146.00000    1    1
C       2.977337119      3.553119438      3.652154021
C       4.115997239      3.618259593      3.353849631
H       2.226176903      4.236782329      3.977087261
H       2.551698739      2.637342843      3.763670397
H       4.825388297      3.681189902      4.142034213
H       4.531201572      2.649465432      3.292278837
           6
  t=       146.50000    1    1
C       2.983658769      3.573197007      3.666183845
C       4.136484652      3.621249474      3.370240240
H       2.261364978      4.214399974      3.975848394
H       2.525555648      2.619426481      3.780454867
H       4.829924397      3.712971804      4.114876383
H       4.546781378      2.731727914      3.290020021
           6
  t=       147.00000    1    1
C       2.987553346      3.592686981      3.680560139
C       4.159065671      3.624521503      3.386415988
H       2.293166407      4.200353928      3.978415684
H       2.497098974      2.598066022      3.793748594
H       4.842479357      3.757072243      4.092399643
H       4.564016029      2.800419243      3.281196503
           6
  t=       147.50000    1    1
C       2.989655958      3.610986145      3.695037930
C       4.182710840      3.628762881      3.402400889
H       2.317359549      4.198438375      3.986828292
H       2.468177562      2.577079950      3.803137993
H       4.865629513      3.814605059      4.077279079
H       4.587400946      2.845812179      3.264140484
           6
  t=       148.00000    1    1
C       2.990594369      3.627627723      3.709402052
C       4.206609155      3.634415068      3.418370100
H       2.330598145      4.211598185      4.002688539
H       2.440133798      2.559312843      3.808484726
H       4.900025468      3.886075023      4.070208348
H       4.620472773      2.861914138      3.237171051
           6
  t=       148.50000    1    1
C       2.990829885      3.642330314      3.723515314
C       4.230415515      3.641407839      3.434560762
H       2.331697229      4.241218184      4.026738805
H       2.414260625      2.546882922      3.809766016
H       4.943876415      3.970654712      4.069504599
H       4.663529702      2.850239401      3.200060492
           6
  t=       149.00000    1    1
C       2.990562876      3.655078539      3.737352436
C       4.254227765      3.649259129      3.451138740
H       2.322421595      4.286135560      4.058373529
H       2.391825938      2.541258666      3.807087255
H       4.993720609      4.065969731      4.071962136
H       4.713447367      2.818784029      3.154839501
           6
  t=       149.50000    1    1
C       2.989795058      3.666117671      3.750999339
C       4.278324853      3.657423935      3.468161684
H       2.306860722      4.342540494      4.095703491
H       2.373706067      2.543434134      3.800654891
H       5.045568837      4.168818225      4.074190012
H       4.765904858      2.777137137      3.104871055
           6
  t=       150.00000    1    1
C       2.988481973      3.675802912      3.764589486
C       4.302953557      3.665520527      3.485606403
H       2.289553288      4.405589512      4.136297163
H       2.360444380      2.554104451      3.790811432
H       5.095634712      4.275458452      4.073343256
H       4.817195738      2.733504932      3.053775191
           6
  t=       150.50000    1    1
C       2.986595113      3.684475015      3.778243102
C       4.328223994      3.673379880      3.503414176
H       2.274393936      4.470773331      4.177929269
H       2.352405232      2.573766804      3.777935770
H       5.141006957      4.382309845      4.067520338
H       4.864999861      2.693433802      3.004566939
           6
  t=       151.00000    1    1
C       2.984194989      3.692419754      3.792028549
C       4.354088201      3.680991264      3.521519921
H       2.264082645      4.534484272      4.218890911
H       2.349753297      2.602669653      3.762525536
H       5.179755784      4.486240301      4.055768069
H       4.908232843      2.660137741      2.959371676
           6
  t=       151.50000    1    1
C       2.981404686      3.699865924      3.805975048
C       4.380437745      3.688402724      3.539860669
H       2.260271804      4.594155076      4.257951999
H       2.352366534      2.640590630      3.745060932
H       5.210775534      4.584688160      4.037697437
H       4.946295410      2.635669318      2.919730435
           6
  t=       152.00000    1    1
C       2.978371075      3.707023271      3.820094452
C       4.407177010      3.695678494      3.558356684
H       2.263879522      4.647959537      4.294216312
H       2.359742208      2.686690168      3.725992735
H       5.233516756      4.675579061      4.013338297
H       4.978710905      2.621503972      2.886867678
           6
  t=       152.50000    1    1
C       2.975233574      3.714106180      3.834393315
C       4.434266690      3.702901138      3.576901786
H       2.275220138      4.694558684      4.327163000
H       2.370912404      2.739564738      3.705677316
H       5.247747818      4.757148738      3.982965055
H       5.005171614      2.618610150      2.861860596
           6
  t=       153.00000    1    1
C       2.972104340      3.721337214      3.848879752
C       4.461744036      3.710209606      3.595328697
H       2.293992409      4.733015496      4.356704058
H       2.384361100      2.797201991      3.684400395
H       5.253560101      4.827590693      3.947132484
H       5.025623155      2.627436029      2.845853225
           6
  t=       153.50000    1    1
C       2.969240043      3.729004782      3.863548152
C       4.489472404      3.717784225      3.613450654
H       2.319626043      4.762566522      4.382764225
H       2.398294986      2.856781923      3.662620164
H       5.251461587      4.885266949      3.907066924
H       5.040490930      2.647617757      2.839528582
           6
  t=       154.00000    1    1
C       2.967028731      3.737455682      3.878391813
C       4.517191190      3.725768462      3.631103704
H       2.351516925      4.782690521      4.405398324
H       2.410604761      2.914776892      3.640483710
H       5.242090912      4.929188810      3.864248925
H       5.050331144      2.678351081      2.843237640
           6
  t=       154.50000    1    1
C       2.965979255      3.747061842      3.893409987
C       4.544538586      3.734231985      3.648189762
H       2.389143216      4.793067854      4.424679515
H       2.419002030      2.967397717      3.617675088
H       5.226007160      4.958996672      3.820061184
H       5.055642837      2.718842468      2.857018184
           6
  t=       155.00000    1    1
C       2.966634522      3.758138597      3.908609930
C       4.571118340      3.743195810      3.664674095
H       2.431972550      4.793577497      4.440694480
H       2.421353003      3.011411734      3.593512365
H       5.203693401      4.974664344      3.775609364
H       5.056861595      2.768463995      2.880687180
           6
  t=       155.50000    1    1
C       2.969439445      3.770840455      3.923998297
C       4.596567105      3.752650708      3.680579197
H       2.479339979      4.784424012      4.453531921
H       2.416336736      3.045133813      3.567279532
H       5.175724615      4.976486759      3.731671704
H       5.054426433      2.826670172      2.913746383
           6
  t=       156.00000    1    1
C       2.974651048      3.785098403      3.939579761
C       4.620603051      3.762582901      3.695981572
H       2.530426381      4.766276471      4.463177739
H       2.403952982      3.068921223      3.538531419
H       5.142795728      4.965036721      3.688696046
H       5.048757354      2.892848379      2.955239931
           6
  t=       156.50000    1    1
C       2.982312960      3.800584072      3.955237546
C       4.642989910      3.773056257      3.710959277
H       2.583954639      4.740621983      4.470185994
H       2.385756662      3.085192043      3.508052644
H       5.106018126      4.941412053      3.647350690
H       5.040760602      2.965147304      3.003622233
           6
  t=       157.00000    1    1
C       2.992367333      3.816801889      3.970740784
C       4.663464579      3.784216916      3.725649808
H       2.638349369      4.709835228      4.475679486
H       2.364214990      3.097311349      3.477574608
H       5.066801769      4.907209609      3.608361794
H       5.031958726      3.040394076      3.056425488
           6
  t=       157.50000    1    1
C       3.004739984      3.833151335      3.985760887
C       4.681710376      3.796282744      3.740301457
H       2.691662277      4.677617879      4.481641136
H       2.341942836      3.108477066      3.449214903
H       5.026873444      4.865001747      3.572433636
H       5.024615798      3.113676297      3.109801710
           6
  t=       158.00000    1    1
C       3.019406041      3.848975849      3.999915538
C       4.697326919      3.809551974      3.755348255
H       2.741506435      4.649193431      4.491040974
H       2.321151819      3.121100136      3.424850085
H       4.988147774      4.818634098      3.540036812
H       5.022059681      3.177783610      3.157817497
           6
  t=       158.50000    1    1
C       3.036349194      3.863639878      4.012811163
C       4.709919161      3.824248947      3.771360563
H       2.785499877      4.630408569      4.507400814
H       2.303590192      3.136871871      3.405958067
H       4.952464675      4.773297487      3.510978374
H       5.027985782      3.224887105      3.193559538
           6
  t=       159.00000    1    1
C       3.055511723      3.876687541      4.024140413
C       4.719195645      3.840271903      3.788805838
H       2.822008297      4.625666851      4.533646168
H       2.290572553      3.156804680      3.393625472
H       4.921709270      4.735697967      3.484187790
H       5.044989345      3.249509372      3.212178431
           6
  t=       159.50000    1    1
C       3.076751325      3.887975141      4.033790766
C       4.725098998      3.857068623      3.807818691
H       2.850618895      4.636266215      4.570886072
H       2.283037922      3.181302870      3.388539675
H       4.897537625      4.713158788      3.457759939
H       5.073267363      3.250917252      3.213519692
           6
  t=       160.00000    1    1
C       3.099875331      3.897666996      4.041861083
C       4.727807509      3.873839601      3.828155734
H       2.872009923      4.660191010      4.618021803
H       2.281709567      3.210427298      3.391149507
H       4.880983956      4.711154542      3.429546973
H       5.110555458      3.233159651      3.202103196
           6
  t=       160.50000    1    1
C       3.124641357      3.906135264      4.048616176
C       4.727714165      3.889929620      3.849318892
H       2.887577544      4.693212852      4.672131106
H       2.287219454      3.244060555      3.401715706
H       4.871986575      4.730876748      3.398416461
H       5.153092647      3.202763673      3.184502345
           6
  t=       161.00000    1    1
C       3.150753181      3.913870246      4.054443838
C       4.725350603      3.905115758      3.870663886
H       2.899129634      4.730176784      4.729185718
H       2.299885402      3.281695322      3.420119068
H       4.869487623      4.768296892      3.365571009
H       5.197005950      3.166234111      3.166718247
           6
  t=       161.50000    1    1
C       3.177898347      3.921315611      4.059740101
C       4.721260217      3.919519427      3.891597912
H       2.908383049      4.766775450      4.785330842
H       2.319654238      3.322519047      3.445884404
H       4.872074498      4.816966847      3.333831777
H       5.239292529      3.128405652      3.152604380
           6
  t=       162.00000    1    1
C       3.205807153      3.928807760      4.064847941
C       4.715907250      3.933346087      3.911645488
H       2.916677805      4.800145751      4.837604043
H       2.346204346      3.365511419      3.478276040
H       4.878588032      4.870856720      3.306196400
H       5.277775055      3.092734999      3.144440110
           6
  t=       162.50000    1    1
C       3.234275726      3.936611666      4.070059751
C       4.709671381      3.946764294      3.930471627
H       2.925051393      4.828537054      4.883930745
H       2.378801344      3.409381285      3.516247555
H       4.888119848      4.925591162      3.285036493
H       5.310963955      3.061473481      3.143482372
           6
  t=       163.00000    1    1
C       3.263161851      3.944953991      4.075631279
C       4.702876116      3.959907447      3.947875274
H       2.934333705      4.850919633      4.922935473
H       2.416122558      3.452587829      3.558419683
H       4.899870534      4.978173293      3.271969941
H       5.337991203      3.035898138      3.150216307
           6
  t=       163.50000    1    1
C       3.292375341      3.954037457      4.081797476
C       4.695812086      3.972878031      3.963738119
H       2.945171466      4.866715334      4.953737680
H       2.456240194      3.493401616      3.603170420
H       4.913232937      5.026421021      3.268009974
H       5.358356606      3.016861928      3.164741379
           6
  t=       164.00000    1    1
C       3.321861934      3.964043510      4.088780023
C       4.688763665      3.985749073      3.978010057
H       2.958049004      4.875748022      4.975838927
H       2.496512711      3.529866729      3.648683598
H       4.927835818      5.068933832      3.273641560
H       5.371846664      3.004865164      3.186842803
           6
  t=       164.50000    1    1
C       3.351563439      3.975120940      4.096780094
C       4.682043379      3.998567185      3.990686481
H       2.973286443      4.878274934      4.989105854
H       2.533771154      3.559926394      3.693096030
H       4.943473635      5.104963566      3.288953038
H       5.378485212      3.000127242      3.216086518
           6
  t=       165.00000    1    1
C       3.381351680      3.987379796      4.105970255
C       4.676024083      4.011353587      4.001765412
H       2.991067111      4.874849585      4.993644657
H       2.564959249      3.581697754      3.734792805
H       4.960016414      5.134080372      3.313855205
H       5.378359618      3.002843152      3.252037820
           6
  t=       165.50000    1    1
C       3.410942008      4.000861609      4.116467330
C       4.671159477      4.024112090      4.011232112
H       3.011443451      4.866303643      4.989790875
H       2.588005809      3.593847132      3.772772719
H       4.977373257      5.156006161      3.348184645
H       5.371565176      3.013252741      3.294309343
           6
  t=       166.00000    1    1
C       3.439832346      4.015520461      4.128321141
C       4.667990525      4.036837163      4.019050700
H       3.034350528      4.853687844      4.978056507
H       2.602494064      3.595870873      3.806851692
H       4.995471380      5.170513365      3.391779779
H       5.358193007      3.031649521      3.342568651
           6
  t=       166.50000    1    1
C       3.467312320      4.031228246      4.141523529
C       4.667125421      4.049518492      4.025170285
H       3.059614294      4.838182327      4.959054312
H       2.609761387      3.588165732      3.837602089
H       5.014223453      5.177382148      3.444496310
H       5.338384661      3.058325835      3.396478518
           6
  t=       167.00000    1    1
C       3.492545869      4.047794412      4.156023152
C       4.669191207      4.062146039      4.029548564
H       3.086925772      4.821096243      4.933514954
H       2.612392569      3.571855134      3.866084498
H       5.033517749      5.176429051      3.506151050
H       5.312466672      3.093422701      3.455546740
           6
  t=       167.50000    1    1
C       3.514751188      4.064963427      4.171706315
C       4.674700839      4.074716240      4.032216444
H       3.115712044      4.804115187      4.902567669
H       2.613491738      3.548579696      3.893553028
H       5.053269331      5.167788062      3.576283210
H       5.281196275      3.136567239      3.518837222
           6
  t=       168.00000    1    1
C       3.533364662      4.082418362      4.188396717
C       4.683955807      4.087240670      4.033289084
H       3.144966884      4.789573389      4.868088817
H       2.615877006      3.520111590      3.921060426
H       5.073537002      5.152084042      3.654061618
H       5.245826158      3.186666686      3.584980591
           6
  t=       168.50000    1    1
C       3.548140673      4.099768336      4.205846618
C       4.696958730      4.099783283      4.032967069
H       3.172943882      4.780860476      4.833049947
H       2.621773766      3.488110150      3.949278503
H       5.094659122      5.130604012      3.738329842
H       5.208434508      3.241280604      3.652051788
           6
  t=       169.00000    1    1
C       3.559185819      4.116539907      4.223726278
C       4.713325150      4.112539536      4.031563553
H       3.196974660      4.782635277      4.801477644
H       2.632832230      3.454085859      3.978575920
H       5.117368687      5.105478424      3.827725194
H       5.172617367      3.295421605      3.717215914
           6
  t=       169.50000    1    1
C       3.566915505      4.132218775      4.241648745
C       4.732296011      4.125894355      4.029503234
H       3.213976645      4.800067355      4.777588174
H       2.650155136      3.419468875      4.009183678
H       5.142775819      5.079650290      3.920840512
H       5.143339274      3.341088554      3.776983058
           6
  t=       170.00000    1    1
C       3.571860173      4.146402314      4.259304871
C       4.752891770      4.140401785      4.027228293
H       3.221742305      4.836901047      4.763961387
H       2.674387790      3.385618749      4.041329200
H       5.172260791      5.056773588      4.016618382
H       5.126133520      3.367719323      3.828018193
           6
  t=       170.50000    1    1
C       3.574454777      4.159005504      4.276611834
C       4.774197316      4.156500309      4.025029283
H       3.219981346      4.893290288      4.760114912
H       2.705820947      3.353801091      4.075240226
H       5.207309570      5.040235516      4.114602918
H       5.125235105      3.366295405      3.868556614
           6
  t=       171.00000    1    1
C       3.574992892      4.170303759      4.293700953
C       4.795667330      4.174091966      4.022941009
H       3.210223412      4.965446929      4.763018562
H       2.744533813      3.325090950      4.111039917
H       5.249030243      5.031997260      4.214924545
H       5.140926752      3.335454260      3.899395418
           6
  t=       171.50000    1    1
C       3.573812889      4.180809806      4.310764184
C       4.817140423      4.192498790      4.020888838
H       3.195076745      5.046753154      4.768809904
H       2.789958894      3.300275221      4.148603269
H       5.297343260      5.031526260      4.317523053
H       5.169138420      3.283528291      3.923184251
           6
  t=       172.00000    1    1
C       3.571201423      4.191016884      4.327956329
C       4.838703791      4.210991618      4.018889661
H       3.176886956      5.130788854      4.774319791
H       2.841228464      3.279945465      4.187716465
H       5.351109524      5.036328015      4.421629585
H       5.205076645      3.221651742      3.942029123
           6
  t=       172.50000    1    1
C       3.567549477      4.201327112      4.345361633
C       4.860446409      4.229099069      4.017112480
H       3.157285771      5.212409077      4.777466778
H       2.897019172      3.264414605      4.228005090
H       5.408102727      5.043118396      4.525519670
H       5.244940319      3.158766064      3.957092743
           6
  t=       173.00000    1    1
C       3.563355861      4.211988519      4.362948315
C       4.882383920      4.246610786      4.015847306
H       3.137518876      5.287916780      4.777685783
H       2.955594913      3.253880200      4.268771482
H       5.465516714      5.048459580      4.626169000
H       5.285895971      3.101359691      3.969585184
           6
  t=       173.50000    1    1
C       3.559025459      4.223137533      4.380605743
C       4.904529745      4.263480438      4.015417372
H       3.118595219      5.354812934      4.775211573
H       3.015121513      3.248234338      4.309499679
H       5.521099259      5.049722210      4.720304882
H       5.326036658      3.053595358      3.980527067
           6
  t=       174.00000    1    1
C       3.554909602      4.234930662      4.398242629
C       4.926835468      4.279672167      4.016074972
H       3.101111455      5.411350776      4.769960568
H       3.073861232      3.246740769      4.350153716
H       5.573476095      5.045569543      4.805888821
H       5.364268308      3.017855166      3.990157904
           6
  t=       174.50000    1    1
C       3.551336656      4.247525017      4.415792012
C       4.949208817      4.295156902      4.018019371
H       3.085570643      5.456214787      4.761778648
H       3.130230712      3.248340848      4.390730561
H       5.621659564      5.035443594      4.881495899
H       5.399845638      2.995545624      3.998483282
           6
  t=       175.00000    1    1
C       3.548589702      4.261067992      4.433192648
C       4.971544135      4.309920867      4.021409516
H       3.072466347      5.488325554      4.750591393
H       3.182909328      3.251897533      4.431252768
H       5.664900053      5.019290450      4.946072847
H       5.432231225      2.987344915      4.005444140
           6
  t=       175.50000    1    1
C       3.546892048      4.275638519      4.450377996
C       4.993729963      4.323986102      4.026334820
H       3.062106672      5.507276458      4.736591939
H       3.230986092      3.256445510      4.471778541
H       5.702771617      4.997594182      4.999140200
H       5.461121116      2.992937777      4.010996103
           6
  t=       176.00000    1    1
C       3.546430626      4.291281191      4.467275652
C       5.015654546      4.337359186      4.032874956
H       3.054702535      5.512811942      4.720102948
H       3.273898232      3.261438423      4.512350474
H       5.734957365      4.971065565      5.040342791
H       5.486288281      3.011805573      4.015042401
           6
  t=       176.50000    1    1
C       3.547348518      4.307981135      4.483813565
C       5.037224670      4.350033442      4.041086018
H       3.050342884      5.505012986      4.701582739
H       3.311332232      3.266745045      4.552968652
H       5.761298519      4.940578167      5.069502759
H       5.507521859      3.043381798      4.017492681
           6
  t=       177.00000    1    1
C       3.549760451      4.325646321      4.499922922
C       5.058364389      4.362000672      4.050999410
H       3.048930465      5.484479892      4.681616752
H       3.343108591      3.272587495      4.593546378
H       5.781828511      4.907126469      5.086614873
H       5.524603068      3.087043811      4.018299176
           6
  t=       177.50000    1    1
C       3.553762895      4.344110609      4.515542793
C       5.079008806      4.373260471      4.062626654
H       3.050147945      5.452380659      4.660849303
H       3.369115069      3.279451788      4.633901155
H       5.796781733      4.871741927      5.091810740
H       5.537350867      3.142090629      4.017457178
           6
  t=       178.00000    1    1
C       3.559429368      4.363145693      4.530631722
C       5.099106108      4.383835630      4.075947471
H       3.053461521      5.410444344      4.639898056
H       3.389338760      3.287992013      4.673789094
H       5.806516316      4.835387080      5.085402551
H       5.545695226      3.207625446      4.015016328
           6
  t=       178.50000    1    1
C       3.566842437      4.382433771      4.545155123
C       5.118578189      4.393802707      4.090920721
H       3.057954949      5.361293607      4.619377349
H       3.403889281      3.299010195      4.712895559
H       5.811640517      4.799184084      5.068023051
H       5.549781332      3.281975985      4.010946523
           6
  t=       179.00000    1    1
C       3.576118861      4.401558843      4.559086936
C       5.137295442      4.403321696      4.107469898
H       3.062018412      5.308818067      4.599864250
H       3.413054672      3.313271308      4.750881818
H       5.813082167      4.764435544      5.040842279
H       5.550156238      3.362235539      4.005061526
           6
  t=       179.50000    1    1
C       3.587486708      4.419992669      4.572412474
C       5.155044137      4.412639724      4.125507161
H       3.062894985      5.258503245      4.581791602
H       3.417155963      3.331376756      4.787391644
H       5.812023430      4.732606647      5.005488549
H       5.547902836      3.444201640      3.996878093
           6
  t=       180.00000    1    1
C       3.601251853      4.437151234      4.585159048
C       5.171500037      4.422134236      4.144890969
H       3.056752968      5.216881182      4.565228216
H       3.416521319      3.353577580      4.822061639
H       5.810276387      4.705447751      4.964549927
H       5.544931373      3.521802285      3.985463881
           6
  t=       180.50000    1    1
C       3.617713024      4.452562756      4.597405309
C       5.186214699      4.432287600      4.165415826
H       3.039663523      5.189440897      4.549762559
H       3.411406086      3.379810485      4.854554712
H       5.810672536      4.685063843      4.921908918
H       5.543867773      3.587380599      3.969196440
           6
  t=       181.00000    1    1
C       3.636956261      4.466088092      4.609263061
C       5.198649785      4.443527258      4.186784667
H       3.009717407      5.178053721      4.534742502
H       3.402141441      3.409731217      4.884565495
H       5.817551163      4.674102561      4.883150552
H       5.547340282      3.633326629      3.945655759
           6
  t=       181.50000    1    1
C       3.658685057      4.477995251      4.620834882
C       5.208346206      4.455992774      4.208631100
H       2.968707536      5.180250173      4.519768941
H       3.389382693      3.442685347      4.911882846
H       5.836052433      4.675158904      4.854380568
H       5.556763934      3.655312737      3.912489857
           6
  t=       182.00000    1    1
C       3.682339786      4.488761261      4.632181661
C       5.215098327      4.469381526      4.230567151
H       2.921220108      5.191491312      4.504987460
H       3.374035872      3.477778005      4.936350753
H       5.870550354      4.689973180      4.839991849
H       5.571391111      3.654954296      3.869213731
           6
  t=       182.50000    1    1
C       3.707280839      4.498885909      4.643322677
C       5.219129896      4.483114171      4.252305732
H       2.872792562      5.207259453      4.491011911
H       3.357083022      3.513928038      4.957906336
H       5.921987657      4.718477219      4.840242946
H       5.588714821      3.638866239      3.818208958
           6
  t=       183.00000    1    1
C       3.732918437      4.508792967      4.654257952
C       5.221121205      4.496654388      4.273783021
H       2.828201978      5.224162457      4.478614200
H       3.339417406      3.549946500      4.976571955
H       5.986474989      4.758600447      4.850919406
H       5.605875590      3.615041358      3.763655981
           6
  t=       183.50000    1    1
C       3.758819877      4.518776070      4.664974273
C       5.221840214      4.509678242      4.295051402
H       2.790867139      5.240168122      4.468445377
H       3.321729060      3.584765216      4.992448670
H       6.058111483      4.807695751      4.866916810
H       5.620670652      3.589588165      3.709440335
           6
  t=       184.00000    1    1
C       3.784669231      4.529017276      4.675461539
C       5.221981186      4.522057054      4.316195889
H       2.763090586      5.254252760      4.461015232
H       3.304570439      3.617544710      5.005578850
H       6.130831255      4.863000273      4.883662085
H       5.631802746      3.566496640      3.658690292
           6
  t=       184.50000    1    1
C       3.810242478      4.539608162      4.685719914
C       5.222066633      4.533786718      4.337275930
H       2.746170124      5.266127565      4.456691573
H       3.288451660      3.647759407      5.015925009
H       6.199706347      4.921932083      4.897803939
H       5.638835210      3.548120820      3.613716529
           6
  t=       185.00000    1    1
C       3.835385288      4.550579982      4.695755971
C       5.222441116      4.544909270      4.358308196
H       2.740785135      5.275896802      4.455716020
H       3.273893850      3.675183695      5.023417238
H       6.261293487      4.982480350      4.907388745
H       5.641744075      3.535719592      3.576023967
           6
  t=       185.50000    1    1
C       3.859949556      4.561928530      4.705591435
C       5.223344385      4.555474972      4.379274450
H       2.747283582      5.283886291      4.458267874
H       3.261505294      3.699799968      5.027874941
H       6.313356191      5.043156794      4.911361659
H       5.640717551      3.529924222      3.546627192
           6
  t=       186.00000    1    1
C       3.883780929      4.573629163      4.715261460
C       5.224943900      4.565544860      4.400137896
H       2.765631322      5.290532637      4.464506146
H       3.251911409      3.721753417      5.029034902
H       6.354730376      5.102886043      4.909298927
H       5.636172294      3.530794644      3.526073736
           6
  t=       186.50000    1    1
C       3.906714178      4.585653228      4.724804504
C       5.227379769      4.575178820      4.420847964
H       2.795636790      5.296256915      4.474606510
H       3.245707238      3.741254579      5.026625932
H       6.384829393      5.160822673      4.901108349
H       5.628590788      3.538172497      3.514695634
           6
  t=       187.00000    1    1
C       3.928565930      4.597974730      4.734262702
C       5.230796815      4.584430070      4.441332358
H       2.837017538      5.301447656      4.488758749
H       3.243424660      3.758511893      5.020424193
H       6.403397116      5.216278493      4.886944023
H       5.618439096      3.551824633      3.512732228
           6
  t=       187.50000    1    1
C       3.949142209      4.610575187      4.743680208
C       5.235352520      4.593340347      4.461495934
H       2.889395754      5.306486830      4.507132367
H       3.245525527      3.773676746      5.010315075
H       6.410360442      5.268669277      4.867161732
H       5.606141106      3.571524831      3.520380421
           6
  t=       188.00000    1    1
C       3.968259587      4.623443602      4.753100374
C       5.241212421      4.601937451      4.481227858
H       2.952197419      5.311836519      4.529865535
H       3.252374821      3.786793813      4.996290329
H       6.405741709      5.317480301      4.842240653
H       5.592096702      3.597080811      3.537835203
           6
  t=       188.50000    1    1
C       3.985779338      4.636565060      4.762563793
C       5.248539312      4.610236456      4.500411401
H       3.024454414      5.318172198      4.556996791
H       3.264184123      3.797795914      4.978484884
H       6.389616517      5.362222599      4.812734732
H       5.576700068      3.628371369      3.565276390
           6
  t=       189.00000    1    1
C       4.001646663      4.649892852      4.772108056
C       5.257479285      4.618247725      4.518938026
H       3.104555652      5.326608041      4.588412814
H       3.280991098      3.806554765      4.957146594
H       6.362081500      5.402412385      4.779216708
H       5.560340146      3.665327496      3.602842068
           6
  t=       189.50000    1    1
C       4.015914914      4.663313940      4.781769110
C       5.268146414      4.625994779      4.536721559
H       3.190081093      5.338945964      4.623858079
H       3.302717190      3.812980900      4.932549439
H       6.323232158      5.437548362      4.742239474
H       5.543425042      3.707804670      3.650559362
           6
  t=       190.00000    1    1
C       4.028779550      4.676623299      4.791580210
C       5.280574861      4.633530025      4.553713629
H       3.277661202      5.357789542      4.662986573
H       3.329142897      3.817179383      4.904933378
H       6.273423050      5.467256965      4.702411641
H       5.526453156      3.755286389      3.708105859
           6
  t=       190.50000    1    1
C       4.040545574      4.689518765      4.801573891
C       5.294730769      4.640940689      4.569895217
H       3.363082322      5.386633254      4.705462848
H       3.359887192      3.819487471      4.874543731
H       6.213332685      5.491351137      4.660474663
H       5.510109771      3.806689074      3.774669164
           6
  t=       191.00000    1    1
C       4.051603381      4.701658123      4.811761868
C       5.310438834      4.648376130      4.585327659
H       3.442111744      5.429194776      4.751049318
H       3.394132748      3.820393729      4.841791903
H       6.144360818      5.510077316      4.617334996
H       5.495482206      3.859858085      3.848298563
           6
  t=       191.50000    1    1
C       4.062263641      4.712787357      4.822118525
C       5.327391796      4.656063164      4.600197023
H       3.512051046      5.488160366      4.799927795
H       3.430875075      3.820381224      4.807097761
H       6.068607765      5.524308646      4.573836543
H       5.484132434      3.911075049      3.925636562
           6
  t=       192.00000    1    1
C       4.072627009      4.722930922      4.832590743
C       5.345147171      4.664352636      4.614875287
H       3.572986654      5.562876029      4.852558103
H       3.469093428      3.819982648      4.770936550
H       5.989003644      5.535860447      4.530678178
H       5.478137777      3.954173991      4.001249833
           6
  t=       192.50000    1    1
C       4.082642643      4.732441835      4.843136687
C       5.363158299      4.673706368      4.629884810
H       3.627275512      5.648671487      4.909205538
H       3.507841952      3.819808910      4.733800097
H       5.908904027      5.547574482      4.488236795
H       5.479851211      3.980663171      4.068278540
           6
  t=       193.00000    1    1
C       4.092270152      4.741844009      4.853756520
C       5.380873688      4.684551188      4.645734310
H       3.677583188      5.738864019      4.969438094
H       3.546173798      3.820292507      4.696286268
H       5.831590104      5.562965093      4.446442656
H       5.491325503      3.981949734      4.120562942
           6
  t=       193.50000    1    1
C       4.101585794      4.751572207      4.864467343
C       5.397867266      4.696944963      4.662607321
H       3.725382843      5.827357884      5.032148851
H       3.583035072      3.821809944      4.659321989
H       5.759983036      5.585381933      4.404854987
H       5.513388516      3.954533269      4.156333095
           6
  t=       194.00000    1    1
C       4.110705122      4.761854202      4.875283663
C       5.413964894      4.710452919      4.680229612
H       3.771148730      5.909590231      5.095876135
H       3.617483202      3.824911678      4.624134970
H       5.696221824      5.616838391      4.363056130
H       5.545067636      3.902879308      4.179335402
           6
  t=       194.50000    1    1
C       4.119672988      4.772806379      4.886262733
C       5.429281167      4.724422526      4.698096784
H       3.815041945      5.982244019      5.159038225
H       3.648665050      3.830081902      4.591694881
H       5.641006808      5.656542198      4.320846074
H       5.584454672      3.837001532      4.195709970
           6
  t=       195.00000    1    1
C       4.128540446      4.784527956      4.897489395
C       5.444023612      4.738376802      4.715763313
H       3.857012286      6.042884474      5.220268804
H       3.675582098      3.837720797      4.562486686
H       5.593836279      5.701149743      4.278517476
H       5.630018855      3.766779417      4.210343265
           6
  t=       195.50000    1    1
C       4.137407945      4.797055832      4.909012367
C       5.458354328      4.752129201      4.732909793
H       3.896806703      6.090001779      5.278570271
H       3.697423175      3.848304130      4.536846785
H       5.554050254      5.746815698      4.237056775
H       5.680355972      3.698875522      4.226135489
           6
  t=       196.00000    1    1
C       4.146380056      4.810341448      4.920832820
C       5.472388344      4.765627069      4.749325388
H       3.934175875      6.123191707      5.333257946
H       3.713992255      3.862153316      4.515089342
H       5.521271602      5.790083981      4.197696002
H       5.733671814      3.638034744      4.244723415
           6
  t=       196.50000    1    1
C       4.155527137      4.824319068      4.932929943
C       5.486203468      4.778828214      4.764857201
H       3.968795997      6.142662617      5.383904844
H       3.725556363      3.879518249      4.497621952
H       5.495426031      5.828419352      4.161648372
H       5.788331970      3.587620113      4.266983078
           6
  t=       197.00000    1    1
C       4.164891415      4.838939977      4.945289574
C       5.499843183      4.791722501      4.779407877
H       4.000398169      6.148587879      5.430128337
H       3.732615417      3.900633250      4.484843327
H       5.476602594      5.860200085      4.129930182
H       5.842995065      3.549546900      4.293210889
           6
  t=       197.50000    1    1
C       4.174494345      4.854189698      4.957917939
C       5.513332514      4.804314347      4.792916062
H       4.028830979      6.140672417      5.471332060
H       3.735602852      3.925710534      4.477198020
H       5.465050352      5.884417432      4.103378490
H       5.896576173      3.525026577      4.323378474
           6
  t=       198.00000    1    1
C       4.184334374      4.870046370      4.970816395
C       5.526701456      4.816624201      4.805389555
H       4.054095851      6.119052005      5.506988912
H       3.734898055      3.954710063      4.475001615
H       5.460772228      5.900843590      4.082513124
H       5.948352644      3.514208058      4.357068455
           6
  t=       198.50000    1    1
C       4.194395388      4.886465135      4.983986712
C       5.539983933      4.828674290      4.816854891
H       4.076197589      6.084348122      5.536741808
H       3.730802717      3.987419659      4.478439940
H       5.463746063      5.909596239      4.067669972
H       5.997827947      3.516834004      4.393778902
           6
  t=       199.00000    1    1
C       4.204659546      4.903366784      4.997423537
C       5.553222417      4.840473361      4.827335581
H       4.095092621      6.037817141      5.560515812
H       3.723553962      4.023453651      4.487547127
H       5.473929737      5.910899851      4.059115995
H       6.044557128      3.532648838      4.433067307
           6
  t=       199.50000    1    1
C       4.215115472      4.920637968      5.011113455
C       5.566460320      4.852010922      4.836833682
H       4.110671547      5.981291035      5.578541911
H       3.713310041      4.062255832      4.502246168
H       5.491369877      5.904994436      4.057149871
H       6.088063007      3.561612446      4.474616354
           6
  t=       200.00000    1    1
C       4.225778953      4.938110561      5.025014419
C       5.579744206      4.863258499      4.845342468
H       4.122697982      5.917358489      5.591506810
H       3.700138020      4.103182273      4.522355709
H       5.516066179      5.892214400      4.062062783
H       6.127772227      3.603788299      4.518210661
