           6
  t=         0.00000    2    2
C      -0.642361178      0.000712839      0.002118011
C       0.656560421     -0.001457920     -0.011926109
H      -1.263747963      0.900536542      0.014383698
H      -1.280651851     -0.884878533     -0.009830610
H       1.164273850      0.934781991      0.050218240
H       1.210932463     -0.941561942      0.062098861
           6
  t=         0.50000    2    2
C      -0.644526753      0.000518532      0.002359842
C       0.656536871     -0.001193626     -0.011826697
H      -1.248755384      0.888863269      0.012043597
H      -1.275763915     -0.876285574     -0.010100704
H       1.167441248      0.951126969      0.050297119
H       1.213969176     -0.955660879      0.060564446
           6
  t=         1.00000    2    2
C      -0.648757611      0.000274143      0.002596418
C       0.658433786     -0.001062155     -0.011744512
H      -1.233588830      0.878270160      0.010781487
H      -1.270295966     -0.868367157     -0.011214541
H       1.171849643      0.966752675      0.049582169
H       1.216736523     -0.967266715      0.059857500
           6
  t=         1.50000    2    2
C      -0.654809881     -0.000068085      0.002825908
C       0.662229118     -0.001033870     -0.011676173
H      -1.219367317      0.870346781      0.010572609
H      -1.264908453     -0.862070418     -0.013118547
H       1.176947432      0.980460140      0.048109323
H       1.218922366     -0.975607032      0.059894810
           6
  t=         2.00000    2    2
C      -0.662376279     -0.000554634      0.003044964
C       0.667823380     -0.001075688     -0.011617974
H      -1.207234173      0.866723699      0.011450055
H      -1.260331232     -0.858393461     -0.015816066
H       1.182294385      0.991279046      0.045867065
H       1.220364105     -0.980184278      0.060653875
           6
  t=         2.50000    2    2
C      -0.671120837     -0.001217016      0.003249062
C       0.675049659     -0.001152869     -0.011565847
H      -1.198169468      0.868765485      0.013488911
H      -1.257274177     -0.858240105     -0.019353860
H       1.187574507      0.998492867      0.042812187
H       1.221053286     -0.980781170      0.062155019
           6
  t=         3.00000    1    1
C      -0.680723022     -0.002056919      0.003433063
C       0.683687285     -0.001229181     -0.011516598
H      -1.192768871      0.877196653      0.016785449
H      -1.256300147     -0.862229403     -0.023802282
H       1.192606750      1.001672924      0.038889409
H       1.221139518     -0.977486104      0.064450761
           6
  t=         3.50000    1    1
C      -0.685271812      0.001976807      0.008596125
C       0.697855436      0.003736780     -0.006385120
H      -1.131364636      0.951662771      0.080248116
H      -1.197939946     -0.810988407      0.031110778
H       1.256931215      1.060520900      0.094105442
H       1.280556369     -0.911151663      0.126320215
           6
  t=         4.00000    1    1
C      -0.688509237      0.006993034      0.013758312
C       0.711925448      0.009175178     -0.000975849
H      -1.072488265      1.028306564      0.142854189
H      -1.148174021     -0.772924494      0.086358711
H       1.318037505      1.112126549      0.148208506
H       1.339857124     -0.843912056      0.186524699
           6
  t=         4.50000    1    1
C      -0.689805023      0.014182949      0.018874076
C       0.725856235      0.015372480      0.004836068
H      -1.015515676      1.102350499      0.203867651
H      -1.112999961     -0.757165318      0.143192389
H       1.374070900      1.154720296      0.200148808
H       1.399249453     -0.777699778      0.244654174
           6
  t=         5.00000    1    1
C      -0.688800641      0.024259450      0.023870182
C       0.739659889      0.022519713      0.011164580
H      -0.960520561      1.169792473      0.262422256
H      -1.095093802     -0.768062878      0.203429902
H       1.423510467      1.187220951      0.248851135
H       1.458587802     -0.713850391      0.300346870
           6
  t=         5.50000    1    1
C      -0.685568452      0.037105567      0.028774014
C       0.753385203      0.030725828      0.018097304
H      -0.907823252      1.228100822      0.317802977
H      -1.092135858     -0.801756720      0.267640835
H       1.465246317      1.209111362      0.293362695
H       1.517263532     -0.653079976      0.353330715
           6
  t=         6.00000    1    1
C      -0.680450190      0.052048082      0.033762821
C       0.767090113      0.039999355      0.025716394
H      -0.857755394      1.275751010      0.369428037
H      -1.098808382     -0.848739208      0.334410934
H       1.498657934      1.220447606      0.333005388
H       1.574292730     -0.595507523      0.403188859
           6
  t=         6.50000    1    1
C      -0.673805617      0.068379107      0.039065215
C       0.780860226      0.050280118      0.034103887
H      -0.810633731      1.311859916      0.416884504
H      -1.109981007     -0.899604896      0.401450889
H       1.523439161      1.221622076      0.367338389
H       1.628434637     -0.540895751      0.449362810
           6
  t=         7.00000    1    1
C      -0.665875933      0.085561000      0.044873280
C       0.794751959      0.061466199      0.043349109
H      -0.766605749      1.335891341      0.459904240
H      -1.121982484     -0.947399766      0.466630945
H       1.539589039      1.213507750      0.396115359
H       1.678368275     -0.488914644      0.491143591
           6
  t=         7.50000    1    1
C      -0.656775171      0.103222971      0.051359666
C       0.808806121      0.073474560      0.053530714
H      -0.725858603      1.347506181      0.498251571
H      -1.132513402     -0.987506360      0.528112307
H       1.547194199      1.197371883      0.419058007
H       1.722767287     -0.439702171      0.527889493
           6
  t=         8.00000    1    1
C      -0.646537079      0.121096219      0.058675013
C       0.823057397      0.086245927      0.064715400
H      -0.688731552      1.346956836      0.531747826
H      -1.140077991     -1.017082356      0.584366992
H       1.546308278      1.174686047      0.435814921
H       1.760410317     -0.393915377      0.559068880
           6
  t=         8.50000    1    1
C      -0.635164664      0.138976724      0.066938909
C       0.837552534      0.099741078      0.076945056
H      -0.655788461      1.335172664      0.560340957
H      -1.143807722     -1.034640410      0.634239511
H       1.536953230      1.147177688      0.445978351
H       1.790449617     -0.352800038      0.584372914
           6
  t=         9.00000    1    1
C      -0.622657604      0.156714253      0.076219588
C       0.852294077      0.113914225      0.090212037
H      -0.627605950      1.313391344      0.584097159
H      -1.143331402     -1.039688775      0.677097230
H       1.519491987      1.116782081      0.449392095
H       1.812693465     -0.317685097      0.603802281
           6
  t=         9.50000    1    1
C      -0.609015651      0.174203695      0.086551515
C       0.867237050      0.128701827      0.104478849
H      -0.604732010      1.282754029      0.603098081
H      -1.138553698     -1.032233324      0.712654007
H       1.494632404      1.085509670      0.446131677
H       1.827419673     -0.289706706      0.617522032
           6
  t=        10.00000    1    1
C      -0.594246942      0.191319613      0.097938159
C       0.882259972      0.143986100      0.119674934
H      -0.587514173      1.244623872      0.617588757
H      -1.129449282     -1.012369937      0.740746340
H       1.463620533      1.055811831      0.436640922
H       1.835248829     -0.269685354      0.625806248
           6
  t=        10.50000    1    1
C      -0.578362412      0.207855539      0.110344295
C       0.897143011      0.159558723      0.135685497
H      -0.576019526      1.201236806      0.628216572
H      -1.115958084     -0.980160674      0.761205043
H       1.428324167      1.030995759      0.421878997
H       1.837069938     -0.258159622      0.629005126
           6
  t=        11.00000    1    1
C      -0.561353720      0.223503645      0.123700147
C       0.911578624      0.175073795      0.152336581
H      -0.570325042      1.156118844      0.636207675
H      -1.098030979     -0.935672177      0.773796073
H       1.391369518      1.015728732      0.403376451
H       1.833849823     -0.255466556      0.627500256
           6
  t=        11.50000    1    1
C      -0.543178069      0.237842604      0.137890387
C       0.925188072      0.190051132      0.169408198
H      -0.570780607      1.114208057      0.643543151
H      -1.075701101     -0.879006984      0.778228024
H       1.356189336      1.015966502      0.383059909
H       1.826541722     -0.261655296      0.621670869
           6
  t=        12.00000    1    1
C      -0.523763465      0.250390961      0.152738653
C       0.937610836      0.204015438      0.186701027
H      -0.578052833      1.081395468      0.652863665
H      -1.049195648     -0.810597478      0.774331885
H       1.326178966      1.037272620      0.362596358
H       1.816082067     -0.276347721      0.611854822
           6
  t=        12.50000    1    1
C      -0.503030923      0.260730543      0.168042123
C       0.948640462      0.216741900      0.204102895
H      -0.592927071      1.063523470      0.666826186
H      -1.019115754     -0.731782486      0.762227357
H       1.303300798      1.082092974      0.342610471
H       1.803413862     -0.298831668      0.598404165
           6
  t=        13.00000    1    1
C      -0.480919313      0.268670507      0.183665857
C       0.958278988      0.228463619      0.221602779
H      -0.615894739      1.064269132      0.686898767
H      -0.986386084     -0.644723290      0.742327481
H       1.287257190      1.147677638      0.322553968
H       1.789498114     -0.328376528      0.581725319
           6
  t=        13.50000    1    1
C      -0.457455665      0.274538444      0.199577226
C       0.966727329      0.239807082      0.239213423
H      -0.646438206      1.082917701      0.712082415
H      -0.952653545     -0.553394248      0.716126447
H       1.276231967      1.226452348      0.301622688
H       1.775208303     -0.364087411      0.562364203
           6
  t=        14.00000    1    1
C      -0.432672280      0.279093647      0.215816360
C       0.974235228      0.251453625      0.256926591
H      -0.683139946      1.115717857      0.739415980
H      -0.920561171     -0.463731625      0.686187768
H       1.268521969      1.309899666      0.279497771
H       1.760882164     -0.404925362      0.540657263
           6
  t=        14.50000    1    1
C      -0.406535534      0.283420903      0.232338075
C       0.981069263      0.263895032      0.274719358
H      -0.724084905      1.157499000      0.765381351
H      -0.894544972     -0.383857039      0.656632671
H       1.263297133      1.391066140      0.256398176
H       1.746293585     -0.449430624      0.516593990
           6
  t=        15.00000    1    1
C      -0.378875714      0.288744823      0.248954131
C       0.987499154      0.277353269      0.292564754
H      -0.767377438      1.203418506      0.786905950
H      -0.881199027     -0.323534044      0.632860437
H       1.260518387      1.465621845      0.232858982
H       1.730943944     -0.495904030      0.489876971
           6
  t=        15.50000    1    1
C      -0.349599094      0.296075779      0.265456678
C       0.993868422      0.291840139      0.310444228
H      -0.811281795      1.249851977      0.801737709
H      -0.887025586     -0.290591170      0.619478478
H       1.260260999      1.530629973      0.209748598
H       1.714314366     -0.542135728      0.459980187
           6
  t=        16.00000    1    1
C      -0.319113158      0.305819957      0.281863374
C       1.000587808      0.307324038      0.328297231
H      -0.853637372      1.293884316      0.808463447
H      -0.913779048     -0.286443577      0.617345565
H       1.262603930      1.583754916      0.188137040
H       1.695880907     -0.585923289      0.426899108
           6
  t=        16.50000    1    1
C      -0.288302068      0.317667288      0.298521725
C       1.007967625      0.323759875      0.345992610
H      -0.892093890      1.333319867      0.807107844
H      -0.956540794     -0.305302620      0.622328709
H       1.267777131      1.623528463      0.168536437
H       1.674982473     -0.625159501      0.391651913
           6
  t=        17.00000    1    1
C      -0.258168619      0.330943857      0.315874799
C       1.016194489      0.341009641      0.363421590
H      -0.924969200      1.367190682      0.798483381
H      -1.006866227     -0.338130080      0.628627100
H       1.275716411      1.649654824      0.150939010
H       1.651281852     -0.657944211      0.355251375
           6
  t=        17.50000    1    1
C      -0.229654804      0.345097576      0.334175499
C       1.025509901      0.358885514      0.380503343
H      -0.951185781      1.394787401      0.783285637
H      -1.057277130     -0.377237180      0.632641661
H       1.286198646      1.662367551      0.135465681
H       1.624793282     -0.682673882      0.318429701
           6
  t=        18.00000    1    1
C      -0.203524735      0.359785678      0.353504333
C       1.036212070      0.377213076      0.397157130
H      -0.970110871      1.415455060      0.762203193
H      -1.102813216     -0.417364198      0.632789988
H       1.298953851      1.661984474      0.122301630
H       1.595745221     -0.698108472      0.281898273
           6
  t=        18.50000    1    1
C      -0.180376236      0.374802742      0.373843275
C       1.048591913      0.395847086      0.413300630
H      -0.981401909      1.428925595      0.736052663
H      -1.140337617     -0.455259021      0.628531270
H       1.313757600      1.648851691      0.111602414
H       1.564539675     -0.703399763      0.246421434
           6
  t=        19.00000    1    1
C      -0.160618742      0.390028985      0.395113014
C       1.062841130      0.414662531      0.428850146
H      -0.984950882      1.435339790      0.705687021
H      -1.167888894     -0.489050785      0.620002137
H       1.330496719      1.623543709      0.103582355
H       1.531814825     -0.698217015      0.212737624
           6
  t=        19.50000    1    1
C      -0.144467292      0.405403074      0.417200892
C       1.079014435      0.433545117      0.443732833
H      -0.980827710      1.435046824      0.671899316
H      -1.184428282     -0.517794346      0.607802178
H       1.349262241      1.587125831      0.098473528
H       1.498421189     -0.682827115      0.181432501
           6
  t=        20.00000    1    1
C      -0.131976335      0.420907302      0.440000176
C       1.097037967      0.452367940      0.457895213
H      -0.969150991      1.428421923      0.635365556
H      -1.189622261     -0.541155809      0.592691223
H       1.370398983      1.541395677      0.096357577
H       1.465327898     -0.658013686      0.152897620
           6
  t=        20.50000    1    1
C      -0.123097823      0.436539301      0.463437307
C       1.116732419      0.470963427      0.471315409
H      -0.949970376      1.415741229      0.596474733
H      -1.183393491     -0.558929259      0.575467344
H       1.394466766      1.489016392      0.097109239
H       1.433511514     -0.624896962      0.127208353
           6
  t=        21.00000    1    1
C      -0.117747567      0.452292497      0.487432485
C       1.137837133      0.489080170      0.484017627
H      -0.923333963      1.397210517      0.555762638
H      -1.165615597     -0.570658066      0.556869832
H       1.422332831      1.433766367      0.100083221
H       1.404129253     -0.584843716      0.104397362
           6
  t=        21.50000    1    1
C      -0.115671004      0.468118601      0.511842468
C       1.159925562      0.506367411      0.496092688
H      -0.889751100      1.373453950      0.514240132
H      -1.136186269     -0.575656422      0.537679321
H       1.455224040      1.380230282      0.103935839
H       1.378410590     -0.538993662      0.084641462
           6
  t=        22.00000    1    1
C      -0.116378082      0.483905936      0.536494536
C       1.182384499      0.522370012      0.507732079
H      -0.850440554      1.345802351      0.472984730
H      -1.095011510     -0.573100591      0.518711083
H       1.494744788      1.334292573      0.106443675
H       1.357343385     -0.488631846      0.068047667
           6
  t=        22.50000    1    1
C      -0.119235914      0.499501260      0.561178164
C       1.204523390      0.536653784      0.519203673
H      -0.807492163      1.316510759      0.433297467
H      -1.042220964     -0.562414521      0.500721184
H       1.542838892      1.302209961      0.104736629
H       1.341890451     -0.435846418      0.054745623
           6
  t=        23.00000    1    1
C      -0.123577796      0.514661389      0.585736136
C       1.225749572      0.549052099      0.530727917
H      -0.763996471      1.289270938      0.395947617
H      -0.978094066     -0.543354165      0.484441141
H       1.601002853      1.288151092      0.096851613
H       1.333042999     -0.383858664      0.044444203
           6
  t=        23.50000    1    1
C      -0.128641114      0.529045712      0.610109330
C       1.245663338      0.559814256      0.542391877
H      -0.723953101      1.268853979      0.360642660
H      -0.903427446     -0.515984599      0.470511748
H       1.669118299      1.292090941      0.082921120
H       1.331391379     -0.336261506      0.036329661
           6
  t=        24.00000    1    1
C      -0.133659830      0.542339799      0.634325172
C       1.264104841      0.569475885      0.554122553
H      -0.691380680      1.260013819      0.326186341
H      -0.819572073     -0.480849016      0.459389501
H       1.745021767      1.310353326      0.065156023
H       1.337245486     -0.296225271      0.029473931
           6
  t=        24.50000    1    1
C      -0.138032865      0.554409272      0.658451940
C       1.281137673      0.578650053      0.565765674
H      -0.668850205      1.265859268      0.290949503
H      -0.728435463     -0.439239866      0.451449453
H       1.825239852      1.337802024      0.046886889
H       1.350637216     -0.266133999      0.022825208
           6
  t=        25.00000    1    1
C      -0.141362694      0.565455179      0.682483981
C       1.296915179      0.587846822      0.577141528
H      -0.656461623      1.286374274      0.254257429
H      -0.632569390     -0.393579049      0.446925041
H       1.906022480      1.369514929      0.031487896
H       1.371404382     -0.247100988      0.015659333
           6
  t=        25.50000    1    1
C      -0.143408848      0.576029028      0.706326940
C       1.311581538      0.597366113      0.588076326
H      -0.652273125      1.318657626      0.217047714
H      -0.535055955     -0.347834572      0.445522824
H       1.984291329      1.401795751      0.021488998
H       1.399182279     -0.238706071      0.007997349
           6
  t=        26.00000    1    1
C      -0.144000467      0.586938549      0.729870313
C       1.325262924      0.607320081      0.598408530
H      -0.653409588      1.358305562      0.181471756
H      -0.439404027     -0.307936718      0.445939196
H       2.057819676      1.432136193      0.018389683
H       1.433291975     -0.239067972      0.000733514
           6
  t=        26.50000    1    1
C      -0.143002973      0.599026148      0.753044936
C       1.338078477      0.617719140      0.607994297
H      -0.657196717      1.401010743      0.149935169
H      -0.348832167     -0.280699473      0.446095442
H       2.124962671      1.458853881      0.023035844
H       1.472899398     -0.245544900     -0.004766840
           6
  t=        27.00000    1    1
C      -0.140362584      0.612933408      0.775820190
C       1.350149413      0.628532962      0.616717600
H      -0.661662910      1.443183971      0.124463918
H      -0.265576421     -0.271532995      0.443887931
H       2.184679430      1.480979638      0.035850842
H       1.517224653     -0.255451849     -0.007102016
           6
  t=        27.50000    1    1
C      -0.136173985      0.628861480      0.798134378
C       1.361610195      0.639714041      0.624486138
H      -0.665389052      1.481852740      0.106536807
H      -0.190257969     -0.281243939      0.438314113
H       2.236537626      1.498140446      0.056931676
H       1.565428141     -0.266467414     -0.005010272
           6
  t=        28.00000    1    1
C      -0.130601269      0.646478150      0.819823501
C       1.372597457      0.651216908      0.631251301
H      -0.667338275      1.515029390      0.096999406
H      -0.122469467     -0.305109465      0.430306935
H       2.280410118      1.510377808      0.086048137
H       1.616519990     -0.276867935      0.002493439
           6
  t=        28.50000    1    1
C      -0.123731898      0.665202340      0.840649933
C       1.383237921      0.663018515      0.637003052
H      -0.666780033      1.541727056      0.096285406
H      -0.062277148     -0.336324185      0.422028961
H       2.316092018      1.517866800      0.122858904
H       1.669572961     -0.285448446      0.016105283
           6
  t=        29.00000    1    1
C      -0.115553777      0.684472135      0.860360898
C       1.393642802      0.675120139      0.641762122
H      -0.663167291      1.561532003      0.104701485
H      -0.010448821     -0.368882479      0.415826691
H       2.343256728      1.520811001      0.167031046
H       1.723665102     -0.291324044      0.036269974
           6
  t=        29.50000    1    1
C      -0.105999081      0.703835245      0.878741291
C       1.403904512      0.687528736      0.645566145
H      -0.656125550      1.574406613      0.122445403
H       0.032055469     -0.398367631      0.413660505
H       2.361507693      1.519430721      0.218242813
H       1.777869178     -0.293787655      0.063265815
           6
  t=        30.00000    1    1
C      -0.095005028      0.722951100      0.895664593
C       1.414093220      0.700232044      0.648470590
H      -0.645465829      1.580653354      0.149418987
H       0.064679575     -0.421727372      0.416814451
H       2.370521215      1.513979377      0.276027843
H       1.831291865     -0.292243206      0.097219886
           6
  t=        30.50000    1    1
C      -0.082520734      0.741569566      0.911079548
C       1.424258729      0.713208209      0.650556659
H      -0.631155408      1.580790218      0.185263496
H       0.087241201     -0.437000845      0.425973521
H       2.370098770      1.504711379      0.339753712
H       1.883081516     -0.286183056      0.138081532
           6
  t=        31.00000    1    1
C      -0.068504560      0.759494617      0.924990809
C       1.434430770      0.726431661      0.651949272
H      -0.613398180      1.575586002      0.229330013
H       0.099798530     -0.443086356      0.441397878
H       2.360372601      1.491957341      0.408550050
H       1.932401152     -0.275167834      0.185565953
           6
  t=        31.50000    1    1
C      -0.052907649      0.776530899      0.937437130
C       1.444604145      0.739861992      0.652832030
H      -0.592808058      1.566232609      0.280605709
H       0.102449409     -0.439392656      0.463171496
H       2.342164276      1.476440484      0.481246888
H       1.978425060     -0.258894638      0.239122443
           6
  t=        32.00000    1    1
C      -0.035679268      0.792470165      0.948499303
C       1.454709854      0.753406515      0.653448910
H      -0.570575645      1.554480166      0.337622756
H       0.095355790     -0.425690952      0.491212583
H       2.317479189      1.459879033      0.556374784
H       2.020394144     -0.237474791      0.297900235
           6
  t=        32.50000    1    1
C      -0.016740438      0.807073726      0.958274423
C       1.464611615      0.766916378      0.654061818
H      -0.548472364      1.542627194      0.398648501
H       0.078635471     -0.401853206      0.525408664
H       2.289301153      1.445099127      0.632522829
H       2.057661033     -0.211543190      0.360877613
           6
  t=        33.00000    1    1
C       0.004022826      0.820062367      0.966890081
C       1.474140470      0.780211630      0.654894004
H      -0.528847833      1.533599832      0.461694054
H       0.052472525     -0.367709518      0.565608186
H       2.260879823      1.435360772      0.708696445
H       2.089796663     -0.181984582      0.427009101
           6
  t=        33.50000    1    1
C       0.026740321      0.831120905      0.974495208
C       1.483136315      0.793094516      0.656115218
H      -0.514473441      1.530878630      0.524794606
H       0.017158955     -0.323042883      0.611476933
H       2.235277055      1.433987422      0.784289731
H       2.116579702     -0.149707995      0.495402318
           6
  t=        34.00000    1    1
C       0.051459249      0.840058679      0.981274454
C       1.491501516      0.805374677      0.657848073
H      -0.507871487      1.537612127      0.586610391
H      -0.026441676     -0.268411040      0.661836349
H       2.214874027      1.444005954      0.858813683
H       2.137888602     -0.115790972      0.565403360
           6
  t=        34.50000    1    1
C       0.078075837      0.846992408      0.987408982
C       1.499253635      0.816995264      0.660179062
H      -0.510312086      1.555418683      0.646964588
H      -0.077021689     -0.206367579      0.714742175
H       2.200605404      1.467034476      0.931858239
H       2.153778439     -0.081629808      0.636354036
           6
  t=        35.00000    1    1
C       0.106376758      0.852382328      0.992981549
C       1.506490344      0.828120092      0.663157365
H      -0.521080388      1.583731871      0.706748034
H      -0.133590875     -0.141583323      0.768714514
H       2.191688967      1.502367260      1.003429279
H       2.164704432     -0.048717496      0.707265435
           6
  t=        35.50000    1    1
C       0.136035421      0.856907537      0.997999559
C       1.513416097      0.839020489      0.666865741
H      -0.537587112      1.620151077      0.767487620
H      -0.195707315     -0.079284584      0.822645375
H       2.185800915      1.547496156      1.072860005
H       2.171414576     -0.018243958      0.777311101
           6
  t=        36.00000    1    1
C       0.166622801      0.861275512      1.002469423
C       1.520310217      0.849984383      0.671430853
H      -0.556013183      1.661327256      0.830522306
H      -0.263489245     -0.024027229      0.875706817
H       2.180314877      1.599261841      1.138618212
H       2.174618170      0.008994157      0.845926551
           6
  t=        36.50000    1    1
C       0.197619213      0.865995014      1.006414150
C       1.527453762      0.861245702      0.676985350
H      -0.572287950      1.704062731      0.896471187
H      -0.336749551      0.021870600      0.927653134
H       2.173234039      1.654691548      1.198951776
H       2.174897681      0.032635781      0.912635747
           6
  t=        37.00000    1    1
C       0.228410440      0.871270655      1.009868447
C       1.535096601      0.872957756      0.683652592
H      -0.582977226      1.746006983      0.965181533
H      -0.413800158      0.059004077      0.978802091
H       2.163277511      1.711349052      1.252409937
H       2.172753192      0.052607593      0.976840935
           6
  t=        37.50000    1    1
C       0.258299020      0.877093700      1.012905461
C       1.543474413      0.885205481      0.691526280
H      -0.585605634      1.785476570      1.035882800
H      -0.491306214      0.090013119      1.029611381
H       2.149636719      1.767269828      1.298070692
H       2.168685491      0.069009662      1.037788854
           6
  t=        38.00000    1    1
C       0.286573483      0.883392367      1.015662807
C       1.552830691      0.898011904      0.700658855
H      -0.578703408      1.821272169      1.107424272
H      -0.565286402      0.117901595      1.080232191
H       2.131913835      1.820895528      1.335487896
H       2.163217589      0.082176750      1.094660549
           6
  t=        38.50000    1    1
C       0.312680195      0.890126211      1.018336064
C       1.563329915      0.911345419      0.711056577
H      -0.561752422      1.852629290      1.178470732
H      -0.632212561      0.144945918      1.130332874
H       2.110092338      1.871061654      1.364635574
H       2.156956739      0.092619954      1.146743815
           6
  t=        39.00000    1    1
C       0.336249491      0.897281137      1.021146943
C       1.575067891      0.925150251      0.722671166
H      -0.534841610      1.879067729      1.247829775
H      -0.689475762      0.172577699      1.179193268
H       2.084522741      1.917067916      1.385738227
H       2.150295683      0.100920716      1.193660152
           6
  t=        39.50000    1    1
C       0.357070466      0.904848856      1.024302584
C       1.588069572      0.939388388      0.735453168
H      -0.498275013      1.900259438      1.314635597
H      -0.735350852      0.201559825      1.225803258
H       2.055842357      1.958408026      1.398848121
H       2.143391709      0.107702179      1.235354296
           6
  t=        40.00000    1    1
C       0.374992256      0.912842006      1.027988551
C       1.602330595      0.954026976      0.749377568
H      -0.452440035      1.916030131      1.378057822
H      -0.768655106      0.232092856      1.269199677
H       2.024922090      1.994721320      1.404007869
H       2.136428246      0.113539631      1.271664121
           6
  t=        40.50000    1    1
C       0.389910186      0.921289029      1.032370182
C       1.617817188      0.969035015      0.764428596
H      -0.397761493      1.926324612      1.437243068
H      -0.788579294      0.264010669      1.308544521
H       1.992765020      2.025762872      1.401357529
H       2.129667466      0.118929792      1.302358734
           6
  t=        41.00000    1    1
C       0.401775485      0.930224350      1.037590651
C       1.634460125      0.984391395      0.780588327
H      -0.334689306      1.931181752      1.491372096
H      -0.794606178      0.296947479      1.343114062
H       1.960380267      2.051259102      1.391103528
H       2.123438963      0.124314506      1.327282286
           6
  t=        41.50000    1    1
C       0.410619476      0.939679939      1.043766780
C       1.652152724      1.000083166      0.797820242
H      -0.263856486      1.930743379      1.539724420
H      -0.786511731      0.330491093      1.372337577
H       1.928708102      2.070879045      1.373573874
H       2.118109403      0.130068464      1.346441081
           6
  t=        42.00000    1    1
C       0.416548023      0.949674053      1.050985206
C       1.670745763      1.016098773      0.816067222
H      -0.186158803      1.925224118      1.581790859
H      -0.764298106      0.364301362      1.395729008
H       1.898754994      2.084355482      1.349195827
H       2.114086882      0.136504529      1.360051369
           6
  t=        42.50000    1    1
C       0.419761129      0.960226030      1.059313087
C       1.690046110      1.032382321      0.835239745
H      -0.102917920      1.915230117      1.617076112
H      -0.728361513      0.397849610      1.413024346
H       1.871612747      2.091930122      1.318831171
H       2.111915566      0.143739159      1.368277182
           6
  t=        43.00000    1    1
C       0.420587826      0.971335951      1.068780526
C       1.709784145      1.048810814      0.855211866
H      -0.015683175      1.901981883      1.645286533
H      -0.679625374      0.430393029      1.424125203
H       1.848343676      2.094480085      1.283832835
H       2.112298021      0.151882128      1.371299637
           6
  t=        43.50000    1    1
C       0.419429088      0.982972130      1.079367905
C       1.729634457      1.065205394      0.875846518
H       0.073502866      1.887235997      1.666641665
H      -0.619378056      0.461012988      1.428972792
H       1.830527505      2.093560852      1.245656168
H       2.116085029      0.161048777      1.369369629
           6
  t=        44.00000    1    1
C       0.416788749      0.995099683      1.090973937
C       1.749255426      1.081333507      0.896987343
H       0.161865949      1.873151362      1.682157004
H      -0.549639725      0.488481373      1.427847565
H       1.820189116      2.091476979      1.205649896
H       2.124113253      0.171190476      1.362912512
           6
  t=        44.50000    1    1
C       0.413317856      1.007718916      1.103390113
C       1.768342856      1.096924177      0.918473497
H       0.246857530      1.862353472      1.693605249
H      -0.473849956      0.510979597      1.421690741
H       1.818449482      2.090984248      1.164959755
H       2.137116874      0.181969736      1.352469703
           6
  t=        45.00000    1    1
C       0.409815898      1.020905578      1.116308149
C       1.786646868      1.111688624      0.940164195
H       0.326229917      1.857762869      1.703243496
H      -0.397139702      0.525913007      1.412279131
H       1.825391354      2.094905990      1.124426291
H       2.155842821      0.192775774      1.338517734
           6
  t=        45.50000    1    1
C       0.407208502      1.034882796      1.129347052
C       1.803944533      1.125364932      0.961947528
H       0.398175261      1.861955438      1.713293701
H      -0.326677935      0.529206072      1.402363994
H       1.840901241      2.105875230      1.084514583
H       2.181008280      0.202937363      1.321491537
           6
  t=        46.00000    1    1
C       0.406412339      1.050047132      1.142136489
C       1.820033002      1.137808951      0.983758151
H       0.461724926      1.876299557      1.725248926
H      -0.270446273      0.515368483      1.395228537
H       1.864948115      2.125568643      1.045229112
H       2.213088848      0.211892148      1.301801792
           6
  t=        46.50000    1    1
C       0.408050663      1.066816595      1.154461178
C       1.834755501      1.149027217      1.005583912
H       0.516434779      1.900742566      1.739686737
H      -0.233587058      0.479735718      1.393190963
H       1.897348023      2.153857351      1.006163963
H       2.252296532      0.219427415      1.279668671
           6
  t=        47.00000    1    1
C       0.412227346      1.085320514      1.166354951
C       1.848002344      1.159148611      1.027443189
H       0.562054880      1.934205280      1.756532830
H      -0.215110302      0.422009681      1.396217151
H       1.937526633      2.188743843      0.966811280
H       2.298534914      0.225841230      1.255086319
           6
  t=        47.50000    1    1
C       0.418566232      1.105227713      1.178066910
C       1.859765686      1.168384921      1.049332538
H       0.598337215      1.974840128      1.775244594
H      -0.208364583      0.348089639      1.402168493
H       1.984300862      2.226742380      0.926998809
H       2.351159291      0.231990212      1.227981033
           6
  t=        48.00000    1    1
C       0.426558663      1.125968963      1.189898961
C       1.870152761      1.176976486      1.071189620
H       0.624776297      2.020155758      1.794910831
H      -0.205604883      0.267003656      1.408723647
H       2.036449504      2.264068705      0.887070530
H       2.408934572      0.239040850      1.198386788
           6
  t=        48.50000    1    1
C       0.435846793      1.147052322      1.202096289
C       1.879351047      1.185145172      1.092899110
H       0.640873022      2.067630798      1.814449893
H      -0.201505636      0.186505282      1.414461353
H       2.092880727      2.297498265      0.847769252
H       2.470156169      0.248203668      1.166516291
           6
  t=        49.00000    1    1
C       0.446228820      1.168138876      1.214807007
C       1.887610827      1.193063581      1.114320833
H       0.646389530      2.115226870      1.832934636
H      -0.193365967      0.111807632      1.418887650
H       2.152530446      2.324647988      0.810073758
H       2.532847483      0.260668719      1.132717303
           6
  t=        49.50000    1    1
C       0.457579209      1.188993454      1.228113731
C       1.895239002      1.200853104      1.135314413
H       0.641411543      2.161410855      1.849534416
H      -0.179883883      0.046512536      1.421950439
H       2.213940064      2.343806548      0.775133344
H       2.594918282      0.277434375      1.097411488
           6
  t=        50.00000    1    1
C       0.469805500      1.209460201      1.242053461
C       1.902563324      1.208603953      1.155748807
H       0.626304317      2.204860677      1.863516906
H      -0.160549159     -0.006832156      1.423815425
H       2.275388223      2.353949992      0.744082531
H       2.654410800      0.299081010      1.061151561
           6
  t=        50.50000    1    1
C       0.482819784      1.229412380      1.256618136
C       1.909881848      1.216419380      1.175494750
H       0.601779621      2.244291396      1.874450905
H      -0.135357829     -0.046353070      1.424793689
H       2.335324963      2.354631734      0.717884866
H       2.709655205      0.325746592      1.024730415
           6
  t=        51.00000    1    1
C       0.496557525      1.248768193      1.271777979
C       1.917429585      1.224398481      1.194430803
H       0.568803673      2.278627378      1.882126097
H      -0.104759352     -0.071103115      1.425236482
H       2.392535453      2.346003019      0.697268037
H       2.759318272      0.357202327      0.989081265
           6
  t=        51.50000    1    1
C       0.510985045      1.267490673      1.287504056
C       1.925386020      1.232613319      1.212446806
H       0.528267692      2.307213176      1.886506490
H      -0.069449622     -0.081005449      1.425434982
H       2.446204152      2.328701226      0.682701481
H       2.802282817      0.392971241      0.955136885
           6
  t=        52.00000    1    1
C       0.526082184      1.285548148      1.303782889
C       1.933901231      1.241115686      1.229439735
H       0.481029202      2.329689124      1.887505906
H      -0.030117086     -0.076240230      1.425573822
H       2.495674559      2.303591783      0.674593515
H       2.837488185      0.432487965      0.923778721
           6
  t=        52.50000    1    1
C       0.541822871      1.302894905      1.320613579
C       1.943099989      1.249954047      1.245317057
H       0.428127151      2.345822200      1.884890978
H       0.012624826     -0.056954535      1.425751667
H       2.540313854      2.271624351      0.673382411
H       2.863965615      0.475150178      0.895816492
           6
  t=        53.00000    1    1
C       0.558168854      1.319471315      1.337999548
C       1.953082889      1.259174953      1.259997916
H       0.370684171      2.355488755      1.878394231
H       0.058244873     -0.023221108      1.426033950
H       2.579556144      2.234051948      0.679456445
H       2.880946770      0.520057063      0.871986646
           6
  t=        53.50000    1    1
C       0.575069065      1.335212078      1.355935413
C       1.963936350      1.268824524      1.273413107
H       0.309815154      2.358702517      1.867834592
H       0.106227338      0.024868932      1.426521464
H       2.612924575      2.192352079      0.693158189
H       2.887888076      0.566037072      0.852915640
           6
  t=        54.00000    1    1
C       0.592453360      1.350065163      1.374398760
C       1.975724639      1.278952335      1.285513598
H       0.246726312      2.355609957      1.853137013
H       0.155920078      0.086927984      1.427412149
H       2.640125624      2.147994203      0.714806585
H       2.884599021      0.611891121      0.839012997
           6
  t=        54.50000    1    1
C       0.610244249      1.364012353      1.393348474
C       1.988447433      1.289597087      1.296298668
H       0.182726778      2.346571749      1.834374662
H       0.206462815      0.161970422      1.428972323
H       2.661171458      2.103166631      0.744433730
H       2.871545765      0.655811762      0.830405625
           6
  t=        55.00000    1    1
C       0.628381287      1.377074787      1.412739684
C       2.002026548      1.300788846      1.305812243
H       0.119108657      2.332135511      1.811763948
H       0.256872287      0.248393820      1.431411562
H       2.676496859      2.060467234      0.781750174
H       2.849636554      0.695645837      0.826968273
           6
  t=        55.50000    1    1
C       0.646820572      1.389400328      1.432509087
C       2.016289664      1.312534842      1.314182006
H       0.057120725      2.313123455      1.785753407
H       0.305897998      0.342973455      1.434869776
H       2.687199523      2.022905987      0.825958882
H       2.820351856      0.728937781      0.828142352
           6
  t=        56.00000    1    1
C       0.665532385      1.401330504      1.452585093
C       2.031021129      1.324810555      1.321598326
H      -0.002129194      2.290429317      1.756882729
H       0.351711911      0.440266909      1.439508556
H       2.695101233      1.994061439      0.875983866
H       2.785513829      0.752880412      0.832887257
           6
  t=        56.50000    1    1
C       0.684591264      1.413544009      1.472904145
C       2.045926418      1.337543640      1.328308610
H      -0.057712266      2.264890183      1.725596927
H       0.391284534      0.531046912      1.445521317
H       2.702917806      1.978097059      0.930687644
H       2.747128647      0.764475363      0.839511352
           6
  t=        57.00000    1    1
C       0.704213258      1.427046339      1.493400072
C       2.060670455      1.350639338      1.334609108
H      -0.108716376      2.236985991      1.692362015
H       0.419993934      0.602568894      1.452939147
H       2.713932395      1.979243750      0.988947554
H       2.707041226      0.760904301      0.845898664
           6
  t=        57.50000    1    1
C       0.724713875      1.442918888      1.514032724
C       2.074780241      1.364027224      1.340871615
H      -0.153527427      2.206774942      1.658353210
H       0.432591814      0.641701317      1.460255470
H       2.731251168      1.999841450      1.048409644
H       2.667656239      0.740854299      0.850782689
           6
  t=        58.00000    1    1
C       0.746106739      1.461522654      1.534793679
C       2.087993615      1.377692753      1.347312242
H      -0.190709624      2.174762569      1.624792575
H       0.427535190      0.643847879      1.465648893
H       2.756555061      2.039941454      1.107729072
H       2.630361402      0.704236564      0.853632891
           6
  t=        58.50000    1    1
C       0.768009613      1.482315792      1.555623201
C       2.100417943      1.391657716      1.353928507
H      -0.219133134      2.141766063      1.592923075
H       0.408190450      0.615268298      1.467955473
H       2.788947730      2.096778717      1.166688434
H       2.594832116      0.652936043      0.855328977
           6
  t=        59.00000    1    1
C       0.789758614      1.504136474      1.576391964
C       2.112475083      1.405994538      1.360537144
H      -0.238060286      2.108850758      1.563407762
H       0.381038563      0.569123029      1.467862904
H       2.825530478      2.164466745      1.226016970
H       2.559632342      0.591594416      0.857515751
           6
  t=        59.50000    1    1
C       0.810816065      1.525976601      1.596964869
C       2.124572051      1.420769615      1.366938659
H      -0.247130560      2.077122589      1.536404323
H       0.351595705      0.516467027      1.466976006
H       2.863117027      2.237174853      1.286501408
H       2.523628565      0.525102493      0.861630850
           6
  t=        60.00000    1    1
C       0.830788602      1.547189533      1.617218891
C       2.137044588      1.435952553      1.373006954
H      -0.246265685      2.047480671      1.512268658
H       0.323811307      0.464636563      1.466469987
H       2.898828816      2.309816170      1.348008664
H       2.486358277      0.458379089      0.869244721
           6
  t=        60.50000    1    1
C       0.849458708      1.567430726      1.637059530
C       2.150080127      1.451441053      1.378702563
H      -0.235674866      2.020637479      1.491264172
H       0.300049492      0.417762012      1.467241827
H       2.930676665      2.378711043      1.409980355
H       2.448014182      0.395585448      0.881351659
           6
  t=        61.00000    1    1
C       0.866742412      1.586526844      1.656401032
C       2.163733690      1.467129851      1.384052904
H      -0.215760171      1.997180982      1.473734417
H       0.281687098      0.378063597      1.469850033
H       2.957353880      2.441052707      1.471603034
H       2.409273165      0.340039823      0.898558169
           6
  t=        61.50000    1    1
C       0.882662901      1.604428153      1.675187017
C       2.177978760      1.482925319      1.389130945
H      -0.187460770      1.977640622      1.459885086
H       0.269261121      0.346405722      1.474670342
H       2.978231162      2.494945210      1.532062836
H       2.371206387      0.293952604      0.920899038
           6
  t=        62.00000    1    1
C       0.897342420      1.621152377      1.693393934
C       2.192736581      1.498738715      1.394026517
H      -0.152253093      1.962500915      1.449705077
H       0.262625090      0.322911495      1.481964289
H       2.993139903      2.539393977      1.590687654
H       2.335087146      0.258556944      0.948006152
           6
  t=        62.50000    1    1
C       0.910963984      1.636732422      1.711021546
C       2.207907245      1.514473757      1.398837681
H      -0.112139499      1.952256128      1.442900706
H       0.261362388      0.307535667      1.492035405
H       3.002166772      2.573933210      1.646929861
H       2.302257473      0.234624807      0.979251652
           6
  t=        63.00000    1    1
C       0.923731678      1.651139340      1.728060759
C       2.223388583      1.530049775      1.403669571
H      -0.069477603      1.947669838      1.438975524
H       0.265374241      0.300550578      1.505379533
H       3.005256384      2.597762639      1.700214626
H       2.274014745      0.223226717      1.014066608
           6
  t=        63.50000    1    1
C       0.935911718      1.664330835      1.744521686
C       2.239051819      1.545405440      1.408631486
H      -0.026907520      1.949572224      1.437350238
H       0.274532650      0.302033072      1.522136146
H       3.002571246      2.610497294      1.749930644
H       2.251326874      0.225075394      1.052079260
           6
  t=        64.00000    1    1
C       0.947787294      1.676259946      1.760427299
C       2.254755450      1.560485233      1.413840104
H       0.012825532      1.958829158      1.437363433
H       0.288585230      0.311892094      1.542251524
H       2.994594225      2.612265963      1.795491655
H       2.235020329      0.240488340      1.092926975
           6
  t=        64.50000    1    1
C       0.959609928      1.686882409      1.775805029
C       2.270361555      1.575245035      1.419416662
H       0.047310944      1.976238562      1.438358545
H       0.307105022      0.329916680      1.565570558
H       2.982038968      2.603564542      1.836344249
H       2.225865360      0.269435833      1.136203373
           6
  t=        65.00000    1    1
C       0.971550000      1.696164188      1.790673812
C       2.285746877      1.589663623      1.425479985
H       0.075002243      2.002400321      1.439845254
H       0.329587069      0.355840957      1.591887097
H       2.965731915      2.585092664      1.871982180
H       2.224525472      0.311542694      1.181469632
           6
  t=        65.50000    1    1
C       0.983642699      1.704087061      1.805018860
C       2.300804345      1.603731334      1.432142968
H       0.095620761      2.037596757      1.441739222
H       0.355678627      0.389547679      1.621031527
H       2.946566526      2.557665433      1.901970116
H       2.231595143      0.366160993      1.228246046
           6
  t=        66.00000    1    1
C       0.995785383      1.710651377      1.818783952
C       2.315425885      1.617457532      1.439503625
H       0.110212526      2.081639077      1.444470856
H       0.385327747      0.431232245      1.652842652
H       2.925592758      2.522343151      1.926040447
H       2.247541140      0.432108108      1.276033011
           6
  t=        66.50000    1    1
C       1.007779327      1.715874909      1.831870860
C       2.329473558      1.630896481      1.447639992
H       0.120776492      2.133866329      1.448930020
H       0.418768669      0.481367722      1.687142534
H       2.904294495      2.480779666      1.944275880
H       2.272657985      0.507059692      1.324276496
           6
  t=        67.00000    1    1
C       1.019355678      1.719811145      1.844165427
C       2.342800808      1.644164355      1.456585244
H       0.129760755      2.193267355      1.456174395
H       0.456428050      0.540362092      1.723834181
H       2.884751022      2.435570454      1.957405335
H       2.306941515      0.587001815      1.372251858
           6
  t=        67.50000    1    1
C       1.030270551      1.722610363      1.855581589
C       2.355251043      1.657441966      1.466292507
H       0.139588204      2.258552689      1.467259693
H       0.498473416      0.607814163      1.762606945
H       2.869422518      2.390324250      1.966881905
H       2.350113102      0.666071217      1.419344971
           6
  t=        68.00000    1    1
C       1.040361553      1.724534086      1.866071095
C       2.366616389      1.671020395      1.476603949
H       0.152251416      2.328277368      1.483092568
H       0.544511488      0.682302042      1.802976776
H       2.861260909      2.349905777      1.975169650
H       2.402033475      0.735685420      1.465124800
           6
  t=        68.50000    1    1
C       1.049607120      1.726001660      1.875606264
C       2.376590298      1.685299899      1.487268515
H       0.169266449      2.400727238      1.504360128
H       0.593133881      0.760723164      1.844379183
H       2.863674319      2.319777784      1.985472033
H       2.463096529      0.785432246      1.509586585
           6
  t=        69.00000    1    1
C       1.058199948      1.727653966      1.884176435
C       2.384845113      1.700517965      1.497993916
H       0.191754961      2.473884990      1.531442020
H       0.641134832      0.837142616      1.886328346
H       2.879760970      2.304745631      2.000891073
H       2.533896279      0.807992197      1.553344345
           6
  t=        69.50000    1    1
C       1.066503804      1.730420773      1.891806520
C       2.391265375      1.716462162      1.508582812
H       0.220583344      2.545691476      1.564320637
H       0.683229532      0.901948306      1.928690840
H       2.910953487      2.307240221      2.022995103
H       2.614459796      0.804058079      1.597035368
           6
  t=        70.00000    1    1
C       1.074995323      1.735414616      1.898516326
C       2.396129925      1.732605755      1.519106761
H       0.256361024      2.614240405      1.602648594
H       0.713152703      0.943166331      1.972015242
H       2.955795706      2.326072475      2.050510513
H       2.702897049      0.781718929      1.640643390
           6
  t=        70.50000    1    1
C       1.084059371      1.743473669      1.904272056
C       2.400043166      1.748480834      1.529859390
H       0.299283247      2.677802709      1.646032703
H       0.726227265      0.951974146      2.017579592
H       3.010565177      2.357633227      2.080031874
H       2.795624553      0.750723592      1.683592930
           6
  t=        71.00000    1    1
C       1.093711890      1.754637826      1.909059162
C       2.403713472      1.763815893      1.541192604
H       0.349002730      2.734988258      1.694058108
H       0.722335597      0.929146649      2.066448940
H       3.070748396      2.397817759      2.107806459
H       2.888989985      0.718551836      1.724966717
           6
  t=        71.50000    1    1
C       1.103639860      1.768138209      1.913019468
C       2.407770239      1.778497906      1.553391705
H       0.404784855      2.785023770      1.746101511
H       0.706067843      0.884766196      2.118030844
H       3.131940056      2.442774959      2.130812549
H       2.979773298      0.690254192      1.763912704
           6
  t=        72.00000    1    1
C       1.113458733      1.782987552      1.916432678
C       2.412702828      1.792502695      1.566635596
H       0.465834630      2.827550989      1.801380109
H       0.683218438      0.831139775      2.170288174
H       3.190500031      2.489587187      2.147088964
H       3.065366242      0.668851597      1.799747366
           6
  t=        72.50000    1    1
C       1.122889768      1.798458688      1.919593867
C       2.418889466      1.805851994      1.581015734
H       0.531250504      2.862174245      1.859062117
H       0.657960804      0.777609333      2.221105557
H       3.243715102      2.536323728      2.155599048
H       3.144024733      0.655734182      1.831848753
           6
  t=        73.00000    1    1
C       1.131803052      1.814108456      1.922747815
C       2.426607395      1.818587437      1.596555581
H       0.599898443      2.888592590      1.918327850
H       0.632877826      0.730102895      2.268922308
H       3.289600794      2.581467078      2.155975531
H       3.214528868      0.651576856      1.859768203
           6
  t=        73.50000    1    1
C       1.140211109      1.829675832      1.926070506
C       2.435989327      1.830770307      1.613228724
H       0.670464074      2.906943201      1.978406361
H       0.609563886      0.691949633      2.312771637
H       3.326886441      2.623841584      2.148373388
H       3.276138716      0.656468971      1.883306274
           6
  t=        74.00000    1    1
C       1.148216490      1.844999294      1.929677614
C       2.447067692      1.842450938      1.631004452
H       0.741588367      2.917844431      2.038651904
H       0.589091546      0.664886249      2.352043640
H       3.354729951      2.662584601      2.133129651
H       3.328374458      0.670243000      1.902369158
           6
  t=        74.50000    1    1
C       1.155965271      1.859955441      1.933637746
C       2.459799596      1.853664137      1.649830047
H       0.811885564      2.922489672      2.098621235
H       0.572200466      0.649682004      2.386399496
H       3.372741486      2.697122941      2.110804028
H       3.371042545      0.692565111      1.916989885
           6
  t=        75.00000    1    1
C       1.163610336      1.874430619      1.937989658
C       2.474136054      1.864419314      1.669650462
H       0.879988177      2.922310617      2.158121881
H       0.559454362      0.646799347      2.415602153
H       3.380693357      2.727022885      2.081984251
H       3.403936393      0.723217045      1.927204384
           6
  t=        75.50000    1    1
C       1.171292142      1.888311322      1.942755770
C       2.490023571      1.874711958      1.690395330
H       0.944633053      2.918885679      2.217213105
H       0.551275994      0.656502774      2.439443413
H       3.378593070      2.751996053      2.047283657
H       3.426852687      0.762050522      1.933119574
           6
  t=        76.00000    1    1
C       1.179120138      1.901487526      1.947958899
C       2.507400485      1.884526371      1.711972027
H       1.004763213      2.913783218      2.276115217
H       0.548000312      0.678933872      2.457683217
H       3.366756762      2.771958695      2.007367502
H       3.439627917      0.808937410      1.934921726
           6
  t=        76.50000    1    1
C       1.187164218      1.913861844      1.953637366
C       2.526192241      1.893831928      1.734267365
H       1.059594877      2.908342508      2.335054121
H       0.549958911      0.714214029      2.470011009
H       3.345830718      2.787126698      1.962987268
H       3.442123514      0.863726494      1.932836108
           6
  t=        77.00000    1    1
C       1.195462279      1.925364290      1.959854312
C       2.546292547      1.902584928      1.757152138
H       1.108614267      2.903501850      2.394070421
H       0.557527793      0.762447884      2.476066912
H       3.316817840      2.798145721      1.915018079
H       3.434289321      0.926083839      1.927094096
           6
  t=        77.50000    1    1
C       1.204035906      1.935977261      1.966699100
C       2.567537335      1.910735708      1.780482729
H       1.151469816      2.899731559      2.452872079
H       0.571091346      0.823594635      2.475536037
H       3.281069303      2.806144194      1.864474631
H       3.416439134      0.995253040      1.917934364
           6
  t=        78.00000    1    1
C       1.212942045      1.945787108      1.974270886
C       2.589657996      1.918248178      1.804108110
H       1.187867415      2.897044498      2.510696197
H       0.590751772      0.896939916      2.468427200
H       3.240202731      2.812652575      1.812499533
H       3.389669338      1.069806215      1.905586505
           6
  t=        78.50000    1    1
C       1.222298829      1.954999571      1.982642143
C       2.612208451      1.925188971      1.827870864
H       1.217736673      2.895065185      2.566484119
H       0.615984663      0.980570788      2.455301732
H       3.196098681      2.819715413      1.760131447
H       3.356601859      1.146741752      1.890521328
           6
  t=        79.00000    1    1
C       1.232253112      1.963881298      1.991872798
C       2.634581621      1.931800092      1.851631384
H       1.241102120      2.893256071      2.619090212
H       0.645745628      1.071749756      2.437002085
H       3.150690251      2.829770242      1.707953430
H       3.321807375      1.220836204      1.873408392
           6
  t=        79.50000    1    1
C       1.242999700      1.972778897      2.001982179
C       2.655982762      1.938614218      1.875294363
H       1.258038624      2.891172562      2.667423022
H       0.678108272      1.166478873      2.414876583
H       3.105611664      2.844744193      1.656132548
H       3.292651846      1.284127718      1.854729130
           6
  t=        80.00000    1    1
C       1.254831196      1.982177880      2.012898408
C       2.675462071      1.946456285      1.898827512
H       1.268650135      2.888702069      2.710597267
H       0.709654845      1.258729352      2.391273752
H       3.062018862      2.865381414      1.604831948
H       3.279124099      1.326398654      1.834098335
           6
  t=        80.50000    1    1
C       1.268193582      1.992768057      2.024398456
C       2.692307139      1.956076245      1.922258093
H       1.273266108      2.886125854      2.748009631
H       0.734435795      1.339495699      2.370133979
H       3.020706771      2.891080991      1.554584956
H       3.289223981      1.339818391      1.809978334
           6
  t=        81.00000    1    1
C       1.283660935      2.005339716      2.036172597
C       2.706459128      1.967725897      1.945574737
H       1.272313774      2.883686043      2.779230212
H       0.744418527      1.398441890      2.356282205
H       2.982214970      2.920300906      1.506313886
H       3.323877855      1.323605706      1.780877831
           6
  t=        81.50000    1    1
C       1.301639868      2.020363015      2.048033066
C       2.718572315      1.981032798      1.968603993
H       1.266407807      2.881641458      2.804044844
H       0.733017447      1.428927279      2.352714186
H       2.946755287      2.951107905      1.461187577
H       3.376203565      1.284911335      1.747150519
           6
  t=        82.00000    1    1
C       1.322110910      2.037701413      2.060077631
C       2.729564791      1.995317413      1.991004424
H       1.256353824      2.880522378      2.822381861
H       0.698839500      1.431329956      2.358658337
H       2.914224592      2.981600002      1.420573456
H       3.436184043      1.234452977      1.711175722
           6
  t=        82.50000    1    1
C       1.344406384      2.056596857      2.072629190
C       2.740180655      2.010005444      2.012449597
H       1.243104670      2.880971078      2.834570275
H       0.648228753      1.413489895      2.369855218
H       2.884529411      3.009921909      1.385671067
H       3.495705236      1.181479541      1.675726417
           6
  t=        83.00000    1    1
C       1.367573869      2.076151083      2.086032689
C       2.750851795      2.024790799      2.032697091
H       1.227559461      2.883571526      2.841019848
H       0.590938868      1.385042387      2.381620749
H       2.857918224      3.034591933      1.357472464
H       3.550068377      1.131604171      1.642863250
           6
  t=        83.50000    1    1
C       1.390840107      2.095694884      2.100475160
C       2.761787171      2.039529485      2.051588644
H       1.210443518      2.888866033      2.842318657
H       0.534629293      1.353003480      2.391093509
H       2.834882317      3.054728266      1.336598886
H       3.597121394      1.087840148      1.613895477
           6
  t=        84.00000    1    1
C       1.413684779      2.114803681      2.116002482
C       2.773105649      2.054144425      2.069038224
H       1.192147343      2.897464110      2.839215111
H       0.483931778      1.321549303      2.397054167
H       2.815981460      3.069899032      1.323303695
H       3.636065871      1.051811277      1.589519133
           6
  t=        84.50000    1    1
C       1.435801212      2.133222675      2.132575703
C       2.784875603      2.068608609      2.085028024
H       1.172800537      2.910020118      2.832495340
H       0.441132570      1.292868109      2.399240186
H       2.801649909      3.079975828      1.317556468
H       3.666891168      1.024161282      1.569917359
           6
  t=        85.00000    1    1
C       1.457008626      2.150815119      2.150101423
C       2.797124158      2.082927166      2.099597583
H       1.152484734      2.926991769      2.822865883
H       0.407227604      1.268010582      2.397935895
H       2.792160161      3.085079726      1.319143882
H       3.690078145      1.004829030      1.554954400
           6
  t=        85.50000    1    1
C       1.477177728      2.167510747      2.168477554
C       2.809862529      2.097107444      2.112797426
H       1.131256900      2.948536997      2.810871582
H       0.382786019      1.247567631      2.393637981
H       2.787781513      3.085452831      1.327795503
H       3.706138391      0.993573258      1.544473569
           6
  t=        86.00000    1    1
C       1.496214750      2.183275988      2.187613024
C       2.823084408      2.111149931      2.124681404
H       1.109201283      2.974479752      2.796886513
H       0.368246690      1.232009671      2.386874109
H       2.788769501      3.081447943      1.343146361
H       3.715485686      0.990141044      1.538381607
           6
  t=        86.50000    1    1
C       1.514061012      2.198098525      2.207432887
C       2.836762967      2.125045652      2.135308652
H       1.086507811      3.004331652      2.781104546
H       0.363996381      1.221817059      2.378124468
H       2.795293642      3.073526398      1.364723704
H       3.718392716      0.994332752      1.536665608
           6
  t=        87.00000    1    1
C       1.530687251      2.211983596      2.227882763
C       2.850855110      2.138767552      2.144742267
H       1.063538549      3.037339014      2.763522361
H       0.370307109      1.217431999      2.367819416
H       2.807470347      3.062344515      1.391908547
H       3.714971199      1.006063517      1.539413656
           6
  t=        87.50000    1    1
C       1.546076416      2.224949750      2.248931342
C       2.865308338      2.152260746      2.153046381
H       1.040842791      3.072539120      2.743976730
H       0.387309203      1.219212992      2.356358556
H       2.825475345      3.048889226      1.423866018
H       3.705194522      1.025383605      1.546833139
           6
  t=        88.00000    1    1
C       1.560211485      2.237026212      2.270566544
C       2.880065361      2.165429710      2.160288435
H       1.019134499      3.108821570      2.722198398
H       0.415018120      1.227435024      2.344131390
H       2.849585494      3.034610535      1.459490904
H       3.688941890      1.052468395      1.559249370
           6
  t=        88.50000    1    1
C       1.573077744      2.248258641      2.292780150
C       2.895065776      2.178124417      2.166553545
H       0.999265086      3.144992010      2.697885705
H       0.453333334      1.242280229      2.331538822
H       2.880075281      3.021516311      1.497369364
H       3.666082985      1.087565882      1.577060656
           6
  t=        89.00000    1    1
C       1.584647301      2.258695068      2.315554705
C       2.910246753      2.190127890      2.171946082
H       0.982217479      3.179857525      2.670771410
H       0.502257554      1.263972294      2.319010648
H       2.917203485      3.012222796      1.535812088
H       3.636454401      1.131042145      1.600758104
           6
  t=        89.50000    1    1
C       1.594879588      2.268375313      2.338844427
C       2.925524860      2.201181537      2.176595114
H       0.969075439      3.212288417      2.640726260
H       0.562013355      1.292856319      2.307042012
H       2.961227214      3.009821499      1.572978366
H       3.599970266      1.183197088      1.630824109
           6
  t=        90.00000    1    1
C       1.603759303      2.277346320      2.362555509
C       2.940767968      2.211076061      2.180649387
H       0.960881682      3.241303078      2.607853296
H       0.632762073      1.329188907      2.296246959
H       3.012342450      3.017337089      1.607334408
H       3.556987268      1.243665588      1.667420755
           6
  t=        90.50000    1    1
C       1.611347612      2.285693523      2.386546446
C       2.955787851      2.219774838      2.184247941
H       0.958448946      3.266220942      2.572530611
H       0.714038421      1.372638891      2.287332596
H       3.070636686      3.036711223      1.638290644
H       3.508584456      1.310936128      1.710081780
           6
  t=        91.00000    1    1
C       1.617823709      2.293556562      2.410641069
C       2.970321910      2.227551995      2.187528812
H       0.962166899      3.286604156      2.535351163
H       0.804367334      1.422036075      2.281058786
H       3.136072904      3.068026060      1.666499529
H       3.456878092      1.381604282      1.757256282
           6
  t=        91.50000    1    1
C       1.623459283      2.301147660      2.434658829
C       2.984036309      2.235076843      2.190660683
H       0.972080635      3.302114240      2.497118274
H       0.901211393      1.475311908      2.278049127
H       3.208262078      3.109415402      1.693597634
H       3.405490061      1.449439207      1.806022159
           6
  t=        92.00000    1    1
C       1.628715390      2.308838792      2.458445699
C       2.996439446      2.243469198      2.193938814
H       0.987938910      3.312554611      2.458770214
H       1.000556627      1.528618993      2.278420675
H       3.286205974      3.157261061      1.721665910
H       3.360047752      1.504327374      1.851560245
           6
  t=        92.50000    1    1
C       1.634289833      2.317251366      2.481944464
C       3.006948881      2.254190047      2.197791100
H       1.009161407      3.317741220      2.421272129
H       1.096218587      1.575273791      2.281136035
H       3.368417369      3.207129334      1.752477982
H       3.327428546      1.532756917      1.887752299
           6
  t=        93.00000    1    1
C       1.641037327      2.327292002      2.505217556
C       3.015235209      2.268421003      2.202524245
H       1.035021401      3.317491032      2.385573239
H       1.180115868      1.605184860      2.283656108
H       3.453012909      3.254845393      1.787251153
H       3.312064504      1.524294455      1.910572328
           6
  t=        93.50000    1    1
C       1.649668472      2.339892956      2.528413114
C       3.021482584      2.286349511      2.208073270
H       1.064667537      3.312100297      2.352567287
H       1.245256417      1.607421551      2.282499501
H       3.537996922      3.297173498      1.826576850
H       3.313133093      1.479468133      1.921025710
           6
  t=        94.00000    1    1
C       1.660362882      2.355349939      2.551575156
C       3.026261333      2.307121929      2.214071462
H       1.097078348      3.302538270      2.322923770
H       1.290667298      1.577950917      2.275766144
H       3.621438405      3.332027745      1.870533935
H       3.325623694      1.410075667      1.924109235
           6
  t=        94.50000    1    1
C       1.672783547      2.373056796      2.574506546
C       3.030205097      2.329545165      2.220138948
H       1.130928826      3.290334988      2.297035251
H       1.321313979      1.523178866      2.264944859
H       3.701507614      3.358235164      1.918900680
H       3.344191025      1.330793315      1.925038726
           6
  t=        95.00000    1    1
C       1.686441535      2.391926600      2.596886274
C       3.033821422      2.352687105      2.226042825
H       1.164625269      3.277404250      2.274985925
H       1.343616734      1.455098276      2.253618774
H       3.776525634      3.375040076      1.971293623
H       3.365465613      1.252528338      1.927130563
           6
  t=        95.50000    1    1
C       1.700969683      2.410969562      2.618448515
C       3.037507377      2.375955649      2.231703894
H       1.196542631      3.265823829      2.256677656
H       1.361803465      1.384320563      2.245023864
H       3.845052129      3.382102974      2.027052900
H       3.387928600      1.181780297      1.932017961
           6
  t=        96.00000    1    1
C       1.716142281      2.429438077      2.639045308
C       3.041602968      2.398968374      2.237155268
H       1.225109906      3.257750150      2.241713301
H       1.377824387      1.318213023      2.241266455
H       3.905978600      3.379664444      2.085203182
H       3.410947367      1.122249959      1.940335576
           6
  t=        96.50000    1    1
C       1.731823570      2.446795598      2.658636963
C       3.046407278      2.421452154      2.242483702
H       1.249024690      3.254970539      2.229200304
H       1.392281329      1.261571354      2.243662529
H       3.958499038      3.368217315      2.144728558
H       3.434082377      1.076509261      1.952115046
           6
  t=        97.00000    1    1
C       1.747996019      2.462803270      2.677265954
C       3.052003354      2.443296218      2.247787763
H       1.267639936      3.258175794      2.218218222
H       1.405446917      1.216463614      2.252540064
H       4.002464356      3.348401130      2.204867478
H       3.457076463      1.045325830      1.967029830
           6
  t=        97.50000    1    1
C       1.764626878      2.477400985      2.694962674
C       3.058419993      2.464397599      2.253152998
H       1.280661463      3.267299016      2.208330681
H       1.417448007      1.183977909      2.267966463
H       4.037954513      3.321011536      2.265030895
H       3.480064112      1.028825971      1.984656406
           6
  t=        98.00000    1    1
C       1.781654632      2.490653511      2.711737183
C       3.065673066      2.484676434      2.258655126
H       1.288341145      3.281513060      2.199657233
H       1.428365652      1.164536201      2.289707672
H       4.065034499      3.286860206      2.324670936
H       3.503191270      1.026783049      2.004635056
           6
  t=        98.50000    1    1
C       1.798975460      2.502702020      2.727570247
C       3.073796902      2.504064321      2.264369163
H       1.291413579      3.299481910      2.192817504
H       1.438190450      1.158072464      2.317379914
H       4.083758426      3.246862166      2.383208494
H       3.526506677      1.038816976      2.026644345
           6
  t=        99.00000    1    1
C       1.816447013      2.513711352      2.742415056
C       3.082844785      2.522487030      2.270373687
H       1.290899801      3.319681871      2.188745586
H       1.446872159      1.164304977      2.350607275
H       4.094318100      3.202188892      2.440038087
H       3.549909001      1.064482037      2.050353037
           6
  t=        99.50000    1    1
C       1.833902546      2.523835452      2.756209210
C       3.092873091      2.539859664      2.276746614
H       1.287940802      3.340641644      2.188497671
H       1.454419217      1.182896947      2.389068946
H       4.097204633      3.154403397      2.494597501
H       3.573072832      1.103200511      2.075403102
           6
  t=       100.00000    1    1
C       1.851162174      2.533195148      2.768886353
C       3.103933707      2.556088126      2.283554989
H       1.283674936      3.361060716      2.193114086
H       1.460992367      1.213603000      2.432514073
H       4.093252459      3.105412958      2.546456467
H       3.595389810      1.154292550      2.101427107
           6
  t=       100.50000    1    1
C       1.868047079      2.541877467      2.780393409
C       3.116061731      2.571077492      2.290839924
H       1.279158890      3.379798167      2.203534535
H       1.466977724      1.256290863      2.480666771
H       4.083666744      3.057317751      2.595400454
H       3.615924491      1.217025214      2.128118324
           6
  t=       101.00000    1    1
C       1.884392702      2.549945392      2.790690976
C       3.129258430      2.584727727      2.298618987
H       1.275272076      3.395959449      2.220569504
H       1.472847446      1.310811212      2.533194483
H       4.070077493      3.012115159      2.641410569
H       3.633641058      1.290886527      2.155277907
           6
  t=       101.50000    1    1
C       1.900068012      2.557464335      2.799769877
C       3.143452163      2.596957987      2.306888055
H       1.272620886      3.409009166      2.244773690
H       1.479085488      1.376621853      2.589586522
H       4.054772094      2.971610580      2.684704929
H       3.647576712      1.375332533      2.182802181
           6
  t=       102.00000    1    1
C       1.914973210      2.564549125      2.807670340
C       3.158483364      2.607722770      2.315605116
H       1.271621882      3.418739570      2.276420947
H       1.486014566      1.452440759      2.649092053
H       4.040846786      2.938186285      2.726118618
H       3.656986451      1.468644690      2.210354297
           6
  t=       102.50000    1    1
C       1.929062199      2.571406389      2.814476910
C       3.174138554      2.617065908      2.324705405
H       1.272598051      3.425127601      2.315603513
H       1.493419444      1.535917257      2.710722540
H       4.031317190      2.914137519      2.766848409
H       3.661839947      1.567917071      2.237398107
           6
  t=       103.00000    1    1
C       1.942389941      2.578356430      2.820293229
C       3.190207459      2.625183877      2.334143766
H       1.275699252      3.428374374      2.362218578
H       1.500220284      1.623130767      2.773461642
H       4.028213288      2.901131056      2.808008284
H       3.662887835      1.669044612      2.263241868
           6
  t=       103.50000    1    1
C       1.955143828      2.585868171      2.825233889
C       3.206439451      2.632521929      2.343912217
H       1.280878435      3.429108401      2.415869544
H       1.504186411      1.707862103      2.836464626
H       4.032655794      2.900388252      2.850463414
H       3.662040620      1.765503624      2.286991424
           6
  t=       104.00000    1    1
C       1.967623060      2.594559093      2.829401599
C       3.222461434      2.639902193      2.354057606
H       1.287942417      3.428463438      2.475862449
H       1.501826667      1.781734315      2.899475854
H       4.044808820      2.912846831      2.894678166
H       3.663699066      1.846445645      2.307349916
           6
  t=       104.50000    1    1
C       1.980178873      2.604971757      2.832838681
C       3.237830923      2.648391320      2.364691615
H       1.296657441      3.427751923      2.541357542
H       1.489256217      1.837099357      2.963191366
H       4.063415542      2.938757038      2.940292459
H       3.674325858      1.898781190      2.322986081
           6
  t=       105.00000    1    1
C       1.993032572      2.617227818      2.835566063
C       3.252314031      2.658749875      2.375942060
H       1.306782246      3.428321710      2.611526937
H       1.464602529      1.871119544      3.028567064
H       4.085970122      2.977358458      2.985905367
H       3.698690570      1.914248262      2.333400452
           6
  t=       105.50000    1    1
C       2.006147653      2.630992363      2.837674041
C       3.266051644      2.671049714      2.387917509
H       1.318042203      3.431834571      2.685496270
H       1.429439331      1.886068376      3.095726095
H       4.109635214      3.027179196      3.029610652
H       3.737087666      1.893517976      2.338880882
           6
  t=       106.00000    1    1
C       2.019274665      2.645641288      2.839368084
C       3.279549492      2.684668281      2.400681576
H       1.330136831      3.439969530      2.762381087
H       1.388273343      1.887621227      3.163318169
H       4.131763617      3.086073114      3.069440596
H       3.784904369      1.846236886      2.340423516
           6
  t=       106.50000    1    1
C       2.032086402      2.660580787      2.840904260
C       3.293424959      2.698755681      2.414256725
H       1.342891930      3.453850009      2.841476813
H       1.346164075      1.881682754      3.229186596
H       4.150252885      3.151763861      3.103808019
H       3.835900127      1.784855917      2.339157917
           6
  t=       107.00000    1    1
C       2.044309553      2.675410747      2.842534783
C       3.308128390      2.712663444      2.428626704
H       1.356436158      3.473737158      2.922254910
H       1.307091272      1.872767170      3.291124559
H       4.163574308      3.222125995      3.131632652
H       3.885385803      1.719219740      2.336088064
           6
  t=       107.50000    1    1
C       2.055741018      2.689927627      2.844479107
C       3.323915265      2.726004713      2.443770035
H       1.371348579      3.499130223      3.004174999
H       1.273629546      1.863776226      3.347320650
H       4.170689268      3.295020852      3.152007974
H       3.930622163      1.656100981      2.332113222
           6
  t=       108.00000    1    1
C       2.066224425      2.704069709      2.846913973
C       3.340870151      2.738594461      2.459673190
H       1.388633433      3.528824832      3.086619546
H       1.247387644      1.856577819      3.396374546
H       4.171178539      3.368706797      3.164364797
H       3.970271085      1.599517922      2.327875668
           6
  t=       108.50000    1    1
C       2.075671735      2.717869014      2.849988520
C       3.358968857      2.750372723      2.476330194
H       1.409373492      3.561177367      3.168729376
H       1.229343416      1.852380395      3.437320207
H       4.164882773      3.441537028      3.168351747
H       4.003768552      1.551885477      2.323846105
           6
  t=       109.00000    1    1
C       2.084048972      2.731404482      2.853828834
C       3.378121794      2.761350790      2.493738836
H       1.434581528      3.594475308      3.249401110
H       1.220038413      1.851881646      3.469595997
H       4.151855426      3.511737133      3.163717868
H       4.030979181      1.514917744      2.320464426
           6
  t=       109.50000    1    1
C       2.091383904      2.744766592      2.858536751
C       3.398169236      2.771592700      2.511882367
H       1.465030600      3.627169938      3.327405611
H       1.219625149      1.855404603      3.492994867
H       4.132530908      3.577698090      3.150526259
H       4.052115326      1.489608245      2.318089857
           6
  t=       110.00000    1    1
C       2.097758156      2.758028976      2.864197470
C       3.418903699      2.781175660      2.530722192
H       1.501118376      3.657981457      3.401536688
H       1.228045548      1.863154523      3.507493244
H       4.107704904      3.638187359      3.129191251
H       4.067541437      1.476466705      2.316982505
           6
  t=       110.50000    1    1
C       2.103274872      2.771236895      2.870901493
C       3.440108819      2.790148501      2.550205046
H       1.542933153      3.685886755      3.470628011
H       1.245294393      1.875419868      3.513014429
H       4.078367891      3.692370127      3.100329537
H       4.077533046      1.475941451      2.317325018
           6
  t=       111.00000    1    1
C       2.108056825      2.784413091      2.878742693
C       3.461568477      2.798524406      2.570261214
H       1.590299448      3.710086480      3.533612721
H       1.271364107      1.892532781      3.509428487
H       4.045646838      3.739830469      3.064698849
H       4.082258484      1.488487515      2.319268579
           6
  t=       111.50000    1    1
C       2.112240216      2.797569547      2.887816624
C       3.483076827      2.806278440      2.590805429
H       1.642858402      3.729962284      3.589512000
H       1.306161907      1.914762127      3.496603938
H       4.010760899      3.780493811      3.023116290
H       4.081780155      1.514683303      2.322983833
           6
  t=       112.00000    1    1
C       2.115979666      2.810720620      2.898211916
C       3.504437909      2.813352387      2.611740687
H       1.700094748      3.745063502      3.637448805
H       1.349404932      1.942180330      3.474493116
H       3.974992716      3.814565411      2.976395661
H       4.076106102      1.555224389      2.328681447
           6
  t=       112.50000    1    1
C       2.119487258      2.823899422      2.909994953
C       3.525431973      2.819683038      2.632966212
H       1.761257157      3.755146923      3.676697524
H       1.400435392      1.974478511      3.443269873
H       3.939672439      3.842501157      2.925324469
H       4.065406655      1.610565612      2.336535486
           6
  t=       113.00000    1    1
C       2.123128175      2.837180116      2.923146181
C       3.545749445      2.825271783      2.654391083
H       1.825101991      3.760319990      3.706966209
H       1.457689772      2.010593981      3.403813444
H       3.906157019      3.865081535      2.870744311
H       4.050469405      1.679981470      2.346433460
           6
  t=       113.50000    1    1
C       2.127335714      2.850715277      2.937575877
C       3.565068649      2.830190351      2.675919560
H       1.890119604      3.760841974      3.728259509
H       1.518603365      2.048435427      3.357810775
H       3.875785586      3.883175599      2.813522594
H       4.032699528      1.761762221      2.358026260
           6
  t=       114.00000    1    1
C       2.132587469      2.864730524      2.953115588
C       3.583081658      2.834604872      2.697499155
H       1.954767274      3.757168120      3.741008107
H       1.579753475      2.084780613      3.307517627
H       3.849642254      3.897717364      2.754321255
H       4.013956613      1.853072872      2.370598196
           6
  t=       114.50000    1    1
C       2.139424648      2.879596250      2.969522853
C       3.599478308      2.838847089      2.719155891
H       2.017597272      3.750003357      3.745985279
H       1.636501121      2.114360902      3.255747831
H       3.828487499      3.909510260      2.693571766
H       3.996813895      1.949307296      2.382709655
           6
  t=       115.00000    1    1
C       2.148415319      2.895810807      2.986529645
C       3.613891136      2.843526656      2.741030752
H       2.077168723      3.740442124      3.744400211
H       1.683472844      2.129956463      3.205266243
H       3.812867342      3.919025566      2.631621727
H       3.985149297      2.042916938      2.391552839
           6
  t=       115.50000    1    1
C       2.159971596      2.913731713      3.003952424
C       3.625849226      2.849547237      2.763435622
H       2.131969428      3.730140678      3.737976102
H       1.716935216      2.125479689      3.157369421
H       3.803261787      3.926620799      2.568921059
H       3.984429150      2.122947835      2.392128741
           6
  t=       116.00000    1    1
C       2.174184589      2.933195682      3.021636731
C       3.634985724      2.857945461      2.786657427
H       2.180887023      3.721155768      3.729312919
H       1.736045908      2.099679872      3.112018033
H       3.800012798      3.932165218      2.506728193
H       3.999551818      2.178318184      2.379039868
           6
  t=       116.50000    1    1
C       2.190802427      2.953381640      3.039436081
C       3.641325733      2.869200263      2.810687951
H       2.223313100      3.716024641      3.721580995
H       1.743083357      2.058082561      3.068355763
H       3.803146786      3.935317847      2.446721298
H       4.031522986      2.205382994      2.350137399
           6
  t=       117.00000    1    1
C       2.209395629      2.973231019      3.057165975
C       3.645300064      2.883047057      2.835149732
H       2.259323849      3.717356976      3.717784660
H       1.741792754      2.009477838      3.025801702
H       3.811996398      3.935678699      2.390441383
H       4.077172747      2.208908762      2.308153048
           6
  t=       117.50000    1    1
C       2.229536206      2.991884318      3.074596274
C       3.647597391      2.898680397      2.859385087
H       2.288987232      3.727791447      3.720475981
H       1.735985817      1.961637063      2.984631523
H       3.825429356      3.933149984      2.339212429
H       4.130647495      2.198422212      2.259514098
           6
  t=       118.00000    1    1
C       2.250867415      3.008743407      3.091527675
C       3.648921753      2.915357839      2.882692441
H       2.312042510      3.749104443      3.731320002
H       1.728585401      1.920338497      2.945800364
H       3.842538711      3.927824940      2.294322752
H       4.186053787      2.182249307      2.211046595
           6
  t=       118.50000    1    1
C       2.273124973      3.023544995      3.107892252
C       3.649826869      2.932611841      2.904564569
H       2.328040912      3.781475610      3.750502528
H       1.721455260      1.888983580      2.910234216
H       3.862585946      3.919977517      2.256791681
H       4.239266319      2.165243371      2.167472758
           6
  t=       119.00000    1    1
C       2.296078981      3.036331882      3.123764720
C       3.650760099      2.950168672      2.924679006
H       2.336534944      3.823315838      3.776729118
H       1.715716747      1.869095398      2.878619889
H       3.884936809      3.909995275      2.227359462
H       4.287654285      2.149834572      2.131612078
           6
  t=       119.50000    1    1
C       2.319500652      3.047357144      3.139308709
C       3.652076264      2.967871116      2.942867272
H       2.337403117      3.871627636      3.807574943
H       1.712122979      1.861090826      2.851492041
H       3.908978208      3.898288798      2.206606255
H       4.329697394      2.137050685      2.104832343
           6
  t=       120.00000    1    1
C       2.343124017      3.056941724      3.154713648
C       3.654070297      2.985641203      2.959064808
H       2.330965363      3.922880993      3.840240415
H       1.711267546      1.864973987      2.829313666
H       3.934208061      3.885207296      2.194987189
H       4.364639065      2.127173220      2.087527118
           6
  t=       120.50000    1    1
C       2.366642928      3.065376496      3.170154291
C       3.657004111      3.003446634      2.973250921
H       2.317911741      3.973848837      3.872185813
H       1.713610222      1.880596046      2.812501612
H       3.960295638      3.871161128      2.192884029
H       4.392187278      2.120086635      2.079601756
           6
  t=       121.00000    1    1
C       2.389731360      3.072918697      3.185771270
C       3.661104710      3.021263760      2.985459084
H       2.299266667      4.021914689      3.901379382
H       1.719432078      1.907510634      2.801361315
H       3.987058629      3.856640770      2.200397428
H       4.412398775      2.115579929      2.080607353
           6
  t=       121.50000    1    1
C       2.412055758      3.079789150      3.201686799
C       3.666590814      3.039052464      2.995721810
H       2.276189216      4.064914934      3.926203131
H       1.728881344      1.945182121      2.796131533
H       4.014440020      3.842289643      2.217414689
H       4.425391594      2.113555693      2.090192152
           6
  t=       122.00000    1    1
C       2.433303598      3.086176835      3.218001665
C       3.673662683      3.056739147      3.004074586
H       2.249805806      4.101160860      3.945479315
H       1.741999121      1.993015670      2.796989356
H       4.042499380      3.828966182      2.243527743
H       4.431276341      2.114064218      2.108141097
           6
  t=       122.50000    1    1
C       2.453208116      3.092234690      3.234787337
C       3.682481310      3.074208048      3.010566199
H       2.221094866      4.129503650      3.958502142
H       1.758767630      2.050393219      2.804075802
H       4.071465538      3.817812942      2.277975243
H       4.430123858      2.117286810      2.134347368
           6
  t=       123.00000    1    1
C       2.471558350      3.098086807      3.252089715
C       3.693149912      3.091296132      3.015263510
H       2.190892226      4.149204628      3.964906587
H       1.779150790      2.116688879      2.817530000
H       4.101840937      3.810325718      2.319633281
H       4.421915850      2.123556286      2.168817152
           6
  t=       123.50000    1    1
C       2.488209495      3.103848299      3.269932910
C       3.705685414      3.107794510      3.018274445
H       2.159998047      4.159829738      3.964526486
H       1.803064509      2.191096877      2.837450975
H       4.134527610      3.808353756      2.367000017
H       4.406557961      2.133380632      2.211546109
           6
  t=       124.00000    1    1
C       2.503113093      3.109668970      3.288331482
C       3.719994507      3.123459818      3.019767157
H       2.129265545      4.161242869      3.957366043
H       1.830113840      2.272149809      2.863649006
H       4.170821514      3.813971274      2.418254596
H       4.383985228      2.147403973      2.262363480
           6
  t=       124.50000    1    1
C       2.516362118      3.115788031      3.307320436
C       3.735887322      3.138056560      3.019937248
H       2.099596788      4.153751490      3.943701011
H       1.859059818      2.356986998      2.895186264
H       4.212109352      3.829112829      2.471739735
H       4.354302390      2.166200715      2.320840768
           6
  t=       125.00000    1    1
C       2.528202251      3.122575951      3.326991082
C       3.753142940      3.151399773      3.018959951
H       2.071885852      4.137813327      3.923893507
H       1.887348530      2.441197161      2.930206843
H       4.259435362      3.855165545      2.526497401
H       4.317830024      2.190126833      2.386253759
           6
  t=       125.50000    1    1
C       2.539092767      3.130528727      3.347492435
C       3.771510713      3.163434862      3.016988148
H       2.046894398      4.114181621      3.898456550
H       1.910723586      2.518778368      2.965807908
H       4.313041499      3.892263873      2.582629732
H       4.275334943      2.219036973      2.457292822
           6
  t=       126.00000    1    1
C       2.549651488      3.140166771      3.369007354
C       3.790752231      3.174310085      3.014173341
H       2.025172483      4.084037970      3.868288747
H       1.923534807      2.583104943      2.998190646
H       4.372056647      3.938857787      2.640922221
H       4.228267446      2.251957588      2.532088550
           6
  t=       126.50000    1    1
C       2.560493596      3.151864839      3.391665287
C       3.810642954      3.184411103      3.010707113
H       2.007073760      4.049147719      3.834629796
H       1.920397777      2.628641267      3.023775883
H       4.434652503      3.991959604      2.702423619
H       4.178831854      2.286585743      2.608106358
           6
  t=       127.00000    1    1
C       2.571984177      3.165604386      3.415369822
C       3.830910038      3.194398937      3.006895257
H       1.992491196      4.012270841      3.799182196
H       1.899595485      2.653545455      3.041073878
H       4.498328018      4.047673565      2.767821615
H       4.130254110      2.318243588      2.681950870
           6
  t=       127.50000    1    1
C       2.584101232      3.180945821      3.439759278
C       3.851246313      3.205150541      3.003122345
H       1.980653342      3.977071518      3.763956103
H       1.864656898      2.660113635      3.051425925
H       4.560493105      4.102023760      2.837128589
H       4.086289055      2.339735238      2.749985508
           6
  t=       128.00000    1    1
C       2.596590978      3.197237227      3.464341385
C       3.871399900      3.217563774      2.999726989
H       1.970036889      3.947750891      3.731006290
H       1.822080466      2.652582506      3.057789982
H       4.619072226      4.151730071      2.909756324
H       4.050062402      2.342972417      2.809616692
           6
  t=       128.50000    1    1
C       2.609189845      3.213849099      3.488648666
C       3.891257381      3.232180424      2.996895007
H       1.958556718      3.928362715      3.702065046
H       1.778357991      2.635149934      3.063241479
H       4.672598988      4.194382142      2.984736799
H       4.023125912      2.323159063      2.860360899
           6
  t=       129.00000    1    1
C       2.621709431      3.230310492      3.512333715
C       3.910843858      3.248870442      2.994670362
H       1.944188313      3.921836869      3.678069415
H       1.738744468      2.611340915      3.070256835
H       4.719949920      4.228221991      3.060936780
H       4.005318418      2.282759534      2.903553595
           6
  t=       129.50000    1    1
C       2.633978931      3.246378760      3.535195973
C       3.930249811      3.267030043      2.993074232
H       1.925967285      3.929223538      3.659027704
H       1.706811696      2.583704351      3.080589397
H       4.760314230      4.252109994      3.137218823
H       3.995800430      2.229400154      2.940708036
           6
  t=       130.00000    1    1
C       2.645669007      3.261999913      3.557146791
C       3.949635141      3.286038989      2.992153915
H       1.904858470      3.949446238      3.644056978
H       1.684869726      2.554105164      3.095907587
H       4.793271314      4.265345524      3.212619818
H       3.993736622      2.171027000      2.972494566
           6
  t=       130.50000    1    1
C       2.656405612      3.277301796      3.578068674
C       3.969104248      3.305274980      2.991991539
H       1.883225312      3.979794554      3.633428867
H       1.674291613      2.524189361      3.116749930
H       4.818391050      4.267494694      3.285821693
H       3.999033642      2.115030128      2.999842534
           6
  t=       131.00000    1    1
C       2.665986413      3.292472825      3.597773649
C       3.988551596      3.324130872      2.992753070
H       1.863632011      4.017201045      3.628498736
H       1.675993474      2.495608377      3.142525486
H       4.835513564      4.258790038      3.355197277
H       4.012039497      2.067582436      3.023876892
           6
  t=       131.50000    1    1
C       2.674483689      3.307626910      3.616170495
C       4.007750556      3.342286078      2.994599717
H       1.847862010      4.058965356      3.629374992
H       1.689908782      2.469658932      3.172696460
H       4.845148433      4.240106980      3.419748597
H       4.032366899      2.031674836      3.045191065
           6
  t=       132.00000    1    1
C       2.681973518      3.322840740      3.633219548
C       4.026536217      3.359601943      2.997678932
H       1.837316045      4.103107205      3.635720103
H       1.715599942      2.447196071      3.206983534
H       4.847811119      4.212394001      3.478737957
H       4.059595738      2.008222444      3.063855213
           6
  t=       132.50000    1    1
C       2.688499992      3.338142460      3.648912995
C       4.044828648      3.376010642      3.002104076
H       1.833087964      4.148048773      3.646932310
H       1.752481114      2.428921236      3.245408954
H       4.844112943      4.176781401      3.531666246
H       4.093033740      1.997444157      3.079690315
           6
  t=       133.00000    1    1
C       2.694134385      3.353543486      3.663250573
C       4.062542684      3.391427968      3.007944968
H       1.835967964      4.192275502      3.662547326
H       1.799810343      2.415565062      3.287857831
H       4.834961167      4.134706945      3.578298564
H       4.131890916      1.999553482      3.092681625
           6
  t=       133.50000    1    1
C       2.698966160      3.369048288      3.676237348
C       4.079575426      3.405734050      3.015245363
H       1.846389906      4.234582416      3.682217806
H       1.856736325      2.407756776      3.334108945
H       4.821630098      4.088006734      3.618693927
H       4.175470501      2.014665157      3.102756957
           6
  t=       134.00000    1    1
C       2.703117901      3.384658948      3.687898192
C       4.095800726      3.418789673      3.024009513
H       1.864463948      4.274025074      3.705586992
H       1.922227639      2.405945714      3.383816150
H       4.805768094      4.038855918      3.653329105
H       4.223087876      2.042733154      3.109795399
           6
  t=       134.50000    1    1
C       2.706745428      3.400375617      3.698277585
C       4.111070654      3.430454903      3.034199178
H       1.890082827      4.309775806      3.732205819
H       1.995096662      2.410469187      3.436575509
H       4.789285376      3.989544664      3.683133766
H       4.274033679      2.083623266      3.113645960
           6
  t=       135.00000    1    1
C       2.710050675      3.416199393      3.707427832
C       4.125204878      3.440595864      3.045750030
H       1.922969096      4.341057435      3.761500113
H       2.073945404      2.421506667      3.491960072
H       4.774401887      3.942425062      3.709476968
H       4.327506004      2.137163282      3.114083938
           6
  t=       135.50000    1    1
C       2.713306332      3.432127910      3.715427301
C       4.138008467      3.449139828      3.058545104
H       1.962556918      4.367239330      3.792817013
H       2.156877967      2.438788240      3.549328148
H       4.763718767      3.899935655      3.734184991
H       4.382438898      2.202709979      3.111037536
           6
  t=       136.00000    1    1
C       2.716869063      3.448170669      3.722364316
C       4.149299651      3.456137789      3.072429451
H       2.007938540      4.387970089      3.825477995
H       2.241434215      2.461225920      3.607956097
H       4.759885464      3.864368746      3.759379954
H       4.437466818      2.278689609      3.104580668
           6
  t=       136.50000    1    1
C       2.721149318      3.464394748      3.728311814
C       4.158937461      3.461795054      3.087271397
H       2.057991513      4.403242162      3.858933792
H       2.324745864      2.486647608      3.667216480
H       4.764875871      3.837561389      3.786916499
H       4.491395565      2.362199096      3.094735292
           6
  t=       137.00000    1    1
C       2.726546683      3.480924469      3.733345035
C       4.166896088      3.466498166      3.103004323
H       2.111408805      4.413613870      3.892843737
H       2.403809609      2.511682401      3.726625330
H       4.779173036      3.820419852      3.817506271
H       4.543598630      2.449057482      3.081511677
           6
  t=       137.50000    1    1
C       2.733405600      3.497888658      3.737499035
C       4.173226368      3.470765702      3.119676865
H       2.166779821      4.420226517      3.927151762
H       2.476068380      2.532399907      3.786061968
H       4.801939422      3.813153687      3.850525276
H       4.594171186      2.534130036      3.064713316
           6
  t=       138.00000    1    1
C       2.741955510      3.515328061      3.740761125
C       4.177982130      3.475214252      3.137409641
H       2.222743829      4.424722556      3.962086677
H       2.540070112      2.545624660      3.845887460
H       4.831406109      3.815442605      3.884665693
H       4.644319615      2.611437484      3.043772109
           6
  t=       138.50000    1    1
C       2.752313785      3.533082951      3.743096634
C       4.181196353      3.480422612      3.156373473
H       2.278035520      4.429180164      3.998135752
H       2.595580624      2.550396068      3.906600279
H       4.865196940      3.826546651      3.918317603
H       4.696128043      2.675608674      3.017689881
           6
  t=       139.00000    1    1
C       2.764527794      3.550788219      3.744485374
C       4.182940809      3.486753547      3.176745646
H       2.331554692      4.435884210      4.036013038
H       2.642996081      2.548157397      3.968350402
H       4.900828734      3.845550580      3.949887577
H       4.751364002      2.723858676      2.985324151
           6
  t=       139.50000    1    1
C       2.778574285      3.567985822      3.744962155
C       4.183451964      3.494248865      3.198616690
H       2.382538967      4.446830744      4.076518825
H       2.682847642      2.541887516      4.030707809
H       4.936068766      3.871441105      3.978041351
H       4.809950884      2.757185566      2.946145373
           6
  t=       140.00000    1    1
C       2.794347990      3.584281045      3.744640014
C       4.183167547      3.502696310      3.221923311
H       2.430756711      4.463093077      4.120251163
H       2.715652608      2.534915674      4.092717018
H       4.969078759      3.903148617      4.001805574
H       4.869479782      2.779488856      2.900891627
           6
  t=       140.50000    1    1
C       2.811666345      3.599454838      3.743705340
C       4.182623432      3.511798915      3.246483650
H       2.476564123      4.484433393      4.167303738
H       2.741934299      2.530026355      4.153107749
H       4.998410098      3.939638843      4.020457052
H       4.926309869      2.795404852      2.851408717
           6
  t=       141.00000    1    1
C       2.830300228      3.613475818      3.742402018
C       4.182331622      3.521306908      3.272067023
H       2.520685939      4.509454179      4.217123265
H       2.762169574      2.529131368      4.210566312
H       5.022909935      3.979909602      4.033393702
H       4.977021686      2.808771575      2.800008401
           6
  t=       141.50000    1    1
C       2.849989606      3.626448055      3.741015822
C       4.182726328      3.531052558      3.298430937
H       2.563955147      4.536042001      4.268572786
H       2.776849614      2.533416667      4.263870077
H       5.041714825      4.023014658      4.040197301
H       5.019079047      2.822221318      2.748952750
           6
  t=       142.00000    1    1
C       2.870464122      3.638536971      3.739845049
C       4.184161401      3.540941915      3.325345320
H       2.607088911      4.561930229      4.320195428
H       2.786482033      2.543567698      4.311925572
H       5.054250585      4.068113920      4.040647520
H       5.050836495      2.837323734      2.700199535
           6
  t=       142.50000    1    1
C       2.891456874      3.649912473      3.739184694
C       4.186928629      3.550939871      3.352595794
H       2.650566176      4.585134943      4.370486086
H       2.791462588      2.559915367      4.353778345
H       5.060179602      4.114402967      4.034589939
H       5.071460379      2.854930010      2.655402086
           6
  t=       143.00000    1    1
C       2.912689832      3.660729303      3.739300732
C       4.191281772      3.561043355      3.379979906
H       2.694605653      4.604141685      4.418099168
H       2.792170923      2.582567912      4.388735146
H       5.059377493      4.161059477      4.022031561
H       5.080765933      2.875461421      2.615835342
           6
  t=       143.50000    1    1
C       2.933878055      3.671113709      3.740442164
C       4.197458344      3.571266402      3.407290201
H       2.739219872      4.617927536      4.461869719
H       2.788897139      2.611475474      4.416265114
H       5.051899287      4.207358960      4.003214260
H       5.078960642      2.899043702      2.582458203
           6
  t=       144.00000    1    1
C       2.954736508      3.681169121      3.742831477
C       4.205660570      3.581626822      3.434310893
H       2.784294086      4.625948839      4.500874607
H       2.781902921      2.646384153      4.435971261
H       5.038064091      4.252752885      3.978646277
H       5.066565157      2.925578262      2.556002705
           6
  t=       144.50000    1    1
C       2.974999830      3.690978870      3.746662946
C       4.216047152      3.592138683      3.460812554
H       2.829607728      4.628061581      4.534438674
H       2.771401610      2.686848151      4.447568824
H       5.018467053      4.296898709      3.949066373
H       5.044262492      2.954836877      2.537108885
           6
  t=       145.00000    1    1
C       2.994440689      3.700614478      3.752098926
C       4.228723599      3.602805765      3.486552562
H       2.874832036      4.624398612      4.562121216
H       2.757544625      2.732243147      4.450899353
H       4.993994066      4.339688728      3.915391366
H       5.012795715      2.986521458      2.526415507
           6
  t=       145.50000    1    1
C       3.012889641      3.710148546      3.759262541
C       4.243722572      3.613614249      3.511282610
H       2.919498595      4.615303774      4.583709143
H       2.740397555      2.781690305      4.445985738
H       4.965884481      4.381308772      3.878651362
H       4.972958139      3.020280742      2.524574289
           6
  t=       146.00000    1    1
C       3.030248250      3.719670399      3.768222296
C       4.260985602      3.624521559      3.534764725
H       2.962981770      4.601361493      4.599191500
H       2.719921961      2.833889374      4.433186561
H       4.935784304      4.422287721      3.839953575
H       4.925637462      3.055744622      2.532149744
           6
  t=       146.50000    1    1
C       3.046498331      3.729290311      3.778991638
C       4.280358300      3.635458321      3.556794619
H       3.004615660      4.583472634      4.608731250
H       2.695890616      2.886990528      4.413194093
H       4.905575702      4.463519595      3.800377343
H       4.871901016      3.092480669      2.549481283
           6
  t=       147.00000    1    1
C       3.061709416      3.739133067      3.791534579
C       4.301607813      3.646348805      3.577215120
H       3.043798413      4.562882807      4.612715600
H       2.667740988      2.938652819      4.387001770
H       4.877007681      4.506126099      3.760909651
H       4.813110201      3.129878046      2.576502903
           6
  t=       147.50000    1    1
C       3.076056422      3.749323555      3.805739485
C       4.324434387      3.657140079      3.595942477
H       3.079913684      4.541164184      4.611985861
H       2.634527271      2.986361960      4.356028155
H       4.851325908      4.551101071      3.722456660
H       4.751069066      3.167027581      2.612376721
           6
  t=       148.00000    1    1
C       3.089803978      3.759969410      3.821459793
C       4.348503168      3.667851978      3.612971057
H       3.112136039      4.520224545      4.607961424
H       2.594931722      3.027686686      4.321753115
H       4.829193887      4.598928804      3.685791481
H       4.688094025      3.202449581      2.655243893
           6
  t=       148.50000    1    1
C       3.103245689      3.771116032      3.838545988
C       4.373458071      3.678599601      3.628415911
H       3.139410636      4.502440182      4.602619591
H       2.547780422      3.060735933      4.285215137
H       4.810889601      4.649309352      3.651573020
H       4.626880377      3.234046325      2.701840372
           6
  t=       149.00000    1    1
C       3.116616322      3.782704587      3.856904038
C       4.398964883      3.689598871      3.642527593
H       3.160714107      4.490358057      4.598247685
H       2.492708278      3.084825478      4.246361646
H       4.796379415      4.701181214      3.620268400
H       4.570035178      3.259144730      2.747599226
           6
  t=       149.50000    1    1
C       3.130014819      3.794585811      3.876523010
C       4.424771027      3.701118166      3.655622921
H       3.175076354      4.486083328      4.597102882
H       2.430729971      3.100878128      4.204089849
H       4.785474921      4.753065871      3.592157861
H       4.519532908      3.274776050      2.787441030
           6
  t=       150.00000    1    1
C       3.143428295      3.806577172      3.897475879
C       4.450712273      3.713347800      3.667868376
H       3.181070098      4.490805288      4.601139667
H       2.364548069      3.111456537      4.156851987
H       4.777925063      4.803518178      3.567474476
H       4.476459772      3.278540769      2.817872678
           6
  t=       150.50000    1    1
C       3.156812468      3.818414978      3.919655951
C       4.476558363      3.726387422      3.679428976
H       3.177982257      4.505454889      4.612261508
H       2.298117419      3.120011328      4.104082441
H       4.773190101      4.850797516      3.546173178
H       4.441385103      3.269752564      2.836906411
           6
  t=       151.00000    1    1
C       3.170053119      3.829914002      3.942924055
C       4.502088897      3.740265242      3.690353630
H       3.165965975      4.530095755      4.631227011
H       2.235225357      3.129405706      4.046179056
H       4.770747204      4.892927394      3.528084608
H       4.414878436      3.249332097      2.844630684
           6
  t=       151.50000    1    1
C       3.183044362      3.841043907      3.967181553
C       4.527084055      3.754933468      3.700520741
H       3.145820502      4.563382910      4.657274259
H       2.178687082      3.141425648      3.984118534
H       4.770360599      4.928239256      3.513096063
H       4.397442129      3.219437876      2.843567672
           6
  t=       152.00000    1    1
C       3.195702206      3.851909442      3.992335233
C       4.551300795      3.770292628      3.709732875
H       3.118889134      4.602663845      4.688465309
H       2.130732054      3.157028587      3.919260539
H       4.772151946      4.955653265      3.501331883
H       4.389278544      3.182781931      2.837634539
           6
  t=       152.50000    1    1
C       3.207936863      3.862705583      4.018255536
C       4.574502371      3.786206230      3.717811548
H       3.086689484      4.644742386      4.722558454
H       2.093364937      3.176644885      3.853344990
H       4.776443251      4.974603106      3.493167878
H       4.390434310      3.141999509      2.830627824
           6
  t=       153.00000    1    1
C       3.219679384      3.873617522      4.044764362
C       4.596507808      3.802498632      3.724681103
H       3.050440195      4.687130921      4.757756555
H       2.068093916      3.200314476      3.788361029
H       4.783612556      4.985043590      3.488971877
H       4.400782545      3.099469703      2.825011370
           6
  t=       153.50000    1    1
C       3.230985345      3.884695988      4.071619011
C       4.617235045      3.818964721      3.730479685
H       3.011355225      4.728425219      4.792517439
H       2.055299681      3.227868266      3.726042011
H       4.793651277      4.987526506      3.488399557
H       4.419052801      3.058053606      2.822184146
           6
  t=       154.00000    1    1
C       3.241937351      3.895986255      4.098726790
C       4.636583910      3.835412555      3.735284475
H       2.970575817      4.767213234      4.825429340
H       2.055006543      3.259399218      3.667224565
H       4.806294780      4.982665542      3.490797318
H       4.444553446      3.020204293      2.823559765
           6
  t=       154.50000    1    1
C       3.252583139      3.907552954      4.125944630
C       4.654431172      3.851666614      3.739173808
H       2.929482877      4.801968163      4.855222040
H       2.067229431      3.294735983      3.613024075
H       4.821738675      4.971485383      3.495796259
H       4.476592615      2.987916519      2.830433265
           6
  t=       155.00000    1    1
C       3.262946348      3.919440336      4.153127689
C       4.670674334      3.867565379      3.742255987
H       2.889513702      4.831422796      4.880924318
H       2.091725272      3.333587649      3.564453385
H       4.840435112      4.955519300      3.502972535
H       4.514463573      2.962612489      2.843622271
           6
  t=       155.50000    1    1
C       3.273032581      3.931674241      4.180140940
C       4.685226738      3.882943154      3.744652033
H       2.852004640      4.854642586      4.901883279
H       2.128090457      3.375603278      3.522398360
H       4.863054966      4.936797373      3.511840607
H       4.557528519      2.945214080      2.863546250
           6
  t=       156.00000    1    1
C       3.282834246      3.944266916      4.206858077
C       4.698014298      3.897616276      3.746487070
H       2.818109163      4.871023574      4.917734457
H       2.175849728      3.420381693      3.487648908
H       4.890479727      4.917814013      3.521863132
H       4.605201036      2.936274532      2.890331196
           6
  t=       156.50000    1    1
C       3.292335360      3.957220567      4.233155877
C       4.708969303      3.911385964      3.747887552
H       2.788802054      4.880252189      4.928360543
H       2.234535278      3.467471704      3.460928024
H       4.923780552      4.901387234      3.532480021
H       4.656900222      2.936082955      2.923892990
           6
  t=       157.00000    1    1
C       3.301526736      3.970531759      4.258903729
C       4.718048058      3.924077227      3.748988905
H       2.764884442      4.882306654      4.933885194
H       2.303601766      3.516331980      3.442868045
H       4.964001644      4.890169861      3.543205683
H       4.711956230      2.944675645      2.963903881
           6
  t=       157.50000    1    1
C       3.310431056      3.984190453      4.283956881
C       4.725229050      3.935604998      3.749928004
H       2.747004967      4.877429933      4.934642328
H       2.382328850      3.566319287      3.433983460
H       5.011954680      4.885902942      3.553811968
H       4.769615163      2.961845138      3.009837444
           6
  t=       158.00000    1    1
C       3.319130046      3.998171142      4.308166083
C       4.730565508      3.946058947      3.750851031
H       2.735569091      4.866265088      4.931262953
H       2.469384502      3.616605937      3.434399731
H       5.067811887      4.888688722      3.564443225
H       4.829023261      2.986909222      3.060829448
           6
  t=       158.50000    1    1
C       3.327777641      4.012430981      4.331388006
C       4.734195056      3.955723562      3.751916981
H       2.730678994      4.849894426      4.924685310
H       2.562701883      3.666144275      3.443714413
H       5.130897544      4.896904744      3.575625309
H       4.889346804      3.018576382      3.115631533
           6
  t=       159.00000    1    1
C       3.336582920      4.026917231      4.353497915
C       4.736289197      3.965019853      3.753297498
H       2.732176824      4.829652768      4.916031241
H       2.659848423      3.713749510      3.461077335
H       5.199893838      4.907936241      3.588081138
H       4.949959102      3.054923158      3.172690176
           6
  t=       159.50000    1    1
C       3.345806943      4.041568770      4.374422498
C       4.737042764      3.974448022      3.755172608
H       2.739503274      4.807137199      4.906561384
H       2.758109703      3.758077289      3.485006816
H       5.273014617      4.918959974      3.602594061
H       5.010487797      3.093288119      3.230171514
           6
  t=       160.00000    1    1
C       3.355762858      4.056302013      4.394184520
C       4.736677916      3.984533287      3.757720126
H       2.751618495      4.784370954      4.897776156
H       2.854247649      3.797541621      3.512836468
H       5.348210702      4.927506185      3.619819632
H       5.070881424      3.130441418      3.286195900
           6
  t=       160.50000    1    1
C       3.366818771      4.071006524      4.412949238
C       4.735432722      3.995749207      3.761096795
H       2.766891671      4.763996795      4.891533232
H       2.944486401      3.830216109      3.540093740
H       5.423369899      4.931762023      3.640161022
H       5.131435878      3.163152696      3.339138212
           6
  t=       161.00000    1    1
C       3.379360319      4.085559625      4.430968756
C       4.733559632      4.008427145      3.765423885
H       2.783126922      4.749045375      4.889948026
H       3.025013861      3.853994521      3.561102392
H       5.496530706      4.930714158      3.663777177
H       5.192517401      3.189024239      3.387951311
           6
  t=       161.50000    1    1
C       3.393684972      4.099839254      4.448451012
C       4.731364265      4.022702323      3.770763320
H       2.797968745      4.742240976      4.894919317
H       3.092916303      3.867132272      3.570968975
H       5.565993977      4.924025936      3.690643061
H       5.253908157      3.207256188      3.432439317
           6
  t=       162.00000    1    1
C       3.409943007      4.113730218      4.465460602
C       4.729252752      4.038538981      3.777144327
H       2.809467816      4.745459289      4.907648381
H       3.146293298      3.868624705      3.567135523
H       5.630255123      4.911851885      3.720570934
H       5.314332494      3.218621694      3.473028683
           6
  t=       162.50000    1    1
C       3.428074536      4.127147825      4.481860581
C       4.727609965      4.055754249      3.784546404
H       2.816752404      4.759227416      4.928271372
H       3.185418015      3.858603175      3.550823402
H       5.688169039      4.894766486      3.753344518
H       5.371661708      3.225075987      3.510454292
           6
  t=       163.00000    1    1
C       3.447861281      4.140056071      4.497387947
C       4.726745461      4.074098249      3.792931364
H       2.820320868      4.782618369      4.955809278
H       3.212022033      3.838294101      3.526124897
H       5.738831570      4.873619450      3.788745834
H       5.423482336      3.228876425      3.545409682
           6
  t=       163.50000    1    1
C       3.468988207      4.152474016      4.511785101
C       4.726904056      4.093324815      3.802275113
H       2.821897454      4.813427006      4.988224810
H       3.228079112      3.809716031      3.498269037
H       5.781536076      4.849464492      3.826512912
H       5.467639745      3.231861987      3.578321668
           6
  t=       164.00000    1    1
C       3.491104944      4.164462924      4.524889996
C       4.728272394      4.113222444      3.812574969
H       2.823825081      4.848779127      5.022909928
H       3.235305382      3.775203940      3.472036922
H       5.815746955      4.823479307      3.866306986
H       5.502561366      3.235184413      3.609318800
           6
  t=       164.50000    1    1
C       3.513867737      4.176107305      4.536647090
C       4.730996429      4.133606810      3.823838862
H       2.828356537      4.885917887      5.057495930
H       3.235184329      3.736870480      3.450854036
H       5.841065918      4.796866768      3.907725698
H       5.527266165      3.239474403      3.638313989
           6
  t=       165.00000    1    1
C       3.536961152      4.187481753      4.547051467
C       4.735213665      4.154315536      3.836074135
H       2.837178121      4.922709713      5.090277761
H       3.228972746      3.696411699      3.437040524
H       5.857227146      4.770778557      3.950382241
H       5.541197008      3.245063762      3.665050028
           6
  t=       165.50000    1    1
C       3.560094488      4.198643666      4.556131114
C       4.741065080      4.175208677      3.849268868
H       2.851362318      4.957580304      5.120085837
H       3.217662066      3.655182144      3.432238203
H       5.864163913      4.746249803      3.993974326
H       5.544140784      3.252120757      3.689165537
           6
  t=       166.00000    1    1
C       3.582992443      4.209639475      4.563941034
C       4.748693250      4.196167145      3.863386026
H       2.871535763      4.989318815      5.146133975
H       3.201999932      3.614288158      3.437612535
H       5.861994311      4.724181840      4.038286559
H       5.536186625      3.260714303      3.710282503
           6
  t=       166.50000    1    1
C       3.605396269      4.220508151      4.570561992
C       4.758201832      4.217078921      3.878360499
H       2.898002827      5.016955407      5.167918685
H       3.182766614      3.574769050      3.453963825
H       5.851077287      4.705397925      4.083152540
H       5.517738946      3.270822076      3.728083997
           6
  t=       167.00000    1    1
C       3.627076252      4.231280692      4.576098598
C       4.769614518      4.237828106      3.894104447
H       2.930825807      5.039726480      5.185137963
H       3.160924664      3.537671747      3.481740392
H       5.832178258      4.690751395      4.128462736
H       5.489462401      3.282319067      3.742333407
           6
  t=       167.50000    1    1
C       3.647837439      4.241974974      4.580663856
C       4.782892593      4.258303818      3.910525787
H       2.969872107      5.057078460      5.197657365
H       3.137275720      3.503896936      3.521022188
H       5.806638826      4.681242473      4.174213126
H       5.452130617      3.294966185      3.752839960
           6
  t=       168.00000    1    1
C       3.667516372      4.252590996      4.584364442
C       4.797945174      4.278410069      3.927536867
H       3.014811277      5.068689286      5.205524228
H       3.112335724      3.474139781      3.571591385
H       5.776432987      4.678002764      4.220523933
H       5.406614784      3.308402498      3.759427227
           6
  t=       168.50000    1    1
C       3.685957150      4.263107108      4.587287690
C       4.814609985      4.298052267      3.945050017
H       3.065173967      5.074454477      5.208907617
H       3.086775591      3.449151020      3.633262027
H       5.744090548      4.682185333      4.267679134
H       5.353974818      3.322213751      3.761832130
           6
  t=       169.00000    1    1
C       3.703005658      4.273475002      4.589504834
C       4.832626363      4.317131882      3.962966732
H       3.120293421      5.074624007      5.208194595
H       3.061588521      3.429835252      3.705847193
H       5.712724188      4.694850284      4.316153675
H       5.295713947      3.335934965      3.759704535
           6
  t=       169.50000    1    1
C       3.718497226      4.283622855      4.591091518
C       4.851681599      4.335550399      3.981142557
H       3.179275521      5.069943376      5.204140764
H       3.037942508      3.417073433      3.788990455
H       5.685790628      4.716878105      4.366751704
H       5.233789863      3.349088912      3.752661057
           6
  t=       170.00000    1    1
C       3.732254500      4.293446761      4.592107101
C       4.871521151      4.353211361      3.999389151
H       3.241009508      5.061702488      5.197925886
H       3.017099157      3.411640509      3.882346840
H       5.666300207      4.748847824      4.420608451
H       5.170187730      3.361419128      3.740268571
           6
  t=       170.50000    1    1
C       3.744248929      4.302834273      4.592616834
C       4.891944539      4.370074189      4.017519972
H       3.303878945      5.051888107      5.191086662
H       3.000290517      3.413827376      3.985123496
H       5.655545930      4.790148025      4.478658266
H       5.106727977      3.373082799      3.722294154
           6
  t=       171.00000    1    1
C       3.754646574      4.311673810      4.592700095
C       4.912817998      4.386123583      4.035438333
H       3.365753648      5.042933975      5.185267421
H       2.988381916      3.423672441      4.095951733
H       5.652794964      4.839159020      4.540781653
H       5.045023460      3.384739328      3.698787909
           6
  t=       171.50000    1    1
C       3.763762245      4.319848571      4.592353962
C       4.933933654      4.401322539      4.053180139
H       3.424412228      5.037683965      5.183460270
H       2.981537431      3.441250384      4.212325512
H       5.656567615      4.894168327      4.605047556
H       4.987336983      3.397015358      3.670801802
           6
  t=       172.00000    1    1
C       3.771838101      4.327304110      4.591592766
C       4.955179406      4.415669399      4.070780549
H       3.478353588      5.039140496      5.189091796
H       2.979447009      3.465882607      4.331585524
H       5.664713655      4.953278495      4.669273373
H       4.936080183      3.410153024      3.639161463
           6
  t=       172.50000    1    1
C       3.779017346      4.334155538      4.590534050
C       4.976522849      4.429171711      4.088250623
H       3.527165092      5.049195575      5.204716565
H       2.981476571      3.496124509      4.451233709
H       5.674475596      5.013844152      4.730922461
H       4.893737018      3.424888714      3.604814627
           6
  t=       173.00000    1    1
C       3.785413781      4.340678175      4.589422726
C       4.997931642      4.441828033      4.105619611
H       3.571147211      5.067872851      5.230595470
H       2.987169914      3.530208269      4.569354858
H       5.683430385      5.073169323      4.787629322
H       4.861915641      3.442399138      3.568514278
           6
  t=       173.50000    1    1
C       3.791180775      4.347225264      4.588599614
C       5.019312218      4.453628053      4.122932247
H       3.610594885      5.093775056      5.264881262
H       2.996141095      3.566405431      4.684599942
H       5.690147123      5.129065954      4.837550743
H       4.841425365      3.463911841      3.530705786
           6
  t=       174.00000    1    1
C       3.796513770      4.354151885      4.588400930
C       5.040511013      4.464615420      4.140223561
H       3.646023972      5.124443099      5.304754426
H       3.007618934      3.603246188      4.796022002
H       5.694012431      5.179982254      4.879372479
H       4.832635866      3.490156351      3.492046206
           6
  t=       174.50000    1    1
C       3.801598661      4.361763389      4.589130540
C       5.061355793      4.474840026      4.157492033
H       3.677950215      5.157140280      5.347297961
H       3.020873792      3.639706536      4.902894120
H       5.694896544      5.224899171      4.912183740
H       4.835728057      3.521679495      3.453487611
           6
  t=       175.00000    1    1
C       3.806581052      4.370275489      4.591055835
C       5.081696158      4.484335334      4.174693542
H       3.706582729      5.189554774      5.389925928
H       3.035601021      3.675238347      5.004596358
H       5.692967291      5.263165498      4.935454379
H       4.850686748      3.559023321      3.416105600
           6
  t=       175.50000    1    1
C       3.811561367      4.379797721      4.594402805
C       5.101404400      4.493130249      4.191769358
H       3.731961267      5.220028338      5.430605700
H       3.051948190      3.709723765      5.100345258
H       5.688587071      5.294416761      4.948849814
H       4.877287384      3.602678771      3.381057833
           6
  t=       176.00000    1    1
C       3.816617623      4.390340196      4.599346445
C       5.120366524      4.501271581      4.208672056
H       3.754155586      5.247493339      5.467844084
H       3.070264191      3.743336073      5.189153489
H       5.682288866      5.318598475      4.952223940
H       4.915006986      3.652916463      3.349450845
           6
  t=       176.50000    1    1
C       3.821806685      4.401847055      4.606024912
C       5.138488099      4.508827901      4.225358429
H       3.773337642      5.271334882      5.500527127
H       3.090880201      3.776351532      5.269966954
H       5.674738395      5.335918271      4.945710916
H       4.963124357      3.709715896      3.322187126
           6
  t=       177.00000    1    1
C       3.827162336      4.414227142      4.614550063
C       5.155697689      4.515880345      4.241771203
H       3.789797478      5.291245732      5.527841844
H       3.113997709      3.809038637      5.341768037
H       5.666714673      5.346876487      4.929829264
H       5.020817573      3.772734876      3.299928387
           6
  t=       177.50000    1    1
C       3.832695816      4.427373480      4.625007318
C       5.171946354      4.522512449      4.257839518
H       3.803919977      5.307152947      5.549202943
H       3.139668703      3.841570935      5.403672326
H       5.659120205      5.352291605      4.905496422
H       5.087196524      3.841333639      3.283053399
           6
  t=       178.00000    1    1
C       3.838411105      4.441177528      4.637450794
C       5.187199526      4.528796696      4.273487618
H       3.816127900      5.319175341      5.564215860
H       3.167785147      3.873970221      5.454995909
H       5.652955964      5.353306041      4.873949392
H       5.161309966      3.914658812      3.271661457
           6
  t=       178.50000    1    1
C       3.844320319      4.455538242      4.651889699
C       5.201426930      4.534776087      4.288634206
H       3.826871331      5.327622718      5.572688462
H       3.198073424      3.906044550      5.495318981
H       5.649316216      5.351490926      4.836751512
H       5.242103536      3.991713008      3.265660163
           6
  t=       179.00000    1    1
C       3.850453825      4.470371119      4.668280427
C       5.214591223      4.540437935      4.303172808
H       3.836632495      5.332967376      5.574620746
H       3.230094630      3.937347964      5.524539592
H       5.649431579      5.349059571      4.795888614
H       5.328386432      4.071414702      3.264953945
           6
  t=       179.50000    1    1
C       3.856865599      4.485613949      4.686525260
C       5.226660376      4.545714109      4.316969537
H       3.845926869      5.335831257      5.570186944
H       3.263154646      3.967126156      5.542946144
H       5.654611148      5.348933238      4.753734247
H       5.418766672      4.152528045      3.269466340
           6
  t=       180.00000    1    1
C       3.863637689      4.501232775      4.706463626
C       5.237628807      4.550508909      4.329901434
H       3.855253457      5.336997565      5.559724799
H       3.296254122      3.994269479      5.551348406
H       5.666019041      5.354325519      4.712619953
H       5.511669364      4.233710869      3.279096765
           6
  t=       180.50000    1    1
C       3.870892955      4.517220704      4.727871483
C       5.247533715      4.554758590      4.341888201
H       3.864996251      5.337487477      5.543827888
H       3.328122217      4.017328727      5.551077532
H       5.684287432      5.367929416      4.674364772
H       5.605441958      4.313539910      3.293727871
           6
  t=       181.00000    1    1
C       3.878790963      4.533583454      4.750474236
C       5.256484638      4.558514015      4.352903977
H       3.875391811      5.338649053      5.523434794
H       3.357300510      4.034599635      5.543852881
H       5.709052659      5.391164831      4.640291920
H       5.698463422      4.390277265      3.312958621
           6
  t=       181.50000    1    1
C       3.887511047      4.550312924      4.773941951
C       5.264671764      4.561973891      4.362986369
H       3.886575851      5.342250382      5.499901151
H       3.382262202      4.044260764      5.531682127
H       5.738761697      5.423411163      4.610824389
H       5.789274744      4.462325659      3.336485995
           6
  t=       182.00000    1    1
C       3.897236697      4.567360998      4.797893151
C       5.272343851      4.565444453      4.372213267
H       3.898563213      5.350574228      5.475091672
H       3.401535766      4.044538109      5.516676633
H       5.771013665      5.462451642      4.585841160
H       5.876582999      4.528317481      3.364072387
           6
  t=       182.50000    1    1
C       3.908135403      4.584618620      4.821939759
C       5.279780701      4.569265863      4.380658269
H       3.911172563      5.366321272      5.451335927
H       3.413905791      4.034047001      5.500637996
H       5.803046220      5.505403641      4.565139203
H       5.959217461      4.587065537      3.395536883
           6
  t=       183.00000    1    1
C       3.920333821      4.601914215      4.845758636
C       5.287259791      4.573747084      4.388366456
H       3.923929739      5.392136039      5.431057539
H       3.418778180      4.012290072      5.484588088
H       5.832237672      5.549511049      4.548623635
H       6.036052581      4.637541717      3.430842127
           6
  t=       183.50000    1    1
C       3.933886785      4.619046693      4.869172399
C       5.295025504      4.579137923      4.395364390
H       3.936074569      5.429766910      5.416091273
H       3.416541459      3.980081134      5.468462194
H       5.856417832      5.592515104      4.536270509
H       6.106064814      4.678862084      3.470039126
           6
  t=       184.00000    1    1
C       3.948778172      4.635842535      4.892169906
C       5.303246132      4.585612100      4.401687788
H       3.946734452      5.479418425      5.407101750
H       3.408573240      3.939463024      5.451315227
H       5.874092156      5.632812320      4.528004701
H       6.168430488      4.710380358      3.513190675
           6
  t=       184.50000    1    1
C       3.964938570      4.652206970      4.914870190
C       5.311992485      4.593262371      4.407400852
H       3.955171010      5.539530853      5.403433609
H       3.396956012      3.893284626      5.431795403
H       5.884473734      5.669449147      4.523631433
H       6.222575760      4.731784961      3.560315308
           6
  t=       185.00000    1    1
C       3.982252637      4.668135306      4.937457428
C       5.321265175      4.602129535      4.412591684
H       3.960854724      5.606759216      5.403485246
H       3.384158309      3.845021109      5.408629186
H       5.887281143      5.701896695      4.522873895
H       6.268210111      4.743044321      3.611320590
           6
  t=       185.50000    1    1
C       4.000592729      4.683682197      4.960091473
C       5.331023414      4.612234725      4.417365590
H       3.963464761      5.676703782      5.405442736
H       3.372458288      3.798288062      5.381067895
H       5.882586542      5.729893585      4.525352585
H       6.305311042      4.744300949      3.665989084
           6
  t=       186.00000    1    1
C       4.019841844      4.698912843      4.982854988
C       5.341217250      4.623602002      4.421843409
H       3.962911000      5.745369335      5.407830185
H       3.363454665      3.755923962      5.348998998
H       5.870764890      5.753352776      4.530625901
H       6.333984373      4.735734972      3.723925954
           6
  t=       186.50000    1    1
C       4.039882512      4.713862606      5.005758608
C       5.351798521      4.636266978      4.426156529
H       3.959132721      5.809260117      5.409711242
H       3.358228315      3.720379634      5.312789892
H       5.852434751      5.772282464      4.538122851
H       6.354564992      4.717537455      3.784578837
           6
  t=       187.00000    1    1
C       4.060574649      4.728523392      5.028784048
C       5.362731584      4.650284527      4.430435690
H       3.952210086      5.865631570      5.410636153
H       3.357268416      3.693570986      5.273049531
H       5.828363984      5.786745343      4.546941853
H       6.367809623      4.689916941      3.847350164
           6
  t=       187.50000    1    1
C       4.081759048      4.742832440      5.051916606
C       5.374006627      4.665763251      4.434812535
H       3.942256452      5.912392966      5.410564397
H       3.360472233      3.677049932      5.230422679
H       5.799308012      5.796626922      4.555698712
H       6.374966195      4.652980496      3.911626426
           6
  t=       188.00000    1    1
C       4.103290886      4.756705071      5.075065335
C       5.385558717      4.682833852      4.439472005
H       3.929184764      5.947823920      5.409642519
H       3.367716299      3.672238893      5.185954255
H       5.766342415      5.801522080      4.563104746
H       6.377668997      4.606882814      3.976384855
           6
  t=       188.50000    1    1
C       4.125076533      4.770122017      5.097982001
C       5.397119833      4.701488221      4.444629548
H       3.913165477      5.970916307      5.407916917
H       3.379748014      3.679934947      5.141386999
H       5.730937874      5.801626574      4.569134293
H       6.377838850      4.551965388      4.040252630
           6
  t=       189.00000    1    1
C       4.147035247      4.783093678      5.120411508
C       5.408409467      4.721667496      4.450418065
H       3.894727964      5.981448742      5.405384782
H       3.397289713      3.700154132      5.098564749
H       5.694305191      5.797632183      4.574353852
H       6.377317771      4.488319270      4.102278269
           6
  t=       189.50000    1    1
C       4.169041062      4.795628478      5.142186342
C       5.419270303      4.743246302      4.456858241
H       3.874724796      5.979990719      5.401947825
H       3.420681163      3.732090719      5.058986236
H       5.657715540      5.791031445      4.579359298
H       6.377017742      4.416081683      4.162215029
           6
  t=       190.00000    1    1
C       4.190937746      4.807679904      5.163256605
C       5.429637014      4.765972659      4.463937714
H       3.854194295      5.967533965      5.397521306
H       3.449616488      3.774490028      5.023426899
H       5.623338147      5.784718144      4.583813825
H       6.376677110      4.336178565      4.220450858
           6
  t=       190.50000    1    1
C       4.212588305      4.819159979      5.183596673
C       5.439512239      4.789452072      4.471666201
H       3.834026381      5.945115022      5.392202902
H       3.483336711      3.826005082      4.992366172
H       5.594160680      5.782776555      4.586686548
H       6.374778201      4.250585030      4.277629116
           6
  t=       191.00000    1    1
C       4.233903847      4.830005969      5.203140950
C       5.448972417      4.813171168      4.480059275
H       3.814811402      5.913974622      5.386264631
H       3.521004882      3.885147372      4.966405724
H       5.572914854      5.789307969      4.587208707
H       6.368984293      4.162312278      4.334240889
           6
  t=       191.50000    1    1
C       4.254856053      4.840200103      5.221806395
C       5.458128947      4.836614449      4.489142711
H       3.796883570      5.875735300      5.380071969
H       3.561675739      3.950111268      4.946130816
H       5.561347858      5.807440509      4.585012884
H       6.357169275      4.074769545      4.390385252
           6
  t=       192.00000    1    1
C       4.275480481      4.849759494      5.239528256
C       5.467090236      4.859401369      4.498965204
H       3.780346311      5.832611235      5.374023106
H       3.604072620      4.018469333      4.931866051
H       5.560274353      5.838441410      4.579863789
H       6.337976303      3.991233410      4.445766029
           6
  t=       192.50000    1    1
C       4.295898374      4.858738319      5.256272582
C       5.475940327      4.881354093      4.509603034
H       3.764971819      5.787514397      5.368585514
H       3.646459892      4.087000459      4.923462227
H       5.569767676      5.881143834      4.571511214
H       6.310849343      3.914653299      4.499810772
           6
  t=       193.00000    1    1
C       4.316331855      4.867253016      5.272057666
C       5.484738898      4.902484962      4.521135493
H       3.750064407      5.743979578      5.364397806
H       3.686475735      4.151413523      4.920026071
H       5.589357014      5.932500403      4.559722180
H       6.275958865      3.847298444      4.551844314
           6
  t=       193.50000    1    1
C       4.337068400      4.875489656      5.286983861
C       5.493529791      4.922933794      4.533609998
H       3.734521584      5.705347840      5.362119056
H       3.721298269      4.206820353      4.919895335
H       5.618421495      5.988663130      4.544354240
H       6.233902239      3.790680739      4.601251529
           6
  t=       194.00000    1    1
C       4.358375516      4.883682789      5.301212491
C       5.502364974      4.942904498      4.547014391
H       3.717309208      5.674092753      5.362212400
H       3.748104085      4.248586930      4.921115458
H       5.656189539      6.045583805      4.525628837
H       6.185501858      3.745784330      4.647524970
           6
  t=       194.50000    1    1
C       4.380404127      4.892071054      5.314879511
C       5.511334818      4.962570439      4.561298042
H       3.697959930      5.651844428      5.365074497
H       3.764711691      4.272980588      4.922111011
H       5.701578572      6.099415182      4.504204034
H       6.131613903      3.713649707      4.690168623
           6
  t=       195.00000    1    1
C       4.403058722      4.900827880      5.328045082
C       5.520551908      4.982038406      4.576368668
H       3.676885367      5.639046168      5.370986267
H       3.771086597      4.278775447      4.922381540
H       5.752894710      6.146859318      4.481154467
H       6.073351711      3.695018380      4.728710165
           6
  t=       195.50000    1    1
C       4.425958674      4.910004881      5.340689398
C       5.530125315      5.001347122      4.592109904
H       3.655265840      5.635029955      5.380155114
H       3.769701422      4.267621530      4.922691123
H       5.808320736      6.185516213      4.457563906
H       6.012115321      3.690231964      4.762716910
           6
  t=       196.00000    1    1
C       4.448546790      4.919554784      5.352761014
C       5.540141403      5.020491675      4.608398594
H       3.634690252      5.638394691      5.392720461
H       3.764479607      4.243063225      4.924526150
H       5.866332702      6.213898446      4.434267879
H       5.949526587      3.699256372      4.791807994
           6
  t=       196.50000    1    1
C       4.470246191      4.929393112      5.364235395
C       5.550669885      5.039448554      4.625110573
H       3.616826692      5.647481897      5.408716919
H       3.759325622      4.209158980      4.929339057
H       5.925700746      6.231239800      4.411859174
H       5.887286036      3.721744620      4.815675452
           6
  t=       197.00000    1    1
C       4.490556687      4.939459193      5.375137322
C       5.561776614      5.058195524      4.642123005
H       3.603239985      5.660751222      5.428094481
H       3.757203805      4.169421041      4.938125428
H       5.985335770      6.237182067      4.390828354
H       5.827129032      3.757070902      4.834051523
           6
  t=       197.50000    1    1
C       4.509062321      4.949714167      5.385516970
C       5.573523731      5.076725236      4.659310477
H       3.595350881      5.676838670      5.450747925
H       3.760216262      4.126808192      4.951557763
H       6.044196385      6.231623561      4.371684391
H       5.770790036      3.804292726      4.846756485
           6
  t=       198.00000    1    1
C       4.525449260      4.960102733      5.395415257
C       5.585966052      5.095052211      4.676549447
H       3.594373535      5.694498273      5.476519227
H       3.769870265      4.083931115      4.970188959
H       6.101311142      6.214694600      4.354974417
H       5.719605451      3.862401010      4.853832851
           6
  t=       198.50000    1    1
C       4.539499128      4.970632039      5.404888151
C       5.599132135      5.113205966      4.693737097
H       3.601154441      5.712479388      5.505127373
H       3.786853392      4.042909355      4.994400223
H       6.155830294      6.186818180      4.341255486
H       5.675152771      3.929666922      4.855181616
           6
  t=       199.00000    1    1
C       4.551124444      4.981374810      5.413993912
C       5.613014694      5.131210686      4.710807484
H       3.615930983      5.729692751      5.536370468
H       3.810950842      4.005262687      5.024236852
H       6.207007806      6.148712091      4.330986037
H       5.639284640      4.003787439      4.850592480
           6
  t=       199.50000    1    1
C       4.560359707      4.992412979      5.422769043
C       5.627559002      5.149135254      4.727721800
H       3.638425118      5.745438291      5.570262591
H       3.841775901      3.972040047      5.059390777
H       6.254226710      6.101467267      4.324443989
H       5.613523832      4.081525690      4.840109006
           6
  t=       200.00000    1    1
C       4.567301517      5.003807187      5.431261004
C       5.642675533      5.167166782      4.744453049
H       3.668072016      5.759303845      5.606787071
H       3.879214324      3.944243519      5.099349312
H       6.297081208      6.046572985      4.321683597
H       5.598870903      4.157850330      4.823962419
