9
Properties=species:S:1:pos:R:3 REF_energy="_JSON [[-3183.6800694687654, -3176.923401228985, -3172.406837961373]]" REF_forces="_JSON [[[-3.7312555348774743, -1.075493618796182, 0.19214050207790237], [-3.9953482989420253, -0.02530995731461835, 0.5675772701000167], [-10.843247239449928, -0.05495632921190928, 1.243923915788489]], [[6.630144856345358, -2.4265528406172168, 1.8544876282239413], [5.659942905459025, -2.3027117921319897, -0.6486035129777888], [12.200826763678885, -2.0201869274634427, -0.8355745931126193]], [[0.1995178446352663, -0.05937303700391173, -1.0176542937678559], [-1.0548381420156085, 0.40420768430767956, 1.4269687718307067], [-1.1666959805055592, 0.39884227463722294, 4.11123271035131]], [[0.6574913590207705, 0.14020861230076867, 1.155146938153137], [0.6915861917029623, -0.7419351791019866, -0.2809191154304578], [1.3619048702830021, -2.3488465217091368, -2.448214439071459]], [[-0.245059489491318, 0.1326732586037431, 1.1064694686117418], [-0.10698847331030616, -0.2587502807619902, -1.182833525467463], [-0.05567022003707074, -0.01725645105064513, -3.8857436744997385]], [[-3.4978528828109945, 3.3934922611282796, -3.2561374061342137], [-1.0855496662372761, 2.5459663071511436, 0.11932817939740335], [-1.147591179373451, 3.9767379087497075, 1.7595329246391416]], [[0.11800628187987916, -0.051186531851529715, -0.007570376503963033], [0.1761775635477382, 0.08974446040716556, -0.02441167597984007], [0.13803826492537935, 0.03726086921090136, -0.04029275840280725]], [[0.08826802620105116, 0.11518948521152972, -0.10536987905909331], [-0.29489169812808463, -0.08267977083593074, -0.14851484901763035], [-0.7628248497294663, -0.5663438245735753, -0.17738938559556872]], [[-0.21926046090493292, -0.16895758897537036, 0.07848741839850996], [0.009909617917094117, 0.3714685282799578, 0.1714084575451317], [0.27525957021058745, 0.5947490014127583, 0.2725252999046803]]]" REF_nacs="_JSON [[[0.11782007000063155, -0.0473586075812036, 0.01274492516846407], [0.37901818023567374, -0.007584525816300295, -0.016879638764260286], [0.09131290872397552, -0.13660649477955908, 0.06893783873933576]], [[0.4442861272735294, -0.08814157414297841, -0.13497468781995453], [-0.3737312478793861, 0.01349307325251679, 0.008778923063753089], [0.5003615830485889, -0.14772449611728905, -0.022181234956923424]], [[-0.10219781032707147, 0.025678221251319123, 0.07951834919046039], [-0.026038604509062594, 0.017867493100644928, -0.054317635322623174], [-0.1529566086110947, 0.039664410662942705, 0.037864458009271525]], [[-0.10557705486730998, 0.10318718465099644, 0.13931637930235732], [-0.005821613495940886, 0.0361577100236123, 0.033769164150233635], [-0.09088461195050712, 0.06823855175169126, 0.08369991421256055]], [[0.0015543638904824183, -0.011820019702534632, -0.09530505773331809], [-0.014973296536206443, -0.02484454330446189, 0.05100337358185342], [0.045157577071113286, 0.00837360025198551, -0.07088284612516899]], [[-0.12680077929164751, 0.06596011482752058, -0.08987097081709934], [0.0377253228647105, -0.057981113282313236, -0.020081513476395963], [-0.20413400203194285, 0.14795018137228416, -0.14231077979063955]], [[0.0085629678944236, 0.016328398016053788, -0.007203297842778895], [0.0030883144336899186, 0.006789615391433931, -0.0007907236395283811], [0.011139743022726743, 0.021875160469811965, -0.005223032606133093]], [[0.023770292336489002, 0.02701511848517714, 0.023315500483483336], [0.007979980877805147, 0.011845982349499401, -0.0007646866509507018], [0.00010428444133186979, 0.05154971218140526, 0.005380090651774107]], [[-0.020226897213606463, 0.0353513538492836, 0.01615659915565444], [-0.006643144290565616, 0.004572286737230722, -0.0008582318367328925], [-0.014511227646301647, 0.043786734642996504, 0.0013926463233028643]]]" REF_dip_perm="_JSON [[-0.13636937099147411, 0.00017405670940901988, -0.04973138066401035], [-0.3172673462296872, 0.10076813980486311, -0.13239285920396376], [-0.3519525223448298, 0.0844790150794804, -0.16212925598983305]]" REF_dip_trans="_JSON [[-0.3034632263159419, -0.13366078425154623, 0.10652183998929943], [0.04771226082301649, -0.026768063958261173, 0.02199332291159025], [-0.39376108041605773, -0.17403942534495123, 0.13871024875835353]]" pbc="F F F"
C        0.00000000       0.00000000       0.00000000
C        1.28644539       0.00000000       0.00000000
H       -0.52078843       0.95765779       0.00000000
H        1.80199633       0.80073112      -0.52826095
C       -0.87048002      -1.22379842      -0.00000000
H        2.15998609      -1.01372238       0.66877623
H       -0.28391531      -2.13887145      -0.00000000
H       -1.52145135      -1.23484856      -0.87564365
H       -1.52139133      -1.23471640       0.87568993
9
Properties=species:S:1:pos:R:3 REF_energy="_JSON [[-3181.9974493322406, -3176.936576165756, -3175.5323309572855]]" REF_forces="_JSON [[[5.097053079272885, 0.8969899215806861, 0.49802571925227423], [7.172717436267279, -0.7489403584165838, -0.3465460637246994], [4.120523184996257, -0.38012929038068677, -0.38815063284566936]], [[-2.425368779408428, 1.8767154798986148, 3.218399720035696], [-4.96265230941869, 2.3391882104806987, 2.233346210332523], [-2.758713458365393, 2.0662092792450144, 2.4350180225265965]], [[0.39281434904224305, -0.1019922450459641, 1.055835059335695], [-0.1470397727014889, 0.1148737847493453, -0.4582106455677706], [0.19303996281321883, 0.11948078328628971, -1.9497040919207642]], [[0.2448105514258623, -0.6743815858531125, 0.8637840686057816], [0.21723273800982565, 0.5141757184122506, 0.09076799522006143], [0.6319291017484854, 1.8638031282685992, -0.7611684208896031]], [[0.5621025745774093, 0.0632056494173466, -1.1712599336744793], [0.4224314552574855, -0.07407084361945217, 0.8603949501888529], [0.4118949353604538, 0.07608440136241836, 2.548202186645197]], [[-3.8502464559346095, -1.908285440394764, -4.513126977456189], [-2.4257969609479804, -2.6038704358644087, -2.4522222555894198], [-2.199836348737848, -3.6133346742909302, -1.836097053893185]], [[0.05486231602336399, -0.15016229562651456, 0.01965782038096216], [0.11043478073949503, 0.10868992680656381, 0.011647788890198477], [0.041451667853085426, -0.05482494215433261, -0.010834203325012537]], [[-0.2217159467577408, -0.13228364446128352, -0.1028600232167804], [-0.030602847314803804, 0.32953273558844076, -0.17406018599428588], [0.16496227707122377, 0.321160008695513, -0.25087124358187096]], [[0.14568831175999664, 0.1301941604869463, 0.13154454673688587], [-0.35672451989052123, 0.020421261864002907, 0.23488220624567413], [-0.6052513227428173, -0.3984486940304944, 0.21360543728498885]]]" REF_nacs="_JSON [[[0.2781275427602357, -0.13451969201721342, 0.09659742587114965], [-0.5560536637577667, 0.009100750916923599, 0.03626026039953605], [0.3424553359933992, 0.36036208166029304, -0.3551634318150535]], [[0.15121545452055996, 0.14010290582316198, -0.13555447415582997], [0.6308348825214664, 0.008160703800680173, 0.02681463632922609], [-1.629119423339073, 0.045244999582826156, -0.1768579445689615]], [[-0.055340020258611324, 0.01512071034914036, -0.06773859984780937], [0.018932704392504093, -0.011594556061177997, -0.19536545219820203], [0.39129827689778046, 0.023812378814042277, 0.29715172815425034]], [[-0.07182641740171333, -0.1718286936196472, 0.10586767253341872], [-0.0027709354290238095, 0.1396197244212967, -0.08482289262270377], [0.2866969605452859, -0.14895302525622514, 0.10866077024888371]], [[-0.01831410444901961, -0.007914388744655769, 0.03807077693953341], [0.014183822449546659, 0.030873030658574874, 0.1992993915792307], [-0.11513326369179604, -0.00922667337814246, -0.05650126750074755]], [[-0.03324639515570241, 0.021606209485534024, -0.003960137783532234], [-0.0655627987747919, -0.15294702881456002, 0.03293105817608323], [0.6357459046830859, 0.2611705919866698, 0.22294900543411755]], [[0.013435185034562014, 0.028586664449325137, 0.009613485381555606], [-0.001124385791129259, -0.0093978203743148, -0.0013876738932335605], [-0.077064519343791, -0.1526378796906361, -0.01841293193893987]], [[-0.03035331411851949, 0.03658692743523476, -0.017747963632038382], [0.021180750124861616, 0.011942441555530746, -0.005541327123672903], [0.014973693646116478, -0.1747872963875648, -0.0277051345593052]], [[0.034057829276625866, 0.03303794767738135, -0.02962434630795188], [-0.022842290304791995, -0.031144574972178235, -0.00880283198204271], [0.02155481295606175, -0.18614872676701721, 0.008028924957896451]]]" REF_dip_perm="_JSON [[-0.18963380951067038, -0.08631320716576135, -0.05203401000274672], [-0.48092891252088554, -0.10072441899463394, -0.06288093482626972], [-0.05900019243259469, -0.10511315556430505, -0.1378766979727084]]" REF_dip_trans="_JSON [[-0.44405368297925124, 0.017312620200723838, 0.05002963837319484], [-0.08927702204745755, -0.016066523283395615, -0.02306458227151651], [0.9196036114653163, -0.027258363842107915, -0.08904374697443354]]" pbc="F F F"
C        0.00000000       0.00000000       0.00000000
C        1.56720000       0.00000000       0.00000000
H       -0.52078843       0.95765779       0.00000000
H        2.08275094      -0.53567916      -0.79578753
C       -0.87048002      -1.22379842      -0.00000000
H        2.44074070       0.67816766       1.00746381
H       -0.28391531      -2.13887145      -0.00000000
H       -1.52145135      -1.23484856      -0.87564365
H       -1.52139133      -1.23471640       0.87568993
9
Properties=species:S:1:pos:R:3 REF_energy="_JSON [[-3181.863506726813, -3178.2386641167004, -3177.336196866519]]" REF_forces="_JSON [[[-1.6691134543346764, -0.5289383104097191, 0.36456706683564394], [1.616618031665826, -0.2534228080272456, 0.2817264740616099], [-0.2254116623539414, 0.34392240165008153, 0.5883274726790998]], [[4.144125343622794, -0.9133364310250133, 2.8863924977066437], [0.9958602283935506, -1.2070133186083427, 2.5983959869109112], [2.0473402069344835, -1.0549725377084613, 2.18891045944248]], [[0.0756586693226339, 0.01639529219870556, -1.5259538463471238], [-0.6685472825639468, 0.24997680939518832, 0.5059926034338778], [-0.5533743200068542, 0.21922931085385247, 2.5206732644711227]], [[0.7021628119810936, 1.4105561795912769, 0.9531683408487206], [0.7529954304210535, -0.3964966809728432, 0.2882925732131771], [1.113867761836689, -2.3455016729660123, -0.32176753518071416]], [[-0.04647481083634696, 0.0917577050025735, 1.729128711919685], [-0.24248085401340402, -0.2648049377260044, -0.39052851332417415], [-0.1913134625837847, -0.22773402485711786, -2.469713260778959]], [[-3.1139070031601674, 0.045110275957671024, -4.359246376835366], [-2.2834169565527223, 1.5458329126499595, -3.29092024024994], [-1.9939013275222417, 3.0117501851499178, -2.595851343881122]], [[0.09378298822304086, -0.07471895441017978, -0.0048505860554194135], [0.1434675074881178, 0.0997163054003889, -0.005093238927257349], [0.10141527943909405, 0.012023155160680006, -0.0006331499993154554]], [[0.14590019042939067, 0.2037776710233727, -0.1335118179130967], [-0.2236952881583284, 0.05638768658288018, -0.1642737186906051], [-0.4945113165126719, -0.296983506024479, -0.1360727442343365]], [[-0.332134735248919, -0.2506034279272595, 0.09030600984205954], [-0.09080081667996312, 0.16982403130483334, 0.17640807357317606], [0.19588884077171487, 0.33826668874107174, 0.22612683748299178]]]" REF_nacs="_JSON [[[-0.11314367122567191, 0.07579314770630183, -0.002342457115708793], [-0.6118052489053619, 0.11356870361862237, 0.06871159733117281], [-0.4271441465947193, -0.6232782986000948, 0.5190168641262536]], [[-0.31563415416489776, 0.15122478411293627, 0.026095391691468243], [0.6004234496807914, -0.038861956028799556, -0.06553696088447075], [2.9369007919952077, -0.34372591190367624, 0.5242937786732361]], [[0.11174711025835274, -0.012729531941686068, -0.09509349544955209], [-0.0015432365091157287, -0.019400762817133134, 0.41151727537188465], [-0.8262188459731302, 0.05009550337016477, 0.08769103387319398]], [[0.09710559307920247, -0.23960680990643346, -0.0753784031992677], [0.0027852783476747713, -0.36806151368433604, -0.10330103505673406], [-0.6451010680959531, -0.10891142013918298, -0.05497992449344645]], [[-0.001546441984230892, 0.016001495903600154, 0.11021637819553297], [0.04065384379999394, 0.026041378144965842, -0.4266434602493461], [0.13623425988701954, -0.028635746133440606, -0.3662160077196887]], [[0.12749342041583492, 0.05513589385715801, 0.09959078007942787], [-0.022829129934821262, 0.31492920197700686, 0.09664102582677628], [-1.1099005034975702, 0.3435695230276363, -0.6958806691818848]], [[-0.014803501380943175, -0.027388152980894875, 0.008564423329824418], [-0.002605807637377011, -0.012275033418925338, 0.0008901313319917374], [0.1242722979742502, 0.20357955679857692, -0.0042324846018845395]], [[-0.02406100283533529, -0.02490529244966043, -0.02877556176612926], [-0.054270403746664586, -0.05784963322068026, 0.009564225633004785], [-0.1126874364286196, 0.21632586845459495, 0.010530419657543219]], [[0.03561247962921441, -0.04455297015524119, -0.022823424634579623], [0.05633108457974714, 0.04565667467500138, 0.006684617512142686], [-0.03369006320758571, 0.3133721251787996, -0.029022685624372248]]]" REF_dip_perm="_JSON [[-0.19371650040873728, -0.011922248560826194, -0.10020809704526087], [-0.2975721621931176, -0.020919366722986395, -0.0960233909233259], [-0.19123898782908424, -0.014354999358577945, -0.15812151505215902]]" REF_dip_trans="_JSON [[0.22327736661476955, 0.03014883724209908, -0.07687715590832472], [-0.042628669254558174, -0.001228751827184282, -0.013766329704775907], [-0.5124958901497314, -0.06809509708345134, 0.16950672619723403]]" pbc="F F F"
C        0.00000000       0.00000000       0.00000000
C        1.35709185       0.00000000       0.00000000
H       -0.52078843       0.95765779       0.00000000
H        1.87264279       0.29022163      -0.91433110
C       -0.87048002      -1.22379842      -0.00000000
H        2.23063255      -0.36741942       1.15753949
H       -0.28391531      -2.13887145      -0.00000000
H       -1.52145135      -1.23484856      -0.87564365
H       -1.52139133      -1.23471640       0.87568993
9
Properties=species:S:1:pos:R:3 REF_energy="_JSON [[-3180.8531898692627, -3171.9563406763887, -3163.8633498409063]]" REF_forces="_JSON [[[-31.928848280437467, 1.8492098569348203, 0.17600166019469127], [-35.42842632065239, -1.6366952070029037, -0.14844316183357043], [-23.33174909869423, -1.1159429293505145, 0.5648713196988552]], [[34.174809295436845, 1.815703078679166, -0.15917965939275577], [38.48420809849517, -0.1854473451130888, 0.9618488292252979], [19.195890993596326, -11.08538729762341, -2.0495305917875575]], [[-0.4850820765924839, -0.2678028866559789, 0.31450043306172826], [-1.4651099161602095, 1.91972866608223, -1.5433347982277923], [-1.8104829300512388, 3.3571584342392744, -2.2853062744218735]], [[1.3267358315340994, 0.5390936893529295, 0.4531118650513735], [0.9879388828506211, 0.5050603142379863, -1.8046592680621716], [2.971976444519598, 0.7230144374853076, -1.887764303835298]], [[-0.7772547280086304, -0.05093621722680363, -0.3436105662681009], [-0.8246771769213461, -0.05209291610574407, 1.9142919312124553], [-2.7077974207369673, -1.4892768455540402, 2.8578178944900015]], [[-2.493014121061635, -3.7304516270927985, -0.47455539728484986], [-1.4921544287971908, -1.0280405564429103, 0.9028658413746834], [5.580090707689086, 8.860096517829094, 3.029447154703654]], [[0.13575753150206374, -0.0839285846683798, -0.0093936569806475], [0.18893769979315866, 0.07211931837506427, 0.0739768482348648], [0.13097685104838303, 0.28009683695392024, 0.040311078550462696]], [[-0.007754914661308991, -0.09321930440410453, -0.02957563529353263], [-0.1176647837624161, 0.5317197397670279, -0.34103319879041066], [0.28747452257963657, 0.6950011548710505, -0.31777804579028435]], [[0.0546514622877894, 0.02233199508132016, 0.07270095691142422], [-0.3330520548437198, -0.12635201379846714, -0.015513023132945582], [-0.31638006994307993, -0.2247603088500329, 0.047931768392685585]]]" REF_nacs="_JSON [[[-0.09143702567056287, 0.09536655651472936, -0.019963383803968095], [-0.24516534217808567, -0.07740729278047231, -0.011478206575892968], [0.4264140405398377, 0.10420978262719749, 0.041114804489280406]], [[0.08081034366924722, 0.04889333274822611, 0.1074744734433954], [0.44268272335306214, 0.21647754383472043, 0.06864528976147359], [-0.4673896465498117, -0.0602013908990999, -0.04358140347551893]], [[0.129896383940931, -0.19511647459441478, -0.03051163940452137], [-0.015255274104529724, 0.01771068132549355, -0.02520523520065755], [0.09127352454501628, -0.08121647465379568, -0.048424140763182674]], [[0.1249299020503598, 0.14034717152552165, -0.03742501348466072], [-0.02341283729805121, 0.020521951870853202, -0.03652500586363082], [0.19940397238543367, 0.18736105151180873, -0.003606949094618122]], [[0.11405735491306054, -0.034889375224964686, 0.042859279078166605], [0.04412853762417662, 0.022442526961486076, 0.026295229353533515], [0.05981031232034064, -0.07144046289018575, 0.04223942801008753]], [[0.28335357869022476, 0.49158926853384843, -0.014071378604361133], [-0.1357317434235304, -0.1655545783684381, -0.014053254555469854], [0.22844227969644204, 0.38961769456077394, 0.03733991396545879]], [[-0.017298594284550182, -0.003017027840936509, -0.004102082617628294], [0.00080380030777584, -0.0012162488657188372, 0.002144737645354528], [-0.017228307513593832, 0.00015112847772325843, -0.005152196912695879]], [[0.03529826463751299, 0.018596577940654804, 0.014422528874610993], [-0.006791025501400411, 0.011809520796645979, -0.005608234968328902], [0.05326818932962646, 0.022522601663331136, 0.01994787158191992]], [[-0.006192070149916105, -0.0030754238894362992, 0.002055268595147692], [-0.00976217887002585, -0.00075271899047798, 0.0005715184639620107], [-0.002208687900258121, -0.002107839512848812, 0.013272632704252916]]]" REF_dip_perm="_JSON [[-0.19356660048795155, -0.11821898891633524, -0.004221764713462561], [-0.37951745222265026, -0.6483587962651695, -0.07803956431572671], [-0.7272852684455452, -1.1867077062203668, -0.1692328466804013]]" REF_dip_trans="_JSON [[-0.5275341999933941, -0.46940400509472896, -0.07736388305223435], [-0.0032811781904395743, 0.04678490326784491, 0.005862979798246217], [-0.5738683162459394, -0.477876881021609, -0.07997802164748298]]" pbc="F F F"
C        0.00000000       0.00000000       0.00000000
C        1.07690066       0.00000000       0.00000000
H       -0.52078843       0.95765779       0.00000000
H        1.59245160      -0.95596139      -0.07979831
C       -0.87048002      -1.22379842      -0.00000000
H        1.95044136       1.21024328       0.10102434
H       -0.28391531      -2.13887145      -0.00000000
H       -1.52145135      -1.23484856      -0.87564365
H       -1.52139133      -1.23471640       0.87568993
9
Properties=species:S:1:pos:R:3 REF_energy="_JSON [[-3180.9948732976727, -3177.009230294327, -3175.0181924990084]]" REF_forces="_JSON [[[-15.403954289676935, -0.9648838903454827, 0.5340337032094944], [-13.545036137842285, -0.17325112568019738, 0.574446353879942], [-16.12524616809305, 0.29199397950427713, 1.2969126803456885]], [[17.946948454863364, -0.9106573356581257, 2.175115504557556], [15.907902613189092, -1.3415450863232907, 1.6928421102132076], [18.60442812321633, -1.3345650459913958, 1.0152221295280475]], [[-0.3063396732144421, 0.10656630341751444, -2.063614408942409], [-1.0359737047182904, 0.4069050918975276, 0.7863144909746], [-1.519317813475432, 0.5504527021614153, 3.6433251215261784]], [[1.1363055838972318, 1.7543641146180224, 1.396857564125029], [1.3144818973553214, -0.6205512160258789, 0.1345068718360852], [1.5627242189789885, -3.2455144515890146, -1.0826512156087056]], [[-0.6324474576433351, -0.05119763089967428, 2.214406414901123], [-0.8699923256484358, -0.4509033507123238, -0.6968413791399202], [-0.8506665874300946, -0.4904498173160242, -3.6744892632942774]], [[-2.7051061298640486, 0.13832818120763682, -4.205550950834729], [-1.6830074991173194, 1.9862975624000634, -2.521223425587634], [-1.5135869011949432, 4.00617252172103, -1.2915120725056735]], [[0.13735833869828484, -0.02301697897006422, 0.0030779509935676113], [0.15866415863871874, 0.0903449201932428, -0.007439333929775683], [0.16446080687828363, 0.08202735879705673, -0.019236038229107844]], [[0.20732952774110516, 0.26910043686809826, -0.12758886761063484], [-0.22589217696774552, -0.06789451916669516, -0.14347564683432257], [-0.6530407092220077, -0.43884216888691535, -0.11518167440663951]], [[-0.3800943547968402, -0.3186032002371646, 0.07326308960183614], [-0.021146824890398458, 0.17059772341725868, 0.1808699585876811], [0.3302450303404562, 0.5787249215984194, 0.22761033264460848]]]" REF_nacs="_JSON [[[-0.022026551971400136, -0.1023131728070187, -0.011972969841494624], [0.4159994871167947, -0.0642865896546886, -0.05301515819962328], [0.024943318396503752, -0.23004176146243333, 0.08237918998614817]], [[0.6602135700595221, -0.15118922204481897, 0.047032120253349075], [-0.3335700988795936, 0.005632185202890846, 0.1063446494312072], [1.5258513064724164, -0.40751678222291593, 0.3691593083894671]], [[-0.17454877097160876, 0.04951811504620532, 0.13673922842231073], [-0.010121709925789252, 0.009662585457435528, -0.20877034111860882], [-0.4828585735358832, 0.11658041885045856, -0.0828421262338792]], [[-0.16716306401800599, 0.1895511478326084, 0.09795944307690468], [-0.01926528148549565, 0.19756690124025494, 0.074210050282783], [-0.4133979262727721, 0.2332981641911013, 0.12755680891682492]], [[-0.024502570980509425, -0.0048521387354554715, -0.15129911218011832], [-0.02630187964270857, -0.0199267566167284, 0.2056879504136557], [-0.006535841566830804, -0.002639511379207345, -0.006949097246321441]], [[-0.21935484021157245, 0.0061740815910254696, -0.19939591546987895], [-0.02455963197808626, -0.14738410275566305, -0.12217426618382794], [-0.5677384045134176, 0.10088394245962876, -0.50965400587894]], [[0.016286429506461156, 0.019157178077706512, -0.008859013595225337], [0.003346406916084572, 0.009718415934207329, -0.0003244969846194912], [0.04884992546781692, 0.05434463384965173, -0.007979051758461201]], [[0.006768696844287455, 0.01908190545728856, 0.02305236150133871], [0.02698068052279969, 0.03135716801471257, -0.0038707351622407743], [-0.030164042586716032, 0.09559000929335378, 0.0018528095550673462]], [[-0.03672213002777794, 0.039556390222745576, 0.018879849239664147], [-0.03075709258776259, -0.019432176778627786, -0.0002391925347469847], [-0.07358245016424722, 0.08162756286203353, -0.004696037979950082]]]" REF_dip_perm="_JSON [[-0.17519345047497834, 0.007952398992017431, -0.10772183057464563], [-0.23284454362050147, 0.023174111364805093, -0.17190397999106924], [-0.29794691199508194, -0.016438816451834027, -0.16909335647633678]]" REF_dip_trans="_JSON [[-0.08209961320786022, -0.06371780458222366, 0.13501432324591622], [0.026771535942857406, -0.005701365373899547, 0.026179550001241367], [-0.12063260907664021, -0.0981210633990043, 0.21030761313308702]]" pbc="F F F"
C        0.00000000       0.00000000       0.00000000
C        1.18433420       0.00000000       0.00000000
H       -0.52078843       0.95765779       0.00000000
H        1.69988514       0.40761943      -0.86837570
C       -0.87048002      -1.22379842      -0.00000000
H        2.05787490      -0.51604456       1.09936014
H       -0.28391531      -2.13887145      -0.00000000
H       -1.52145135      -1.23484856      -0.87564365
H       -1.52139133      -1.23471640       0.87568993
9
Properties=species:S:1:pos:R:3 REF_energy="_JSON [[-3183.344670360159, -3177.3867583428905, -3174.346993185965]]" REF_forces="_JSON [[[2.140937974290673, 1.1647748535260143, 0.4451588087323645], [2.737086931141738, -0.7690894764112722, -0.04630030537248765], [-3.0828189345037282, -0.4319428607534649, 0.05631268583098392]], [[0.6402596447523954, 2.4290591722530777, 2.3677171945757087], [-0.8707065623559713, 2.4911777471226872, 0.724512022596037], [4.739753529748062, 2.0766812649722035, 1.2239249975775397]], [[0.1112986710872087, -0.15192716308086862, 1.1438296029656996], [-0.42094352484172565, 0.26051046559393815, -0.8220219969495167], [-0.4121278153288986, 0.19784411251438339, -3.049082854165631]], [[0.4782405533037779, -0.48116769632425205, 1.1277424117083983], [0.5778103683962412, 0.6989834530414335, -0.1108010227265007], [0.9983980739556971, 2.3624310709246923, -1.8049311479800434]], [[0.24647030374921367, 0.025636061878269112, -1.2271470041748125], [-0.010148392581749618, -0.09041241970766345, 1.1525331093147406], [0.07449614838689043, 0.11930907641848992, 3.5519356602280454]], [[-3.6541069363504612, -2.8621732178378103, -3.898522137148109], [-1.7138382668807655, -2.8590471955853256, -0.9921464581458765], [-1.8752292184456552, -4.272334373671505, 0.04616502620278533]], [[0.08404190609393608, -0.13184868619064694, 0.01774654337125697], [0.10162180033003053, 0.05887537824486063, 0.01801654742657636], [0.08907580844696003, -0.006719059633951603, 0.012248264917399419]], [[-0.21350801552901016, -0.13649219780393373, -0.08368305952664117], [0.015978673747831823, 0.3111400715283925, -0.16458869271649812], [0.25792830127352356, 0.5007366300688547, -0.2508150589550243]], [[0.16636589860377168, 0.1441388735814386, 0.10715763949675235], [-0.41686102695219523, -0.10213802382636325, 0.24079679657312217], [-0.7894758935338737, -0.5460058608389408, 0.21424242634392546]]]" REF_nacs="_JSON [[[-0.1810905351546736, 0.10771443287520105, -0.08807786570970294], [0.48472687081395105, -0.0428070924872169, -0.018603178676957238], [0.05848115040281312, 0.15059541873800425, -0.12218611115126414]], [[-0.35704063012922044, -0.07688613519482242, 0.11989539577082002], [-0.5026952380643656, -0.005261175806559758, -0.026529674322150754], [-0.7870476028519108, -0.06502819101103263, -0.09137712536401447]], [[0.0686390308617525, -0.030827351609049772, 0.0961536630682376], [-0.02148022081745351, 0.01984299191122914, 0.08984830864746939], [0.17469655857716773, -0.02435626978210935, 0.11144789015440441]], [[0.09284062870718343, 0.12503982928653937, -0.12248122785891677], [-0.0026009075772166026, -0.06234216018968773, 0.056294056858088415], [0.11887911979146015, 0.030930978768227268, -0.027326732531468924]], [[0.014496804156852778, 0.003069664894238712, -0.06887888358326534], [-0.017844798581813735, -0.025759809600446815, -0.09524210398373881], [-0.06757463258092453, -0.012529402315965058, -0.016203076934332903]], [[0.08108515627634881, 0.022069519489569093, 0.04786684942055914], [0.05329522335189541, 0.08876865458633011, -0.01392719001468277], [0.3091991856499334, 0.16859496698162837, 0.1721694979334181]], [[-0.01423377228327927, -0.02576060398926649, -0.009748564319476245], [0.0009442818952764859, 0.009364356939406009, 0.001433935137510766], [-0.028758906785465582, -0.0570163976511277, -0.010733398949876051]], [[0.025686310674475573, -0.03748672421056633, 0.017483850375815985], [-0.010756185841136582, -0.0007932350093805712, 0.00203111497922827], [0.022237056300606243, -0.07022722811850816, -0.004738542980078516]], [[-0.028534059167026532, -0.032466307413940895, 0.02780711491834674], [0.009890352156283132, 0.02017865891572908, 0.005132579989548454], [-0.0004873209311532112, -0.08435924019551123, 0.0024024633277493043]]]" REF_dip_perm="_JSON [[-0.16235826975770015, -0.07919296092843915, -0.03989003447575829], [-0.2933874560711826, -0.158400495460288, -0.10184450451383843], [-0.25822343298686334, -0.16603081781695053, -0.13663794168288187]]" REF_dip_trans="_JSON [[0.4235233053390429, -0.04537801156875145, -0.07020928386712114], [0.051460840579177033, 0.03251900307658811, 0.02559841367413808], [0.6335164623232332, -0.0646048775697221, -0.10208398262714552]]" pbc="F F F"
C        0.00000000       0.00000000       0.00000000
C        1.39848951       0.00000000       0.00000000
H       -0.52078843       0.95765779       0.00000000
H        1.91404045      -0.71072656      -0.64428077
C       -0.87048002      -1.22379842      -0.00000000
H        2.27203021       0.89977697       0.81565686
H       -0.28391531      -2.13887145      -0.00000000
H       -1.52145135      -1.23484856      -0.87564365
H       -1.52139133      -1.23471640       0.87568993
9
Properties=species:S:1:pos:R:3 REF_energy="_JSON [[-3183.8503675743773, -3176.2507809373633, -3171.919548977686]]" REF_forces="_JSON [[[4.459967109532454, -1.056624086876578, 0.008035227711919458], [3.131612223985672, 0.24579895300517732, 0.40062980277586363], [-7.39638337251303, -0.45884138970192556, 0.6551698303741604]], [[-0.9794292655766047, -3.950519361177694, 1.8474080973276388], [-3.0543885843303338, -1.5873990558090587, -3.0510129271729696], [9.284002234987913, -3.5133106422010014, -0.7357471476659977]], [[0.7352437787232374, -0.09234352620245247, -0.45942012937745325], [-0.7575302315378352, 0.19620659258741588, 1.3620491776751684], [-0.018913220129150275, -0.08561067494990032, 2.5891669862632365]], [[0.3564500754941094, -0.438783698610349, 0.2673790816583299], [-0.13211137321305205, -0.23597014364535723, 0.3277119403987021], [0.4627733017782666, -1.1088352429442143, -1.5550175334331588]], [[0.09770249569324677, 0.27786731222301814, 0.3588973042420089], [1.0272987558156847, 0.012567754819167769, -0.6201333070434671], [1.2698601895816881, 0.879543385714166, -2.2303465767322406]], [[-4.599441876340853, 5.523292123806884, -2.033552007784564], [-0.07795591808723999, 0.7429581107196191, 1.6999364640409975], [-2.9110360486099496, 4.59232800436135, 1.3162272967409634]], [[0.07703924879104085, -0.1065572081519813, -0.0034342733621404832], [0.17430478443623007, 0.09110879414079838, -0.03574803355945897], [0.09666013701181422, -0.08339788885244719, -0.04149460869209028]], [[-0.02647633944960548, -0.02221775752958434, -0.11114363327261552], [-0.2238016782555964, 0.11828212739915146, -0.19652893820747083], [-0.7108414441949481, -0.4502661273192943, -0.2965575258329378]], [[-0.12105522687012998, -0.1341137974819324, 0.12583033285623185], [-0.08742797881082756, 0.4164468667854942, 0.11309582109267657], [-0.07612177791271407, 0.22839057589381828, 0.2985992789780889]]]" REF_nacs="_JSON [[[-0.35811740039343093, 0.01184476742607903, -0.05698132360839554], [0.510948131532689, 0.02874907592256985, -0.0031125110240202676], [-0.0026840844935396456, 0.24326613390873647, -0.04758241448885332]], [[-0.2599929380880656, -0.07752649471679472, 0.29522693563198027], [-0.6344838183052742, 0.13008895293716485, -0.13269091489321735], [-0.7537979274955656, 0.14942803226319237, -0.17132972439880498]], [[0.07101028860431098, -0.007125332757533973, -0.008843728009405114], [-0.06299833881516524, 0.02382501643274202, -0.005636564386627994], [0.06686375645461501, -0.011352121251497616, -0.0012127797745716182]], [[0.05864903902082378, -0.04107869344268065, -0.13033837432975537], [-0.021197958581812542, 0.028760730448894836, 0.044882765207044255], [0.02319481843788361, 0.03437869554119739, 0.057540224958073406]], [[-0.0320840721351607, 0.027933617842291578, 0.02880782063330177], [0.006525765458508605, -0.040738536829352, 0.028520686216214345], [-0.06014472694244926, -0.024249168353465033, 0.05446809373982687]], [[-0.07265565705742515, 0.11637959229454797, -0.1080147754848362], [0.18833928507619982, -0.2274897785230016, 0.07459707385152943], [0.29797537519179484, -0.30826703969030217, 0.09770085385491137]], [[-0.008308023959624952, -0.022016690203000778, 0.002194533992584604], [0.005544752979918996, 0.012243723553817322, -0.0010884097018969993], [-0.011141089220204865, -0.03572941505527891, 0.0002423646069701903]], [[-0.04013652533319164, -0.04772029844263046, -0.027572639431112142], [0.010178912460476407, 0.021827545049839036, 0.0010420184101842711], [0.0044362845912455685, -0.05759653012091905, -0.0009109125133847809]], [[0.0038438298968174016, -0.04772731961575891, -0.005174299486255497], [5.578666524686387e-06, 0.023123879078600543, -0.006466142340728209], [-0.008999292542213409, -0.050510007698825084, 0.003633374410707982]]]" REF_dip_perm="_JSON [[-0.1607988941928597, -0.022890967069987604, -0.03525354664812188], [-0.3403977367842631, 0.11692818404290256, -0.05480715853728273], [-0.17169994954333312, 0.02726513003624899, -0.03768942036089]]" REF_dip_trans="_JSON [[0.6744050540316107, 0.09074177345357684, -0.027935872282349738], [0.06653784444257106, -0.0516305799904147, 0.007216366019155511], [0.9668008051647469, 0.13121004764126157, -0.040233156995873]]" pbc="F F F"
C        0.00000000       0.00000000       0.00000000
C        1.45965519       0.00000000       0.00000000
H       -0.52078843       0.95765779       0.00000000
H        1.97520613       0.92669808      -0.24791255
C       -0.87048002      -1.22379842      -0.00000000
H        2.33319589      -1.17319603       0.31385629
H       -0.28391531      -2.13887145      -0.00000000
H       -1.52145135      -1.23484856      -0.87564365
H       -1.52139133      -1.23471640       0.87568993
9
Properties=species:S:1:pos:R:3 REF_energy="_JSON [[-3180.633818205867, -3177.9808631733913, -3177.58947173999]]" REF_forces="_JSON [[[-10.460240881164683, 0.6026673948193415, 0.9390140178284572], [-6.316596960224853, -0.11200639778245505, 0.30321725882410433], [-7.061030225900944, -0.7371836095916945, 0.4740227913412095]], [[12.74859322518171, 0.23318341854424604, 2.2039318920181477], [8.127387442172779, 0.6036906009743664, 2.3823766600430636], [10.359656823054046, 0.5354280263217381, 2.780181547000718]], [[-0.4517230046656904, 0.05825001116351363, 1.3446198021973217], [-0.5925570381760469, 0.2822284990659114, -0.15577758899717103], [-1.0572634467675628, 0.40853676581396564, -1.6974853031545294]], [[1.1152049833064437, -1.2776688123022601, 0.6557125278067706], [1.3577503132257889, 0.22799576642866506, 0.34013957893692187], [1.0724236236420046, 1.7435929608583154, 0.15231839165186495]], [[-0.2773819695559169, -0.06503143483188933, -1.333037344068464], [-0.7066954223403853, -0.36355733402824203, 0.30893545422928426], [-0.7592035493718754, -0.357942469641308, 1.7792609135172244]], [[-2.6193285755042757, 0.5599433663002942, -3.860021590134076], [-1.7437252090552844, -0.6646024262136343, -3.211666436499922], [-2.361862310534122, -1.8952044733070548, -3.483447508268401]], [[0.11028891793285021, -0.07835843668189771, 0.006433259614688557], [0.1092529046546505, 0.030070260034824495, 0.013865151309516507], [0.16962798445180624, 0.11149868117841698, 0.01512975273376785]], [[-0.2701142233204044, -0.1734513938003763, -0.08659094824866659], [-0.07837137785998041, 0.06051568152388555, -0.15990408348282042], [0.06128942191776339, 0.34436092610692814, -0.1714616579162512]], [[0.10470152779384531, 0.14046588679158828, 0.12993838298652496], [-0.1564446523964114, -0.06433465000411381, 0.17881400563770633], [-0.42363832049527816, -0.1530868077386029, 0.15148107309445435]]]" REF_nacs="_JSON [[[-0.07863218377054283, -0.0667697611879634, 0.06649847516435681], [-0.49168111615289695, -0.1934066226202606, -0.054230587832157326], [0.4324309318630741, 1.48015642001363, -0.579368350439119]], [[0.44601906129031915, 0.07841034660308599, 0.0891493580005294], [0.40015862530723706, 0.017568320486024292, -0.032496916694406214], [-8.14529449179625, 0.06417943617690526, -2.1219403223349182]], [[-0.09563524427399134, 0.024661879364841727, -0.30219444019871405], [0.059381213914892005, -0.0026240604951054424, -0.8271332016635132], [2.3914892980741933, -0.413843178439291, -0.27144022986862537]], [[-0.10273675414753422, -0.11574683737064502, 0.012298284110100265], [0.021674627670380878, 0.882919509729449, -0.09094028594007256], [2.1204387796649433, 0.5572018153552317, -0.16797234421079504]], [[-0.016652731640114785, -0.0015597226122202432, 0.2758293264908594], [-0.008590925601349693, 0.03813328138649241, 0.8850116432129229], [-0.026096974005138947, 0.06394112593742342, 0.9154299070406055]], [[-0.1263541267065011, -0.023046994499482994, -0.0994041591063794], [0.02420874935654884, -0.7021413914819117, 0.14304772109504849], [2.9943270610992205, -0.21547646069772072, 2.311704625789451]], [[0.014367504676660396, 0.016880496241311205, 0.008942802592406483], [-0.0027296539088005486, -0.008583704361347089, -0.002168177434747563], [-0.2971149063977233, -0.4236341661246024, -0.01476685093357889]], [[-0.019641820412798643, 0.046868891422866814, -0.029487357256203484], [0.12254003913600489, 0.1039877290439213, -0.008315464282800989], [0.367362366373446, -0.4014886082037739, -0.06003512951109011]], [[0.0024920032991810927, -0.003087701785194995, -0.034229478854179325], [-0.1278666723261512, -0.13042583844721364, -0.01119905181085286], [0.15613459408936903, -0.6992233536489848, -0.00818164382215599]]]" REF_dip_perm="_JSON [[-0.21369066485343588, -0.059058486846233584, -0.12356333748101539], [-0.1520901251838776, -0.05796130270381581, -0.18640887927043293], [-0.3081900732487735, -0.06203774777184999, -0.11187530754641689]]" REF_dip_trans="_JSON [[-0.07887258103815932, -0.0005739856348335213, 0.054411638064463634], [-0.005651024269599118, 0.000885542437668773, -0.02515029159527072], [0.27715321487024613, 0.0024955695037085796, -0.2062026108822638]]" pbc="F F F"
C        0.00000000       0.00000000       0.00000000
C        1.24515901       0.00000000       0.00000000
H       -0.52078843       0.95765779       0.00000000
H        1.76070995      -0.12399081      -0.95123932
C       -0.87048002      -1.22379842      -0.00000000
H        2.11869971       0.15697186       1.20426514
H       -0.28391531      -2.13887145      -0.00000000
H       -1.52145135      -1.23484856      -0.87564365
H       -1.52139133      -1.23471640       0.87568993
9
Properties=species:S:1:pos:R:3 REF_energy="_JSON [[-3179.7486250156476, -3177.498658092956, -3177.1633221147645]]" REF_forces="_JSON [[[-16.229772797762376, -0.15714607112902737, 0.9023967416571149], [-11.988997811524234, 0.2524895804050335, 0.41068970714058023], [-12.475280802320738, -0.5366114704636491, 0.8488782822515394]], [[18.465040407637503, -0.11281077743622255, 1.9348608628627457], [11.921614545457464, 0.16094781318240003, 1.6532897405363332], [17.929410656290493, -0.3051289251967259, 3.219072192526471]], [[-0.5492709617771139, 0.1673289226572378, -0.6541358711894266], [-0.15741769494920455, 0.1858945143786971, 0.3566997997893471], [-1.9184455813546428, 0.5806159857816561, 0.6373108729647992]], [[1.3118314892069198, 0.6903768736390635, 0.5585975441864955], [2.044625895683067, -0.2438903890152287, 0.3034142931334937], [0.6292440175250964, -0.6805560516946819, 0.33937954338931126]], [[-0.5696254976232069, -0.09038216508453893, 0.7722666195958233], [-0.8268417483665432, -0.40683142525754423, -0.13279547961051805], [-0.928471942342894, -0.4786981279995104, -0.821679192481006]], [[-2.3616526380960963, -0.3882405969247634, -3.504917442524298], [-0.9690970841319922, 0.2989941861331615, -2.636374670925013], [-3.017381518838912, 0.8027681533395906, -4.266618180733171]], [[0.12604794683399037, -0.05180328004161396, 0.005306146610918996], [0.05978660851707674, -0.03310800981298723, 0.009178071055500074], [0.24926019580159514, 0.19505778872668672, 0.00773036930298278]], [[0.001209081798269748, 0.08759444933284176, -0.11527543533167485], [-0.06987804807870147, -0.11326318491701375, -0.15021108136133682], [-0.3438245294794497, 0.10161296679478829, -0.1351147066506052]], [[-0.1938070302152259, -0.1449173550135512, 0.10090083413160496], [-0.013794662607282251, -0.10123308509713301, 0.1861096202421169], [-0.12451049528054713, 0.3209396807144788, 0.17104081942944457]]]" REF_nacs="_JSON [[[-0.14005277664170757, 0.08138803653944617, 0.02154366853147397], [-0.22944477493074125, 0.3297196604291528, 0.13926699532343625], [0.2196909544042443, 1.4029091179470807, -0.06353342823863303]], [[0.32916476290884555, -0.10179026365841352, -0.03793602343989929], [0.11943169624344327, -0.04999231015519353, -0.11068031125174076], [-7.25174236904263, 0.5385694338656409, -2.18141949686504]], [[-0.07922481172160983, 0.00572136898619048, 0.7369652342124345], [-0.01962754926862852, -0.018614964559443323, 1.0013991447151929], [2.1062468576198725, -0.4681056094828343, 1.099367684009756]], [[-0.04713951871173458, -0.3429411091718249, -0.00603025015382217], [0.02734467912083486, -1.186530350741069, -0.06318541605605155], [2.030047520608353, -1.016895790796458, -0.21561722669316982]], [[0.02230181154767667, -0.0016771449150995688, -0.7591809439011056], [0.05024432425216608, -0.006117462377351876, -1.047749598601415], [0.14835641915811784, 0.031430598464269904, -0.717569603504217]], [[-0.07215294169187879, 0.3759575975920801, -0.024951108966510364], [0.03728213494250744, 0.9256622198328677, 0.07574739402189089], [2.4952621058529685, 0.6071331542277932, 2.051553518996802]], [[0.003771924714229291, 0.0038145509979332433, -0.009002204597838022], [-0.004083237172604075, -0.011060163073043782, 0.0020833268212523824], [-0.2411934805138494, -0.3034698229931392, -0.0019780258297970497]], [[-0.059457701814657704, -0.07856477676038759, 0.03785970274359254], [-0.1534230816163932, -0.14408831616388618, 0.0039882539663356024], [0.13525546854482812, -0.48063187544791464, 0.0029133444164728796]], [[0.049639411418831624, 0.10101403647784118, 0.03558738043219958], [0.16911753023226317, 0.1412322874732, 0.0015021125539085747], [0.3571463026799004, -0.3167678590954403, 0.026981839625578413]]]" REF_dip_perm="_JSON [[-0.22264302123369475, -0.034749716358814284, -0.14396846419797296], [-0.09578188549539333, -0.010166962127292175, -0.32509545320405314], [-0.3631533775368747, -0.07769812560727032, -0.023290700192082882]]" REF_dip_trans="_JSON [[-0.023476276320385864, -0.006484972574834114, 0.026908767363037482], [-0.0005995402161772135, -0.0038378230161727894, -0.011846093724340964], [0.10995677530148665, 0.021959844832870258, -0.15475103085135392]]" pbc="F F F"
C        0.00000000       0.00000000       0.00000000
C        1.19405475       0.00000000       0.00000000
H       -0.52078843       0.95765779       0.00000000
H        1.70960569       0.04581302      -0.95819159
C       -0.87048002      -1.22379842      -0.00000000
H        2.06759545      -0.05799910       1.21306670
H       -0.28391531      -2.13887145      -0.00000000
H       -1.52145135      -1.23484856      -0.87564365
H       -1.52139133      -1.23471640       0.87568993
9
Properties=species:S:1:pos:R:3 REF_energy="_JSON [[-3183.4464052969743, -3176.221170595547, -3172.541543574065]]" REF_forces="_JSON [[[5.473966960558543, 1.5559336296722888, 0.23270779421406998], [4.7159730777350966, -1.6305625760848665, -0.21752708345101088], [-4.2223715329574825, 0.09519943353175984, -0.05550837742208621]], [[-2.2120417827379977, 3.8231587519851526, 2.1061716595759736], [-4.020765485817425, 2.0216293261065292, -1.961128755774717], [5.990221116740677, 2.9261640836615044, 0.21613755116766373]], [[0.3851486645061096, -0.23965254019678253, 0.410774572712707], [-0.03318421544427829, 0.26412476835452764, -0.564901150522701], [0.09748254163670862, -0.09845813099084291, -2.108712150458214]], [[0.3306108171778926, 0.29516224329623547, 0.37011706416506523], [-0.07732178056066871, 0.25474249909832497, 0.23188211194665728], [0.4443260487190674, 1.167429306576405, -1.543258062903693]], [[0.4987580187532436, 0.07584483840357445, -0.559379080931079], [0.6010320124586658, 0.1659822193715581, 1.184705462005239], [1.1174215300621433, 0.6549745057949463, 2.6028326358101435]], [[-4.549221367757639, -5.241860158284784, -2.5307848643631448], [-0.741193351127688, -1.559335822659913, 1.140984597140753], [-2.7630240357203846, -4.461047038285935, 0.8397004631124572]], [[0.0695670950505807, -0.1912520645928734, 0.019583342681555968], [0.06791084821661209, 0.08853181777196986, -0.01466294753288817], [0.058440811320093135, -0.10482699745484915, 0.008837949156114073]], [[-0.12300279987950515, -0.1083347373813387, -0.12579806642846555], [0.04629776794777094, 0.4194349273926179, -0.1300428868804713], [0.06572974193681266, 0.3138461366164711, -0.27369394979128664]], [[0.12621439432686943, 0.03100003710101187, 0.07660757837223868], [-0.5587488734098282, -0.024547159351261064, 0.3306906530690689], [-0.7882262217370815, -0.4932812994492618, 0.31366394132784464]]]" REF_nacs="_JSON [[[-0.3611515686654984, 0.14811476071752278, -0.11510845752815738], [0.5243479276573685, -0.13712264751724798, -0.021959425245102623], [0.057847582799915274, 0.05106633998933344, -0.08721444142986848]], [[-0.24751584462513304, 0.04408696446442706, 0.2777180898392641], [-0.6338838587217999, -0.09432661319597943, -0.1333496517294019], [-0.8250825476093132, -0.08850538692794181, -0.19487386007029497]], [[0.03369734948959489, -0.028485319384603705, 0.0246432369909487], [-0.02131051152058921, 0.03300844321015786, 0.043035382255228606], [0.11454283700969876, -0.0025862163443121726, 0.07633450710916626]], [[0.0638088806675443, 0.055392054049750145, -0.12938372491453276], [-0.020171717878512862, -0.03314000674598931, 0.054250471937668195], [0.04952600380408937, -0.03740102614868215, 0.05708439768380949]], [[0.008733072637934039, 0.004805483420306821, -0.006933718360473582], [-0.021440044862497044, -0.026628226873899975, -0.02866336693449027], [-0.09030192433894396, -0.01448110713242718, 0.023168655587921406]], [[-0.06121743501851619, -0.0874711938651123, -0.10667322854952473], [0.16721279499678707, 0.2047998002142013, 0.07422554453739644], [0.32966764319671066, 0.29335960738947503, 0.11981264579405412]], [[-0.009473247541488403, -0.026718256476980454, -0.007552078994424017], [0.00029418358861441177, 0.015836305142734982, -0.00045660091995913923], [-0.020474934821715376, -0.04917558763881703, -0.011944840175353447]], [[0.01549354350452177, -0.039405443798665646, 0.009576712970543903], [0.0009430343758063607, 0.01794378411980995, 0.005352270923258524], [0.010113020468376902, -0.05941971392563471, -0.002975044707405894]], [[-0.03727537245875179, -0.045088466826327736, 0.02928658474899234], [-0.005046630358056071, 0.020013189568679726, 0.007193584698420499], [-0.019372675576725968, -0.0761665298702865, 0.00444945695454442]]]" REF_dip_perm="_JSON [[-0.17207678128864168, -0.0758785071243991, -0.030065343834260207], [-0.34264623559604906, -0.2158975247983369, -0.05679749637438215], [-0.17647384563168977, -0.15086177861077232, -0.052163090490089985]]" REF_dip_trans="_JSON [[0.6667278198537879, -0.025697669273896974, -0.01925318992131014], [0.06960597739619269, 0.059623174733904716, 0.011445631250094944], [1.0111434211948283, -0.03531002545167652, -0.028407981858336512]]" pbc="F F F"
C        0.00000000       0.00000000       0.00000000
C        1.50866005       0.00000000       0.00000000
H       -0.52078843       0.95765779       0.00000000
H        2.02421099      -0.90261575      -0.32483036
C       -0.87048002      -1.22379842      -0.00000000
H        2.38220075       1.14270791       0.41123393
H       -0.28391531      -2.13887145      -0.00000000
H       -1.52145135      -1.23484856      -0.87564365
H       -1.52139133      -1.23471640       0.87568993
9
Properties=species:S:1:pos:R:3 REF_energy="_JSON [[-3183.3346573864433, -3177.0836373803863, -3174.0427832237915]]" REF_forces="_JSON [[[4.168622283768149, -0.8480858359569853, 0.13945839919607997], [4.1246205032999415, 0.02627134422226127, 0.14161844255643286], [-2.097477468188831, 0.0909766957844854, 0.6280150611688998]], [[-1.2619072982809842, -2.708784055161214, 2.46489227769203], [-2.633468456468168, -2.881492006921261, 0.06824468453935777], [3.6442133689224545, -2.750076978996773, 0.5590108850169694]], [[0.5000006032596167, -0.035595366420966314, -0.9768116161105618], [-0.502750825170537, 0.19199983978738347, 1.2058004572595307], [-0.3866774589330525, 0.10405777877171213, 3.119927675367205]], [[0.33696218174474, 0.22850527947652713, 1.005573051955794], [0.33112659080770934, -0.5778620953190976, -0.03601147784026014], [0.7448580228566525, -1.9732802287273652, -1.6650869662574692]], [[0.14953581868854374, 0.1560991697323069, 1.0472722893498247], [0.4587381410027456, -0.014526890913508145, -0.7598077142689321], [0.5919333178101025, 0.2727649325557535, -2.8518821430723613]], [[-3.8498581127370373, 3.3318400312585257, -3.6552765411660664], [-1.6050134191139023, 2.8875293130440935, -0.5517737977956647], [-2.088274979678832, 4.30533848216662, 0.1806159446399232]], [[0.08425244385846596, -0.08243049160225545, -0.004147376867506482], [0.14937921597272377, 0.07059063759958871, -0.04119104951814018], [0.10489392182632701, -0.02238654383785911, -0.029284915253854737]], [[0.08814587062319296, 0.11141387805964023, -0.1175137827671306], [-0.28223501039502413, 0.015012582944561176, -0.1910913465796562], [-0.6630869240227535, -0.40598477335473493, -0.20616335378418799]], [[-0.21575379092434765, -0.15296260938473177, 0.09655329871745022], [-0.04039673993354781, 0.28247727555449265, 0.16421180164784513], [0.1496181994080546, 0.3785906356372827, 0.2648478121751638]]]" REF_nacs="_JSON [[[0.22039843346181195, -0.03187283170272202, 0.03889173820963763], [0.4928186022421177, -0.008195296542756017, -0.027521579475090964], [-0.04954223903311529, -0.25887450125215505, 0.14974580538471838]], [[0.325173456081058, -0.08113641962539515, -0.20573106537591512], [-0.538990011904746, 0.024542678940154713, -0.037704599037224215], [0.7863792831049603, -0.10782623523243703, 0.09052290972752675]], [[-0.08739805909615057, 0.0066287402651795295, 0.06896514466331347], [-0.028334282735720733, 0.017506867079661002, -0.07045162931140207], [-0.167880262499129, 0.0052872524368652975, 0.03212660868487684]], [[-0.0761963327536227, 0.1066339470892382, 0.13010821453039795], [-0.004948742216125795, 0.05367438743307931, 0.05495649431205317], [-0.09337867246937724, 0.0051618027275430346, -0.004348316814095188]], [[0.017353973415494394, -0.01823577883007074, -0.08226830976238725], [-0.014132747141589668, -0.02674139750961951, 0.08171564275142794], [0.06937086531966004, 0.005211765970659114, -0.10214169720297178]], [[-0.052004225392371824, 0.002799870895152925, -0.0038320633007777015], [0.07753085491942503, -0.09531119857567755, 0.006738148660704576], [-0.3160138177378905, 0.19301079136209887, -0.17086970839401572]], [[0.010620662767186371, 0.02236065219010933, -0.006634680193623747], [0.0037795381756695096, 0.00966369341347947, -0.0021865729004633817], [0.02567238228023908, 0.05439329116151114, -0.00484995649260896]], [[0.030758117158192825, 0.030922147468716618, 0.026937184664793685], [0.01204832001853848, 0.018514235988825768, -0.0018499679695400185], [-0.011137903848998206, 0.07472060750752163, 0.003892967753455113]], [[-0.01565085311592471, 0.04818798847927791, 0.013890562618423172], [-0.008872604486254388, 0.0042409355830427126, -0.0032159868299303255], [0.0003398884996206845, 0.0853087960900064, -0.006936044742761546]]]" REF_dip_perm="_JSON [[-0.1629453777807776, -0.009292962311377596, -0.04801169546166295], [-0.31401951461266303, 0.05238169454123584, -0.09260067606538505], [-0.24668946685973908, 0.05796130270381581, -0.11600380119805721]]" REF_dip_trans="_JSON [[-0.5012037337318012, -0.08741590103530963, 0.06585230753736145], [0.062025054529046886, -0.027747787726000287, 0.020082846176025692], [-0.7710640023853588, -0.13090167120933713, 0.09868724650108007]]" pbc="F F F"
C        0.00000000       0.00000000       0.00000000
C        1.45413144       0.00000000       0.00000000
H       -0.52078843       0.95765779       0.00000000
H        1.96968238       0.76045674      -0.58475252
C       -0.87048002      -1.22379842      -0.00000000
H        2.32767214      -0.96273517       0.74029433
H       -0.28391531      -2.13887145      -0.00000000
H       -1.52145135      -1.23484856      -0.87564365
H       -1.52139133      -1.23471640       0.87568993
9
Properties=species:S:1:pos:R:3 REF_energy="_JSON [[-3180.42533245745, -3176.0098725503844, -3173.404098523795]]" REF_forces="_JSON [[[-21.90730585632552, 1.2259937268445484, 0.9821241748887956], [-20.33705294787844, -0.3593473059513954, 0.49884089839115414], [-22.7723662933463, -1.0755428796667865, 0.7453125263633884]], [[24.489454204178593, 1.210199473253113, 1.778089539838088], [22.80816009855887, 1.6451405276633646, 1.4347190707233117], [25.229426970805118, 1.2181866065281466, 0.8178466857560625]], [[-0.6719937478671276, 0.030089865469896785, 2.07560079421584], [-1.133841765587503, 0.5139716592266393, -0.7674650837944945], [-1.5404958338374701, 0.828484295143118, -3.8216178560314873]], [[1.2607184720302642, -1.66968598218588, 1.473535964063381], [1.4604315089334932, 0.7369959128332905, 0.007114177691001076], [1.8192564136124663, 3.4465336364529335, -1.4315781738286042]], [[-0.5543765231569435, -0.1694261324010851, -2.1572560825629106], [-1.127219566672054, -0.4493054490100607, 0.9064707225073478], [-1.386999049573716, -0.491873457140992, 4.091016458671453]], [[-2.6600152853439396, -0.5634282694714738, -4.220293074552421], [-1.5649756322846795, -2.2210211046219204, -2.1369055732911804], [-1.1379671958769728, -4.079142667725808, -0.37242552133797874]], [[0.1373845854934918, -0.059260378930108916, 0.010561022878523514], [0.16029374120173784, 0.06892605563917245, 0.0325131997538803], [0.1795904953450182, 0.09127830528423334, 0.04149537934318415]], [[-0.3447146110098275, -0.27086860929267537, -0.06218537544134071], [-0.0003966914316259206, 0.2016581102942579, -0.15319312951264663], [0.34965133586128877, 0.6331472406246624, -0.2127962829705179]], [[0.25084876200279094, 0.26638630671322844, 0.11982303667120318], [-0.2653987448401528, -0.1370184060702779, 0.17790571753078582], [-0.7400968429874154, -0.5710710794982738, 0.14274678403324517]]]" REF_nacs="_JSON [[[0.018476067979465712, 0.06888528275508188, -0.03502699826364109], [-0.31175948201946974, -0.012143768599758357, 0.026314268440807254], [0.03723962442863435, -0.25507210592427976, 0.024970302335383485]], [[-0.6776632236771526, -0.08130806593536381, -0.10191498838628886], [0.23228842702207117, -0.024084719768707623, -0.09164558743257338], [1.2366261632890583, 0.23910544364769132, 0.2755293128676407]], [[0.17946107020519395, -0.07586993705868703, 0.143042351547579], [0.018690863890204967, -0.00669006824694923, -0.14224181867790076], [-0.37137980779193003, 0.12757681893286418, -0.015002246352665899]], [[0.18598790273897559, 0.18159844503253725, -0.10524736114152272], [0.01941004769371439, 0.1357276380508563, -0.05559062979605984], [-0.350500254333794, -0.2161263545783407, 0.1551074643509898]], [[0.047210807733887306, 0.003480755161608976, -0.11377146201184923], [0.007288415828555828, 0.015277601177760412, 0.1540179121842463], [-0.034434939314319984, 0.01037157718154863, -0.06067254973771191]], [[0.23071269020419585, 0.02867586016152882, 0.2371871706486096], [0.03399878285426764, -0.08754050681138018, 0.1173470681342611], [-0.45992105449346465, -0.09751477099256156, -0.4236597769798688]], [[-0.01853444009123898, -0.01652110522906015, -0.008219132405452202], [-0.0018732863772579946, -0.006495855463377777, -0.0011251922345019779], [0.03484849987192888, 0.03344007273586841, 0.007461281834321952]], [[0.03833867071569178, -0.02678367410635005, 0.019553105479076387], [0.021679362373650375, 0.01474009016350744, -0.00038662169526097463], [-0.07357287887331199, 0.03588364048143481, -0.002894841307353541]], [[-0.008259512086704637, -0.02375674482722956, 0.021846632043796766], [-0.019895071880067058, -0.026438759102451595, -0.0043760619308044766], [-0.015847014817011604, 0.08050644122116607, -0.001986679200675211]]]" REF_dip_perm="_JSON [[-0.17655504142211537, -0.07803123654234974, -0.08665672781756198], [-0.2505202426131522, -0.14003983710738027, -0.17278880591237392], [-0.30192342378259224, -0.15224418899135184, -0.1866566305283982]]" REF_dip_trans="_JSON [[0.015536285760454967, -0.04554367488668931, -0.14370444864317558], [-0.025120634123093278, -0.021176827664525468, -0.029578967097808696], [-0.017178879709684125, 0.06684744168632027, 0.2044483201653845]]" pbc="F F F"
C        0.00000000       0.00000000       0.00000000
C        1.13906005       0.00000000       0.00000000
H       -0.52078843       0.95765779       0.00000000
H        1.65461099      -0.47955584      -0.83081656
C       -0.87048002      -1.22379842      -0.00000000
H        2.01260075       0.60711577       1.05181042
H       -0.28391531      -2.13887145      -0.00000000
H       -1.52145135      -1.23484856      -0.87564365
H       -1.52139133      -1.23471640       0.87568993
9
Properties=species:S:1:pos:R:3 REF_energy="_JSON [[-3181.4686689713717, -3172.7604357728387, -3164.8191563057444]]" REF_forces="_JSON [[[-27.943428427204555, -1.428534873117467, 0.2633249863321484], [-30.303561538347914, -1.3285552650047736, 0.4939624397211118], [-26.88916006314924, -1.2226912003188732, 2.414246740146333]], [[30.621428507257434, -1.7015007760102046, 0.06965506516963547], [32.453925659490025, -0.5015225698664036, -0.20868430567895851], [24.69646649291771, 5.677251077773199, -5.5439861143734745]], [[-0.1529177215146419, -0.2083525228767818, -0.30642317079369363], [-2.2860543295661353, 1.3988814287308806, 1.4306533485284492], [-2.6494030076166113, 1.7088781731943226, 4.705664520803076]], [[1.2216493689762042, -0.629284184442849, 0.5723071600820392], [0.8102567055506957, -0.48569340579721887, -1.2335135521068104], [2.501852829267242, -1.4248029667303348, -2.7168905216082004]], [[-0.9005556252010244, 0.008887396527164962, 0.38058756088282103], [-0.5090035364359164, -0.616568181296472, -1.7574575015963685], [-1.8730328174475657, -1.722276974152813, -4.501039063099568]], [[-2.8890635294488822, 4.062810392385274, -0.9394064340249744], [-0.18191592753293118, 0.778056209791856, 0.9658038104416317], [4.019429109197243, -3.578490170726086, 5.408115615535926]], [[0.12319798051233971, 0.0007858054253600178, -0.009209836279999663], [0.3768025354723887, 0.1566448892409476, 0.028043188233111343], [0.24036823397337043, 0.1851193815423138, -0.006034705556448028]], [[0.006728938520037005, 0.003911343692813437, -0.08932502421874172], [-0.30804234185600116, -0.004182262347383316, 0.01183377507851634], [-0.49291599546451037, -0.5498911346306495, -0.03475246412248819]], [[-0.08703949189765278, -0.10872258158364458, 0.05848969285080012], [-0.0524072267808195, 0.6029391565511562, 0.269358797380163], [0.4463952183263832, 0.9269038140498358, 0.2746759922745244]]]" REF_nacs="_JSON [[[-0.10281206750279255, 0.0006781076524863288, -0.015390069302041644], [-0.05848310105850065, -0.03606701331491417, -0.020475913546557187], [0.15046130488119042, 0.11068670011149552, -0.04786403256350191]], [[0.4171859351109157, -0.14280845302625603, -0.1258663043699265], [0.19009071488718124, -0.18591625602924428, 0.12950002200898608], [-0.10178919934846904, 0.1967663316164656, -0.13079039289114094]], [[-0.1387152632760733, 0.08934707107758731, 0.05611120328900879], [-0.026202527792787856, 0.03223120332504327, -0.017668047177223915], [-0.1321530126127943, 0.047368165383135416, -0.09727959767885008]], [[-0.1284003825718203, 0.05650836598644556, 0.07380066421333478], [-0.011596484825253973, 0.014912826263213235, -0.028025038495961743], [-0.16379901145454653, 0.0742338064959818, 0.17595490363354044]], [[-0.03897559241099887, 0.004921804282816326, -0.06351440358168896], [0.017686570602818655, 0.016282540628181918, 0.0008803936861758461], [0.014738173449376704, -0.03815370383227515, 0.05563282377567172]], [[-0.31695403262214616, 0.4347988815335216, -0.07552480755039812], [-0.08819813101286933, 0.12605002373907334, -0.059174480431668425], [-0.047682895458836035, -0.022887038816925893, -0.10825632084003453]], [[-0.012398155798516, -0.0017453851723496236, -0.0068042314785633235], [0.008771442517280193, 0.0021854144094240633, 0.00020583350098749264], [-0.016782255859823885, -0.008486829969927969, 0.0005658819557104405]], [[0.0051309943148197075, 0.007077400194665035, 0.006934133824305642], [-0.008045190954589297, 0.0003279208714877417, -0.0014997142763224108], [0.029031994437899483, 0.0527643625743939, 0.01741195220058446]], [[-0.023734706695870363, -0.012640319748868811, 0.016303314274730297], [-0.00767020621339916, 0.00899612229585735, 0.0027058009164994995], [-0.03166972332991383, -0.02755074799860042, 0.016459619122745267]]]" REF_dip_perm="_JSON [[-0.13681907075383132, 0.01836086654724217, -0.039581906860809854], [-0.45956817380891885, 0.27440013277165676, -0.1266154664236804], [-0.6748827544708669, 0.4647730321695346, -0.2584732661881729]]" REF_dip_trans="_JSON [[0.29034952287437854, -0.3881313831522342, 0.14319694335609318], [0.03091132905522457, -0.019107220039098854, 0.0061086228010355315], [0.3089613897047761, -0.422617563508733, 0.15632708621687993]]" pbc="F F F"
C        0.00000000       0.00000000       0.00000000
C        1.09766037       0.00000000       0.00000000
H       -0.52078843       0.95765779       0.00000000
H        1.61321131       0.94168698      -0.18290867
C       -0.87048002      -1.22379842      -0.00000000
H        1.97120107      -1.19217193       0.23156165
H       -0.28391531      -2.13887145      -0.00000000
H       -1.52145135      -1.23484856      -0.87564365
H       -1.52139133      -1.23471640       0.87568993
9
Properties=species:S:1:pos:R:3 REF_energy="_JSON [[-3181.5136243579946, -3178.312248330446, -3177.783330824191]]" REF_forces="_JSON [[[-2.922413054717161, 0.6896744748052535, 0.7352719987929566], [1.136048834941638, -0.4541021170418717, 0.23399248106350867], [0.22320832568737056, -0.4004801636167752, 0.10099422685752049]], [[5.298793894777437, 0.4733774555421771, 2.7228157701292894], [1.829222112803636, 0.8523883726631855, 2.9009284832028444], [1.4656147387463447, 0.7551160915104395, 2.6244473059191793]], [[-0.1392106698963801, -0.04118667843381101, 1.3678457078500992], [-0.7323770876613545, 0.25844995012621025, -0.2638475889156578], [-0.3215227198540809, 0.25491344926814846, -1.8026983524922835]], [[0.7855634612205844, -1.2537689458911785, 0.7264030254392423], [0.7354425315707892, 0.325390224882379, 0.32727273634665677], [1.1944815943963631, 1.9044737326856735, 0.007270577878134221]], [[0.06741567368747982, 0.02708538294256148, -1.3634141277647476], [-0.3282483806363151, -0.28309412553502694, 0.34964931900043134], [-0.4132398017210873, -0.228923877857004, 2.101563964676331]], [[-3.0233779547609387, 0.23857148817935375, -4.242199833596464], [-2.443651414605012, -1.0665379340040457, -3.5988794597296834], [-1.9374604402157383, -2.251994770401574, -2.996379432898353]], [[0.0888279986486932, -0.10572740954547291, 0.009517895801896038], [0.14608210870697297, 0.11237130192634252, 0.01569514533792149], [0.08519257211495972, 0.0020300315844433607, 0.005895499562474439]], [[-0.2732803183031409, -0.17049162144967353, -0.09003015035976408], [-0.11417136168104831, 0.19487689446173717, -0.15356871302026237], [0.14086026979292396, 0.2782037176461558, -0.19994686118239804]], [[0.11768096933911043, 0.14246585384847102, 0.13378971370761317], [-0.22834734344024463, 0.06025743252032184, 0.18875759671443204], [-0.43713453894838117, -0.3133382108186097, 0.15885307167846924]]]" REF_nacs="_JSON [[[-0.11939354779647673, 0.05832061579897978, -0.0865965362465073], [-0.563708141055833, -0.11951598232184729, -0.017581791543794568], [-0.7340536734640185, -1.2146976551796786, 0.6870941102934556]], [[-0.23170526182378307, -0.12036987227758603, -0.040033615132477454], [0.5661299116846843, 0.021711209784037424, -0.0012693356687759425], [5.195312638169771, -0.035083548860822926, 1.0282955500057716]], [[0.087039844450698, -0.017998626504483865, 0.07531884555238676], [0.032490593513975714, -0.005174675746977605, -0.6066923367580549], [-1.411583211481644, 0.1281442004661269, -0.6363174240756911]], [[0.08998650249118609, 0.30580729032354637, -0.05134964002057507], [-0.0029634945531694756, 0.5567367285052788, -0.096745794662099], [-1.1764146655100283, 0.39193789409208546, -0.07257676250569357]], [[0.012647135479293647, 0.011942905052296523, -0.0343751613206186], [0.0018734565566957489, 0.03731688593878921, 0.6498091337616994], [0.17441103222276086, -0.03510993470190841, 0.14366992818867877]], [[0.10545976059434448, -0.11565969713437509, 0.10459208277667831], [-0.01884503930495692, -0.4724954551276662, 0.09964376793138907], [-1.96213947326629, -0.5186153944831114, -1.2091537534189338]], [[-0.014920606292268684, -0.02343297754193028, -0.009754481155279989], [-0.0004124052700112746, -0.006706544855262047, -0.0017639169158856767], [0.21868224566878636, 0.36913237517665204, 0.01736749747150311]], [[0.04631161738305209, -0.02484108137353832, 0.024715219137267725], [0.07998449606158484, 0.07289648002220346, -0.011776359890260985], [-0.11145940174623394, 0.4436384134239462, 0.05023297861147305]], [[-0.036787023894677105, -0.032293365177719524, 0.030216847956296526], [-0.08672006361804312, -0.09006059432945974, -0.015248080820625086], [-0.17273825572772863, 0.4571237075416907, -0.012766038055523843]]]" REF_dip_perm="_JSON [[-0.20459049049573547, -0.06612876644329388, -0.10173832540328187], [-0.34516538704258704, -0.06507113922441678, -0.07490415763929185], [-0.13946522074436832, -0.054857125177544645, -0.17106703876668225]]" REF_dip_trans="_JSON [[0.16117993493110222, -0.0018485130105575097, -0.05957085233721022], [-0.0380838015710486, -0.00023370126017832813, -0.016305833199164343], [-0.4942527984505405, 0.005354203162915428, 0.16843455019654363]]" pbc="F F F"
C        0.00000000       0.00000000       0.00000000
C        1.34669993       0.00000000       0.00000000
H       -0.52078843       0.95765779       0.00000000
H        1.86225087      -0.19151668      -0.93997411
C       -0.87048002      -1.22379842      -0.00000000
H        2.22024063       0.24245934       1.19000343
H       -0.28391531      -2.13887145      -0.00000000
H       -1.52145135      -1.23484856      -0.87564365
H       -1.52139133      -1.23471640       0.87568993
9
Properties=species:S:1:pos:R:3 REF_energy="_JSON [[-3182.3500479416116, -3176.930460406747, -3175.123157155231]]" REF_forces="_JSON [[[5.411195490006649, -0.6445900621020639, 0.21254931246159628], [6.582182794773153, -0.14684518755895068, -0.16344909153599776], [2.6469059312273644, 0.2659357183173387, 0.2127008273972906]], [[-2.625978555071878, -2.2568257422226132, 3.0994491137753233], [-4.726265549222778, -2.827812727719041, 1.474136585128584], [-1.2334518143002149, -2.5648841564157894, 1.6396220792213996]], [[0.5892218900902154, -0.016080322994813573, -1.0560428143795544], [-0.28071422763581616, 0.1503981933834355, 0.94297597381785], [-0.06497709664703151, 0.09991129160948442, 2.5595829048304424]], [[0.22887509088356914, 0.5254951268272502, 0.939349543010316], [0.20702812161961112, -0.4634263221596607, 0.11284397346305662], [0.5791426913768939, -1.8604378437237004, -0.9797619498190512]], [[0.3514552804968741, 0.13124634362157656, 1.1245426891398866], [0.5702536006099677, 0.006013868886935572, -0.43937033555340965], [0.6452681166942026, 0.1700161720580629, -2.2451027838909425]], [[-3.8785262232091884, 2.3923571689751837, -4.294239882682136], [-2.1698178454650736, 2.853560147626627, -1.8519251944096518], [-2.224587037945537, 3.95259578139711, -1.2254706756342901]], [[0.059457017025828174, -0.09941812840031218, -0.0031781804203762083], [0.14834767610829475, 0.09145324777863507, -0.03925492347679477], [0.08315118738298566, -0.04159825002098527, -0.01706669718830674]], [[0.09853115664374532, 0.12073716815915539, -0.1314977326234782], [-0.2519860898580007, 0.1088859900932248, -0.20281840784910052], [-0.5452967791412164, -0.2910521147887319, -0.19897312195853892]], [[-0.2342311468634563, -0.15292155186397993, 0.1090679517175718], [-0.07902848092992136, 0.2277727896677541, 0.16686142041586347], [0.11384480135194201, 0.2695134015662702, 0.2544694170422203]]]" REF_nacs="_JSON [[[0.25454189536059535, -0.019640241653750022, 0.034934463731954954], [0.5414594358052776, -0.030943551894758753, -0.05417457736263065], [-0.21567774436882498, -0.412282690524352, 0.323917924783735]], [[0.2152180787167274, -0.12921919104119867, -0.20048834429228807], [-0.61008545788414, 0.016676692708131637, -0.019263363377705407], [1.2720936617575995, -0.06244097009091455, 0.13316297459733828]], [[-0.09027011680278973, 0.000428731332727278, 0.06624535638797434], [-0.01749102079102383, 0.01753575440262318, -0.13682633718194417], [-0.30389810388300686, -0.025157066168073852, 0.05672349120706646]], [[-0.06819161808145359, 0.1430095780686559, 0.11644221598994048], [-0.0023789408153756003, 0.10681525264654815, 0.07935342655914636], [-0.1986437475549268, -0.07558880625671298, -0.07733241450492909]], [[0.015115893529577033, -0.019378093201269257, -0.07271435604534529], [-0.019570495400767447, -0.023593893188874462, 0.16132106816565484], [0.09086568808261318, -0.0029436341482128605, -0.21207912704207738]], [[-0.04015701103083393, -0.012739710446130752, 0.007769937815162843], [0.0744132564035867, -0.12313127445308862, -0.016381087124325285], [-0.5100961409626953, 0.22344624126585275, -0.21807076130882833]], [[0.012179423793262431, 0.02498204623574378, -0.007611616637172049], [0.004261926981617916, 0.010772399419595012, -0.0027773240145202785], [0.05504563488901706, 0.10906066928847201, -0.004627860746848682]], [[0.032615296336664525, 0.02925562959109345, 0.028047359956618775], [0.020435484356394966, 0.027674056010806906, -0.004757046000478425], [-0.03625433393521239, 0.11511167493365086, 0.00900661061353355]], [[-0.019776967159420816, 0.049610372452673517, 0.014983043773169488], [-0.018345736151724443, -0.007621329489564131, -0.0054078774653216945], [0.012694068722945498, 0.16618409679296312, -0.017314478599488543]]]" REF_dip_perm="_JSON [[-0.18345460166494748, -0.012772930611285215, -0.058675409270892286], [-0.39956656662774176, 0.002460024255561378, -0.07253698805688386], [-0.14107872683615916, 0.04092684226119293, -0.12268267544639921]]" REF_dip_trans="_JSON [[-0.4838366393410915, -0.05875494627605168, 0.05697055119684062], [0.08008432646978152, -0.017625098867302295, 0.016489830708245723], [-0.9105190516630872, -0.10262799426245309, 0.09968538161400001]]" pbc="F F F"
C        0.00000000       0.00000000       0.00000000
C        1.54994442       0.00000000       0.00000000
H       -0.52078843       0.95765779       0.00000000
H        2.06549536       0.61917221      -0.73270440
C       -0.87048002      -1.22379842      -0.00000000
H        2.42348512      -0.78386952       0.92760082
H       -0.28391531      -2.13887145      -0.00000000
H       -1.52145135      -1.23484856      -0.87564365
H       -1.52139133      -1.23471640       0.87568993
9
Properties=species:S:1:pos:R:3 REF_energy="_JSON [[-3183.878674762917, -3176.7469704933046, -3171.784901053133]]" REF_forces="_JSON [[[-2.586911455015174, 1.4584616397605852, 0.33058569479213956], [-2.877707361193062, -1.2833754006431626, 0.1938060831983871], [-10.91630516563703, -0.3650121248118604, 0.3318348899184643]], [[5.522653450276835, 2.923721417290444, 1.6714368492626688], [4.370775054244579, 1.5761604055354381, -1.0681097750268764], [12.346874523778043, 1.555232453694063, -0.3235806317873741]], [[-0.03226400039498375, -0.2319136230233249, 0.7601587531838386], [-0.715470438471392, 0.6056656750183028, -0.9562575498616963], [-0.831893166260088, 0.3786727441785398, -3.6780748155238103]], [[0.6601928475666471, 0.051814821118089764, 0.88491022212122], [0.5787130723268179, 0.6493626606652323, -0.24020456082671265], [1.3252739873957333, 2.125163801311255, -2.6274210856828817]], [[0.02805535256650385, 0.024419240298097628, -0.8122054674865441], [-0.17314794656317728, -0.056742928206249134, 1.28675822746052], [-0.10834102033810332, 0.16164407520157878, 4.20703898383123]], [[-3.672847447671486, -4.071143950726954, -2.849029354845932], [-0.8343699094202686, -1.8495010494720745, 0.6636644346192113], [-1.2925479677093223, -3.807299758327183, 2.0813261907253793]], [[0.10139350151353647, -0.12978427149645055, 0.01591183456352373], [0.10069797643358322, 0.06163206375481897, 0.01441000441295462], [0.11322759413021675, 0.013130764670163502, 0.030742119180952557]], [[-0.1458445418732647, -0.10400256840216274, -0.0831043124024748], [0.03166049067958075, 0.38397708147031684, -0.149859749031358], [0.30085933769451745, 0.63365018052177, -0.266284505408061]], [[0.1255722930287359, 0.07842729518370307, 0.08133578081092561], [-0.4811509380386569, -0.0871785081218117, 0.25579288505564796], [-0.9371481230571059, -0.6951821364407961, 0.2444188547457037]]]" REF_nacs="_JSON [[[-0.14601223990594323, 0.08954508413819975, -0.07483683916820928], [0.3952315001425651, -0.06436736409446381, -0.015932767988617254], [-0.1334128524400498, 0.10338269481029745, -0.06517977458188716]], [[-0.42415316435795486, -0.03027352324890568, 0.1264297966571232], [-0.40402865806893123, -0.03674687391510606, -0.019288211782889354], [-0.42660277559516935, -0.04864558084223718, 0.017275428630199364]], [[0.06651137778219238, -0.04932090703876164, 0.07032356343780108], [-0.022288624598069247, 0.03201070263907255, 0.05160335004293667], [0.1143129207869864, -0.05496837164855185, 0.07090895448735295]], [[0.10274415436435824, 0.09067836679538203, -0.13378198241803593], [-0.007103484117330947, -0.02864450274270797, 0.035324359186268764], [0.0697735152701911, 0.05067971765211353, -0.07326684284812783]], [[0.017732221791561854, -0.0054947595244719035, -0.05155647947075165], [-0.01328998653786426, -0.01970687677294956, -0.0539996171759069], [-0.03310763687571495, -0.0152182458180418, -0.023952678888114424]], [[0.10179123153705356, 0.07267663496987356, 0.05823557823570782], [0.054539635463523285, 0.08955508321935436, -0.0038968060540504764], [0.17958108819933136, 0.1517336321922838, 0.09464027184681086]], [[-0.012840912380652174, -0.020127494475994892, -0.009677674302309239], [-7.072332750825642e-05, 0.0073459709411101606, 0.0009813655236206955], [-0.014123018802017382, -0.027914079455892277, -0.0076448971664096095]], [[0.026649720004080658, -0.02913347755727452, 0.018580669559494604], [-0.006421376842033662, 0.004112569604595527, 0.001043995756467574], [0.02102328207420612, -0.03908279342170653, 0.005380335823333728]], [[-0.029752605810573655, -0.03149617176574396, 0.02695832920109614], [0.0040006407337019375, 0.01627471918908689, 0.004105637863791418], [-0.009520536327361112, -0.05201865655671403, 0.005782019245524424]]]" REF_dip_perm="_JSON [[-0.138786507214144, -0.06616624142349031, -0.030868973965139265], [-0.3378369464708402, -0.2733591610995336, -0.11743201433221018], [-0.33794104363805255, -0.261450445170445, -0.13316942407136761]]" REF_dip_trans="_JSON [[0.35166346430527484, -0.08321054614745231, -0.07612875063379129], [0.04958398464142615, 0.05191998795939104, 0.021720789027998042], [0.4500337818123534, -0.10712950158867084, -0.09775177708261232]]" pbc="F F F"
C        0.00000000       0.00000000       0.00000000
C        1.30160158       0.00000000       0.00000000
H       -0.52078843       0.95765779       0.00000000
H        1.81715252      -0.85186377      -0.44108738
C       -0.87048002      -1.22379842      -0.00000000
H        2.17514228       1.07845610       0.55841485
H       -0.28391531      -2.13887145      -0.00000000
H       -1.52145135      -1.23484856      -0.87564365
H       -1.52139133      -1.23471640       0.87568993
9
Properties=species:S:1:pos:R:3 REF_energy="_JSON [[-3182.7721863364236, -3177.8120940755607, -3175.36684572952]]" REF_forces="_JSON [[[-2.6945755386773786, -0.8578609117633622, 0.2857006890498243], [-1.3297603486232985, -0.10893439533464583, 0.3742014583431483], [-5.5094834115154505, 0.26858121335455054, 0.9543074356781039]], [[5.366144767125064, -1.6488812815556255, 2.5127817810992243], [3.5373135476488926, -2.094505997184754, 1.4308168163086912], [7.3146812828121295, -1.8205763297664783, 1.003514628178715]], [[0.10060925362174956, 0.00946906144306103, -1.5771402246937078], [-0.773375001249361, 0.3007206276161755, 0.9640631819524216], [-0.9327948598256366, 0.30544005580694394, 3.531558391545714]], [[0.6890120053724679, 1.0866056262141945, 1.361404286659963], [0.848993969530786, -0.6863341818413571, 0.04324564659266362], [1.2526973068620535, -2.857104606493579, -1.421391901872017]], [[-0.1831729304414701, 0.0796886926281968, 1.7381633065729776], [-0.29846784977222574, -0.2687096873099731, -0.7955820373436169], [-0.20917315651828855, -0.17820268601022338, -3.451076076507668]], [[-3.2321042041838104, 1.4187134492901674, -4.270847799566686], [-1.8426077760119655, 2.587313275219399, -2.016672478667867], [-1.6686438883198134, 4.1806608529146585, -0.7033387424038583]], [[0.1100604632035303, -0.053885607195459595, -0.0052574857375643205], [0.14867656371309382, 0.08388670420454844, -0.018768834440951752], [0.126420175549275, 0.03438706805971621, -0.019068767554775864]], [[0.16225254172596926, 0.20674399570044982, -0.1228163406890442], [-0.2663195840739815, -0.042973070361953504, -0.16042789052246795], [-0.6612941754408067, -0.4398096246263223, -0.14227575770208667]], [[-0.31822635774939584, -0.24059302476074326, 0.0780117873049216], [-0.02445352116408859, 0.22953672499299602, 0.17912413777851133], [0.28759072639822225, 0.5066240567585172, 0.2477707906381426]]]" REF_nacs="_JSON [[[0.09048990439763906, -0.06827500396009088, 0.01520727884572363], [0.476499901697584, -0.03832540156860281, -0.03431332603544536], [-0.06339677529087372, -0.22758826723846512, 0.15919204176029514]], [[0.4422136023430596, -0.13860303078817435, -0.07003117987230581], [-0.45255554184456576, 0.009110757481221253, 0.03855658540548224], [1.0235028902087449, -0.23846081359717664, 0.1373741504424327]], [[-0.12093113887502835, 0.02130962821642216, 0.10945632476433446], [-0.015352807720801876, 0.014984717518629061, -0.14274057055742706], [-0.2941007335290212, 0.03690430781455901, 0.027052763096766654]], [[-0.11364922973686128, 0.1642348742738621, 0.11070877515785939], [-0.006073641525551017, 0.11557490523562157, 0.06615947266510565], [-0.21383925678418508, 0.08626005347285748, 0.04873784260954888]], [[-0.0019342514677822, -0.01361160762190215, -0.12440853435426905], [-0.025396944315426502, -0.02548079632109512, 0.14204035556354402], [0.05901823258627859, 0.0021052756348864097, -0.10606388291656688]], [[-0.1439378930384362, 0.015806607756697053, -0.11614731383449463], [0.0190456345315655, -0.10060228744853542, -0.06346384089573845], [-0.3946326437202008, 0.15456828947739498, -0.2842337457743226]], [[0.013834179528925782, 0.023169854882998046, -0.008364236685228317], [0.0029889626121432744, 0.009536834944977694, -0.0010230459857841622], [0.03696346620786499, 0.0575547012047414, -0.0067463516647513965]], [[0.01904963105689195, 0.024113004024463557, 0.024850002988320578], [0.01859162845690298, 0.02294613494942597, -0.0033549687265746393], [-0.022295841015611554, 0.08241692078650864, 0.00406134353102566]], [[-0.026498150457035276, 0.045180686813693034, 0.017924837900989327], [-0.018937110631571753, -0.008294868877745437, -0.0015545940977897176], [-0.02690470216134463, 0.09445583024893894, -0.006205659547125195]]]" REF_dip_perm="_JSON [[-0.1638864161723769, 0.002601804597304548, -0.0751581547272899], [-0.2568493503796608, 0.028841161147843405, -0.12842051130314192], [-0.28474739119256065, 0.019655418918694496, -0.16361368159428064]]" REF_dip_trans="_JSON [[-0.27133059123734965, -0.07438580970972415, 0.10708956987636169], [0.03948339808603494, -0.011499139215411992, 0.02323823404862504], [-0.4136810828361589, -0.11276894100494085, 0.16215549640257393]]" pbc="F F F"
C        0.00000000       0.00000000       0.00000000
C        1.31307071       0.00000000       0.00000000
H       -0.52078843       0.95765779       0.00000000
H        1.82862165       0.55196274      -0.78458084
C       -0.87048002      -1.22379842      -0.00000000
H        2.18661141      -0.69878260       0.99327619
H       -0.28391531      -2.13887145      -0.00000000
H       -1.52145135      -1.23484856      -0.87564365
H       -1.52139133      -1.23471640       0.87568993
9
Properties=species:S:1:pos:R:3 REF_energy="_JSON [[-3183.0365561083186, -3176.5293392701587, -3173.651061444164]]" REF_forces="_JSON [[[5.696632811364545, 1.2525542284382494, 0.36959887142117753], [5.617464011497229, -1.1232357614037922, -0.3816104999174812], [-0.8454328035778983, -0.2396527477440774, -0.16880383772222185]], [[-2.728862426283253, 3.100764316533866, 2.492101282463811], [-4.235501141660601, 2.820640651442274, -0.1523831209081963], [2.4410569738506327, 2.713447036481793, 1.0355429002722538]], [[0.38457646931193007, -0.16230872592756418, 0.7225139175054784], [-0.06271952805044756, 0.15974786553422493, -0.6196585861897199], [0.05564396169650309, 0.020270281702563252, -2.2920461997013812]], [[0.2727176052580435, -0.050257040009300216, 0.7378877234544867], [0.13149192712508231, 0.45262192980567706, 0.013890930003835044], [0.5365453081337009, 1.581984215016487, -1.5363389663687488]], [[0.5049628405981358, 0.054643388564840814, -0.8797759899090142], [0.5050688598922124, 0.06823796439014142, 1.204413144602118], [0.7457048519744116, 0.3813461529949773, 2.8568255498439146]], [[-4.18005302498536, -4.007085908431131, -3.4578292339020127], [-1.5753898087155527, -2.7530572874322714, -0.18270363403930767], [-2.384138252487168, -4.295208597272658, 0.09761780959909745]], [[0.06507185300443091, -0.16807283682268925, 0.020209781636405584], [0.08032722516579692, 0.07168159358716675, 0.001491849046655699], [0.05849849082470151, -0.06310548683519851, 0.0023884692824480175]], [[-0.16203157261271187, -0.1133532954326577, -0.1058024333102411], [0.027078880293372597, 0.3705439943937928, -0.16761609727225113], [0.1480843655432976, 0.3737584821355326, -0.26301055923967487]], [[0.14698544434469116, 0.0931158730870499, 0.10109608064019397], [-0.4878204255478225, -0.0671809503155566, 0.28417601467494863], [-0.7559628959579066, -0.47283933648016757, 0.26782483403498253]]]" REF_nacs="_JSON [[[-0.2984658274704209, 0.13990459014812945, -0.10737305420323894], [0.5169960739451636, -0.08424802191229323, -0.03292615313103937], [0.1014973482113871, 0.11447419045499152, -0.1438960617008854]], [[-0.26433091709224843, -0.04346403477464683, 0.22685625615655122], [-0.5953790070017752, -0.027608923084510673, -0.08456568816445513], [-0.8894015451802484, -0.03165546814828429, -0.1571815399010679]], [[0.044458966424072016, -0.023339886238435345, 0.05687107420342279], [-0.020180432670122248, 0.020781276428833095, 0.07311593200663975], [0.1641791860057222, -0.0013734840147921548, 0.11201386399733045]], [[0.07101006851708637, 0.09067521787058419, -0.12861532251232644], [-0.009104970963232378, -0.04695181296441401, 0.059564970170856976], [0.09588985692285114, -0.02884582306746626, 0.03846035551572992]], [[0.012234547386769224, 0.0032364382108903233, -0.0358718269822812], [-0.01873468060574838, -0.026930812427454875, -0.061803188692537835], [-0.08668654596148474, -0.011966457205571417, 0.011967222349993582]], [[-0.003259848406062335, -0.023698054941457818, -0.05311025224372636], [0.10947863591071513, 0.1262910414576907, 0.03656259495261447], [0.35667566350231067, 0.22614684467815818, 0.1534988097006582]], [[-0.011474120000598114, -0.027092894649835376, -0.00873757983143961], [0.0008091845437608216, 0.012699630163866367, 0.00047713173259874794], [-0.03062911832132386, -0.06726416169812471, -0.013823948998737207]], [[0.020658209889454143, -0.03949368562726281, 0.01370828866203545], [-0.004973825733253917, 0.008765925147173592, 0.0031867101940313562], [0.012610460188311707, -0.07866090185522302, -0.008905208938461593]], [[-0.03387710619927262, -0.03759237232565585, 0.029557266249792765], [0.002347186766055476, 0.018785703219528552, 0.006115894520576286], [-0.011659510718620286, -0.09655402072703012, 0.0036967965443969217]]]" REF_dip_perm="_JSON [[-0.17442937726763996, -0.0825261522225774, -0.03280518127528828], [-0.34893370449567274, -0.16753398091149635, -0.07213933687813281], [-0.19160540985767158, -0.16152965630669014, -0.09475756937002416]]" REF_dip_trans="_JSON [[0.5897112257504795, -0.03199061989642872, -0.03689366503790207], [0.07209885767952667, 0.04275774780020826, 0.02031294645037493], [0.9552122846375719, -0.044984704787499843, -0.05612538957359605]]" pbc="F F F"
C        0.00000000       0.00000000       0.00000000
C        1.52814019       0.00000000       0.00000000
H       -0.52078843       0.95765779       0.00000000
H        2.04369113      -0.80908401      -0.51537659
C       -0.87048002      -1.22379842      -0.00000000
H        2.40168089       1.02429709       0.65246469
H       -0.28391531      -2.13887145      -0.00000000
H       -1.52145135      -1.23484856      -0.87564365
H       -1.52139133      -1.23471640       0.87568993
9
Properties=species:S:1:pos:R:3 REF_energy="_JSON [[-3184.2341651262805, -3176.1467177943596, -3169.5758967903926]]" REF_forces="_JSON [[[-1.2504541358961487, -1.0722358872136355, 0.013068981305998572], [0.08425116095026759, -0.3347134832957938, 0.7847291206383438], [-18.525849811580567, -0.8413853722176114, 1.1876410546009413]], [[5.01384070592562, -4.40992556090105, 0.7877196770285935], [-1.6928494838647523, 2.7364030112420497, -3.623893341215177], [20.942982845584954, -4.023645734103675, -2.495297249545338]], [[0.6530672740667014, -0.2894651539567634, 0.06935523044532767], [-1.8067043076255642, 0.8857353893905059, 0.5144931885939515], [-0.08133030579405078, -0.2983793770355527, 3.111238997126686]], [[0.5621076808409111, -0.6207121533848412, -0.16518412590950357], [-0.18291864181915157, -0.11171206362963124, 0.9693417594388389], [0.640709952432568, -1.0246918779402023, -1.7192727711557472]], [[-0.09346895561384379, 0.3815818768810596, -0.1225410996410829], [0.8238270466523475, -0.49183588469907114, -0.017493169568382098], [1.5254043484865492, 1.3464393406582764, -2.701779510413812]], [[-4.756842104831563, 6.326940129798042, -0.5983344778286347], [2.6493354006367764, -3.8308571765316817, 1.508168165350873], [-3.5257839464306335, 5.306957798001503, 2.6778858448527765]], [[0.06809482122911811, -0.08936445374474543, -0.018769377648543622], [0.32874926510821634, 0.18106208168499174, 0.026269305238444937], [0.10526611988987339, -0.08266397184491897, -0.04612876320308201]], [[-0.113519788407937, -0.12514368825154235, -0.10425065086410147], [-0.08016874904662495, 0.38230015679068086, -0.156391418779009], [-0.8924233360244096, -0.6712281709514445, -0.3650659318283244]], [[-0.08282549731748208, -0.10167510922597306, 0.13893584311284707], [-0.12352169098962684, 0.5836179690488311, -0.005223609697804428], [-0.18897586656253312, 0.28859736543452663, 0.3507783295664359]]]" REF_nacs="_JSON [[[0.34738107684417713, -0.02213048255464426, 0.02875998573027122], [0.5797448389603476, -0.0129905969798972, -0.0004615972732536525], [0.21235819445560725, -0.16350810972693663, -0.036726099309424935]], [[0.2251545732766035, 0.1844821696553532, -0.22399043088528506], [-0.7111073868376236, 0.2652525550353722, -0.04292517056055688], [0.5216703229037317, -0.18898995694745563, 0.10839581981208841]], [[-0.04476710882277935, 0.008630820514548535, -0.09904962678548901], [-0.09351960668914634, 0.06262403956119404, -0.046814752024013875], [-0.05551797950148322, 0.041486372669910475, 0.042177773817370624]], [[-0.04772697672269421, 0.014379576753735262, 0.12452435092219134], [-0.020910154886294507, 0.022894650778782884, 0.047575115571497295], [0.003081918910306431, -0.028731884786293578, -0.11674422284301682]], [[0.03518067476813427, -0.030865301485161416, 0.04909353504581186], [0.0072194727780761645, -0.05408734229539218, 0.04866373014748554], [0.041304244768646345, 0.022263706105944372, -0.06162502538081558]], [[0.12335465701339361, -0.20530347835555965, 0.09677949039851308], [0.2489782040604618, -0.35136325034384025, 0.00018262909590318791], [-0.18734983470427846, 0.2728199292043055, 0.06506239925933402]], [[0.0075969312328935095, 0.02022966813004245, 0.0006449995293009326], [0.011308465440023658, 0.012298665514605053, 0.0023224460588443883], [0.004577088378972896, 0.019497722748202405, 0.0030317451180372212]], [[0.04939401806800603, 0.06695814797748724, 0.02745610227940073], [0.013172861672950936, 0.03281243358284874, 0.001925988689940537], [0.0007217739445130152, 0.04366408622027334, 0.0030335119153072202]], [[-0.008715936335926081, 0.026197567022286983, 0.003988941572557349], [-0.00016898168853356189, 0.025721956257567295, -0.010053539954046719], [0.010173357356966494, 0.031701170771483475, -2.1651504413412646e-05]]]" REF_dip_perm="_JSON [[-0.13793082849965882, -0.0445889806037221, -0.03691910132351888], [-0.41470229474041204, 0.23794530481390477, -0.04317325912963464], [-0.14667707248883735, -0.06778391140196965, -0.032836410425451976]]" REF_dip_trans="_JSON [[-0.6495458274179158, -0.07185018143296641, 0.02679991497581185], [0.047083781286346056, -0.06457455359884795, 0.001995923614766957], [-0.7845794846823971, -0.10688695956433543, 0.03350577987694278]]" pbc="F F F"
C        0.00000000       0.00000000       0.00000000
C        1.33518033       0.00000000       0.00000000
H       -0.52078843       0.95765779       0.00000000
H        1.85073127       0.95524515      -0.08795830
C       -0.87048002      -1.22379842      -0.00000000
H        2.20872103      -1.20933651       0.11135486
H       -0.28391531      -2.13887145      -0.00000000
H       -1.52145135      -1.23484856      -0.87564365
H       -1.52139133      -1.23471640       0.87568993
9
Properties=species:S:1:pos:R:3 REF_energy="_JSON [[-3178.975580287562, -3175.8382508829563, -3174.441839288295]]" REF_forces="_JSON [[[-25.984345702025216, 1.0262619558533486, 1.2066762318485398], [-23.847512152909392, -0.14757128085267265, 0.6126117127864915], [-25.246694463270266, -1.183214525452022, 0.7198419016195665]], [[28.380397035008194, 0.6263564607831756, 1.6225267817231237], [25.730735960375714, 1.0511908218508181, 1.719743616142659], [28.8343410648618, 1.0566968153531364, 1.8576265070481326]], [[-0.8558314352188676, 0.15031123563570797, 2.3108357282509937], [-0.9691562947855606, 0.4091636444760103, -0.5285272399454741], [-1.673573837088706, 0.770974945579244, -3.2772222491169902]], [[1.4718592422724412, -2.162426613845017, 1.1354752181488914], [1.7414713789172076, 0.5506537753927001, 0.16824829282379117], [1.515697668329619, 3.204723747693606, -0.5481281192429669]], [[-0.7177294733097661, -0.24988715289676477, -2.382480441446896], [-1.1678898279769383, -0.4866692192843319, 0.6447929576167352], [-1.432416690571522, -0.5092794962556025, 3.404150532405921]], [[-2.3144028735850855, 0.6583985366818079, -3.965211889000461], [-1.4346479456304935, -1.4353395970055123, -2.6554851985317383], [-1.8047154810230568, -3.5777164139897875, -2.1389294673956347]], [[0.14331172258192784, -0.03948417444853089, 0.005740337401716121], [0.14967238668508376, 0.059627573929832235, 0.025413774141962466], [0.20750918590245118, 0.11233859459996333, 0.03547156677278474]], [[-0.3858767199195126, -0.30590852710644756, -0.06618072547466311], [-0.016471639515044385, 0.11937852625874718, -0.1542570083902537], [0.24914519219722975, 0.5503409730274176, -0.1893820655987998]], [[0.26261820419750515, 0.29637827934353755, 0.13261875854874458], [-0.18620186516241624, -0.12043424476674126, 0.16745909335686507], [-0.6492926393410573, -0.4248646405531918, 0.1365713935068468]]]" REF_nacs="_JSON [[[0.11038884785406201, 0.07006386912428676, -0.040080999189444654], [0.3836766499469512, 0.07442154831516529, -0.018889387932315652], [-0.10343248688383218, 0.3969110173211149, 0.019250487600482424]], [[-0.86633713968414, -0.039753773598491304, -0.17410342928437247], [-0.24232719918051643, 0.010666636438745051, 0.13500461875410666], [-2.5018883560524694, -0.2601843577086556, -0.7884453177380429]], [[0.22083291095153043, -0.08125238305616046, 0.2147243759902067], [-0.03765400100356688, 0.003559606164943644, 0.3343942611521058], [0.7667836052017827, -0.23121978826258743, -0.2504366022478435]], [[0.21340686868942904, 0.1627196216749334, -0.06523659036748546], [-0.039259368049395504, -0.3697118884511811, 0.08669105305964711], [0.7248912257138351, 0.4864374562048364, -0.22536499841494295]], [[0.05004855166258212, 0.005045380515948082, -0.1775561335228844], [-0.0026211467446402305, -0.021099626919303012, -0.3587583100537253], [0.09303287859976458, 0.007414330404963274, 0.3988015500166613]], [[0.2581892931562288, 0.001039480075491041, 0.24109508322327913], [-0.06349848099404591, 0.2686583337563656, -0.19033864553570862], [0.912217672223084, -0.09484896103135101, 0.8877788664668774]], [[-0.021618128454912126, -0.016964020282301664, -0.007931211488346308], [0.0034765275123111233, 0.008844701935402289, 0.0009447065044589668], [-0.07059193896922462, -0.06535263583714801, -0.006332238914930261]], [[0.038553207683207136, -0.036452016583613744, 0.021857277369766486], [-0.05296339207122121, -0.04075569037829665, 0.000541845154000686], [0.1584360533720799, -0.03682708327459619, -0.005683889716219807]], [[0.003197712769285676, -0.01837384369630094, 0.02539950165188655], [0.050294625716835614, 0.05935983744725152, 0.005392413462010836], [0.024471073028091858, -0.17522288081741885, -0.007111414572427867]]]" REF_dip_perm="_JSON [[-0.20038080105366957, -0.07165008019223496, -0.1211191359948703], [-0.24196345546830003, -0.09843011742927456, -0.21562687216358492], [-0.25995144596258773, -0.08855337820417032, -0.1337856793012645]]" REF_dip_trans="_JSON [[-0.007641264203618294, -0.015522958326571475, -0.1279881469029715], [0.02173867664649357, 0.012819685915741279, 0.03709777609649749], [-0.021936149706159678, -0.03069637753688214, -0.2227436686432959]]" pbc="F F F"
C        0.00000000       0.00000000       0.00000000
C        1.11951507       0.00000000       0.00000000
H       -0.52078843       0.95765779       0.00000000
H        1.63506601      -0.28662164      -0.91546600
C       -0.87048002      -1.22379842      -0.00000000
H        1.99305577       0.36286184       1.15897627
H       -0.28391531      -2.13887145      -0.00000000
H       -1.52145135      -1.23484856      -0.87564365
H       -1.52139133      -1.23471640       0.87568993
9
Properties=species:S:1:pos:R:3 REF_energy="_JSON [[-3181.6106977122704, -3175.552959092689, -3171.197940299919]]" REF_forces="_JSON [[[-20.417155699221926, -1.2464715844148784, 0.42195553329739305], [-19.71309735628519, -0.2405678201816975, 0.7664799760541284], [-23.251919108928043, -0.06598140110824008, 1.7329163037007527]], [[23.189114711342135, -1.5611814238483133, 1.6831142716752263], [22.113594187858865, -1.9736378265169945, 0.1548651214075309], [24.818077005003367, -1.2454422575750257, -1.437645181903895]], [[-0.22434103058884503, -0.005080933296165263, -1.5198804531930272], [-1.427584261343393, 0.6032685197981403, 1.3521744909849849], [-2.0028162729926775, 0.9314722013552379, 4.484861596953058]], [[1.0922229928974285, 0.693689904381798, 1.563686430974959], [1.2321633482577703, -0.8543419267466633, -0.32107482040506125], [1.9654270145797723, -2.960291146142448, -2.395633985479269]], [[-0.6985898586894603, 0.006871834441215418, 1.6209923655559821], [-0.9364456435661175, -0.5556695973271648, -1.2437363150162328], [-1.0850333598954907, -0.6624881081367439, -4.360916263407086]], [[-2.9505149176706063, 2.1830122145961326, -3.7278604220205023], [-1.2350749639861769, 2.698097018922187, -0.7489023772181258], [-0.2865143433350388, 3.7532087636420437, 1.881243624817084]], [[0.15178536220472302, -0.014151230176075395, -0.0014751561733294166], [0.19409221019082493, 0.11937611733768792, -0.017877297569225344], [0.16966648721721558, 0.10286326963185492, -0.0405441281675349]], [[0.14414309706231965, 0.18261448701446523, -0.10739422772866301], [-0.26794737030474447, -0.1306276444638931, -0.12637754623146816], [-0.7195094383055469, -0.5770207083287809, -0.12284958437722285]], [[-0.2866646573329812, -0.23930326869816215, 0.06686165761220808], [0.04029984918114461, 0.3341031591786776, 0.18444876799334056], [0.39262201665407614, 0.7236793866669059, 0.2585676178649203]]]" REF_nacs="_JSON [[[0.01755364481557774, -0.07099855738062111, -0.02193334827226871], [0.23996022992250468, -0.013622206259346127, -0.027163901240438104], [0.06803882563587406, -0.07292270974771546, 0.03117198924549765]], [[0.5536837362013688, -0.14225609103321335, -0.02568863278708543], [-0.182003725712397, -0.023246260609251487, 0.08516691862437101], [0.6478250924577205, -0.27060464757722835, 0.00330415316322234]], [[-0.1534300105483268, 0.06263017949124552, 0.10403491226646502], [-0.012586036249813961, 0.008054752032586739, -0.06761647941468425], [-0.23521855426107843, 0.08305288319115682, 0.022605010788978544]], [[-0.15446184540511176, 0.1345966582840311, 0.1412246872510961], [-0.011620163582217445, 0.04850605020720411, 0.026235221663799737], [-0.196615815658108, 0.13958573987004716, 0.1527801282326918]], [[-0.03299176342828575, -0.0032621307317185796, -0.11156478540053036], [-0.01341559123474786, -0.015269242894698193, 0.059053078870947684], [0.005773070153815043, 0.007345401364766069, -0.05495853524023326]], [[-0.21219111191478543, 0.09809876389034569, -0.20535980451381247], [-0.02098126894274339, -0.017076369312122985, -0.07533189523270735], [-0.25546361742340734, 0.13349925507985355, -0.23504164190950674]], [[0.008870653387497564, 0.009543070633462247, -0.008889633114253143], [0.0027348964085795622, 0.005380673796223565, -0.0003665408547069481], [0.013351677547543468, 0.010622088582650903, -0.008126969971802206]], [[0.011556324095775438, 0.017752274716941185, 0.0180250666337263], [0.007193820493572481, 0.010015695629376781, -0.001737161372031063], [-0.002607588885705422, 0.043089275611755073, 0.0071876300407831975]], [[-0.0314139335146877, 0.022575757540948635, 0.01665779452953044], [-0.009196363884235571, -0.001204512467221892, 0.0006428875023265223], [-0.03933433650225391, 0.029423668673796862, 0.006176425844871847]]]" REF_dip_perm="_JSON [[-0.14721213192830862, 0.02084441676259353, -0.0751352533505032], [-0.29559431601608366, 0.08466430803711832, -0.17469378407235922], [-0.3787887720521641, 0.0662828302507681, -0.22928442050184034]]" REF_dip_trans="_JSON [[-0.014277545000363857, -0.14538688767840452, 0.16379723959360165], [0.03309729803957699, -0.01503688513985867, 0.023124181331115757], [-0.01554408043493113, -0.182357850319384, 0.20587264031590788]]" pbc="F F F"
C        0.00000000       0.00000000       0.00000000
C        1.14439198       0.00000000       0.00000000
H       -0.52078843       0.95765779       0.00000000
H        1.65994292       0.69716902      -0.65892739
C       -0.87048002      -1.22379842      -0.00000000
H        2.01793268      -0.88261318       0.83419943
H       -0.28391531      -2.13887145      -0.00000000
H       -1.52145135      -1.23484856      -0.87564365
H       -1.52139133      -1.23471640       0.87568993
9
Properties=species:S:1:pos:R:3 REF_energy="_JSON [[-3182.176851823389, -3177.956025708684, -3176.755106697726]]" REF_forces="_JSON [[[1.6155757108990145, 0.8683233257377412, 0.5897573475159941], [4.440351251356507, -0.5217994808649313, 0.015586690424036728], [1.978836772272603, -0.45610415693520684, -0.06955209487169624]], [[0.9261332460380935, 1.231689838566435, 2.946163178056051], [-1.9348712046482217, 1.677744206490073, 2.564362076685862], [-0.33758829080041375, 1.4092046859037595, 2.503220833168792]], [[0.07908197742044389, -0.09448630346590857, 1.4520330825880758], [-0.4550029815819259, 0.1970758633348682, -0.47029420393747184], [-0.18607279183161113, 0.2024034158344526, -2.352864988636214]], [[0.5233705054883013, -1.1744312330321134, 0.9800990527114168], [0.5909565524353979, 0.5324267646784129, 0.18910153507070965], [0.9771072040232284, 2.349021141039547, -0.589247421522853]], [[0.28488099619540325, 0.03883693676200883, -1.5009409037716612], [-0.043633467171682046, -0.19319569632382716, 0.6629700135075487], [-0.10005172014128932, -0.0837086759544716, 2.7827364072209524]], [[-3.3916791924384713, -0.7475557024268297, -4.5269988981645914], [-2.3669533054819825, -2.0421101303432447, -3.0256680615190445], [-2.0292887372597197, -3.368086751717874, -2.221454696368872]], [[0.07679482698329498, -0.1214880841783445, 0.015523218009325348], [0.12261411617924907, 0.09434003389421482, 0.01739682492782366], [0.0731018144478307, -0.013037335641235746, 0.0008232813493983866]], [[-0.277991106898743, -0.17129824824581474, -0.08837154237422036], [-0.060810787538970464, 0.2479634303364902, -0.1615529204569607], [0.20930687990141347, 0.3704353821696308, -0.2267546860294936]], [[0.1638330363101167, 0.17040947028168152, 0.13273546542949127], [-0.2926501735437442, 0.007555008798153022, 0.20809804529765877], [-0.5853511306102147, -0.4101277046992288, 0.1730933656907369]]]" REF_nacs="_JSON [[[0.1783885886593513, -0.10431648707773729, 0.09127732558273756], [0.5923269503311692, 0.025025865179840203, -0.012253861839305246], [-0.4038142830133461, -0.48136458460325393, 0.34415152600420984]], [[0.24560950612540222, 0.13278939857653313, -0.036550328851895984], [-0.6144671389571486, -0.003023621091064613, -0.003285327496100082], [2.0429164657493653, 0.025565190098824353, 0.30186942458503]], [[-0.08020996705200309, 0.01929710613924454, -0.10015923580964342], [-0.023585586782098336, 0.012247630454468328, 0.28652034637025664], [-0.5118259303139651, 0.016262174509938356, -0.31904508736662196]], [[-0.09109478458275898, -0.2132303117886501, 0.08486272217271641], [0.0031787926994992013, -0.23879762011106462, 0.0941740606446413], [-0.4013252794313785, 0.13480433102819048, -0.06489057955485483]], [[-0.014930085466371094, -0.010591398478373423, 0.061830370640211414], [-0.01451192704378497, -0.03397196421275646, -0.30923958919242195], [0.12541428325084797, -0.0004413886555451508, 0.08484985908565915]], [[-0.09328645406138363, 0.036191062919549745, -0.07698529468336406], [0.03686466988179854, 0.21588347067786803, -0.07212764971031643], [-0.7791642776735324, -0.2876515215157154, -0.39079752480659224]], [[0.01611766145312571, 0.028844168599210785, 0.009943288927489951], [0.0010715687987532994, 0.00899542582983373, 0.001930711242222649], [0.09019755346428167, 0.16745754012986377, 0.014820736927437518]], [[-0.035116235056498975, 0.03642350350021788, -0.02070147729148399], [-0.03649816336347409, -0.028090769037218303, 0.006269317443137188], [-0.03548815231958708, 0.19936682700378722, 0.025809750714722392]], [[0.030636048254338154, 0.033087559403145256, -0.029207057040020412], [0.039792408033307414, 0.04593981456195334, 0.00960276980989885], [-0.051555190317327464, 0.2059670880771439, -0.004341399331040126]]]" REF_dip_perm="_JSON [[-0.18933609161244316, -0.07895978327388356, -0.07041756973244116], [-0.35401364625563364, -0.08638191129612148, -0.08025683397734898], [-0.1426547579477536, -0.08596552262727222, -0.15651217284705665]]" REF_dip_trans="_JSON [[-0.3123319569594248, 0.014482101573252854, 0.06875316969143268], [0.057474332134715075, 0.008947873169987144, 0.022890462278412075], [-0.6489373847529816, 0.02625259317829903, 0.13110575263400873]]" pbc="F F F"
C        0.00000000       0.00000000       0.00000000
C        1.42606081       0.00000000       0.00000000
H       -0.52078843       0.95765779       0.00000000
H        1.94161175      -0.39348843      -0.87486959
C       -0.87048002      -1.22379842      -0.00000000
H        2.29960151       0.49815477       1.10758139
H       -0.28391531      -2.13887145      -0.00000000
H       -1.52145135      -1.23484856      -0.87564365
H       -1.52139133      -1.23471640       0.87568993
9
Properties=species:S:1:pos:R:3 REF_energy="_JSON [[-3181.369829870257, -3177.8412946139033, -3177.392918184345]]" REF_forces="_JSON [[[2.0473579301444738, -0.054054418701034466, 0.3821254350642646], [6.617378427130315, -0.7755974592220777, 0.38982308338979355], [6.483004930352209, 0.49644471821109737, -0.3870111593277879]], [[0.4012288016536378, -0.5315103492578385, 3.4329939173694086], [-2.8535871053475708, -0.6785275900854871, 3.302283859152187], [-6.113838397585023, -0.5124340849586577, 2.824161668333454]], [[0.3443118279762431, -0.05394468326398116, -0.5958249911145602], [-0.7716348323763714, 0.1441728583734727, 0.35913209828092013], [0.36700057853188295, 0.19329104365915525, 0.977691038894181]], [[0.422178204654166, 0.5944786767773196, 0.5194874159263748], [0.08690364032414133, -0.3300075310423183, 0.2954169568570392], [1.083529162387488, -0.7211118258870483, 0.2828399239418239]], [[0.37555250635116555, 0.16229145130337794, 0.7571548931758838], [0.27189834371738936, -0.20561109877361963, -0.3644688037867044], [0.0723506525830967, -0.12340086558403962, -0.5489099948547661]], [[-3.465510544935803, 0.07600736799850856, -4.477377385788794], [-3.1799005647182774, 0.9119329719387764, -3.990744209538123], [-1.6368875767868698, 1.136049035833981, -3.188163348148608]], [[0.05748784333069244, -0.1255539804712085, -0.003604138711583125], [0.21273298221635994, 0.26267873814475395, 0.001929125723993249], [-0.008143400056655732, -0.1556438529015367, -0.001558025473813289]], [[0.015847048335641063, 0.06962714812839237, -0.13325091060627384], [-0.2505203940348298, 0.29401676860664644, -0.15775872436895408], [-0.20581400083800952, -0.20166839980927834, -0.19151206032895887]], [[-0.19845361751025622, -0.13734121251063927, 0.11829576468535347], [-0.13327049691157333, 0.3769423420591304, 0.16438661428911674], [-0.04120194858822816, -0.11152576856458722, 0.2324619569634356]]]" REF_nacs="_JSON [[[-0.24040607107417225, 0.07011931300443162, 0.05490390902804359], [-0.3023510404738028, 0.13430172635186624, 0.05864806357588114], [-0.5317181263897258, -0.6974196303519554, 0.9573750045074175]], [[0.08227844500866473, 0.145277436028623, 0.028728734449536966], [0.36903324297257034, -0.11368020854346547, -0.0585931203575766], [3.0719911020115265, -0.1026252655006699, 0.2626811145680227]], [[0.041963762052644904, -0.005793306822610266, 0.1828783698125355], [-0.031409179259247036, -0.016443633631498495, 0.5433625899301046], [-0.8793017774078526, -0.043426141103594676, 0.573435212409638]], [[0.03126432892650174, -0.47694533784748516, -0.06591802467323679], [-0.010170850137022541, -0.38531512645606464, -0.047830239748802565], [-0.6114121523963639, -0.7703690525036598, -0.15392223440200592]], [[0.0051123270435477555, 0.014974609596079843, -0.201792902206975], [0.03543872053763274, 0.004848079992614389, -0.5793897941708075], [0.1907137880032678, -0.06016328438035184, -1.0821530009769538]], [[0.02942053321107497, 0.2670257720292374, 0.040330247858610634], [-0.03526397606829822, 0.39363547655781156, 0.038110857208990975], [-1.2784898035783776, 0.6952605306364205, -0.5896098957350822]], [[-0.006672803801996327, -0.01744456007378528, 0.009410098620507616], [0.0008027790988892003, -0.003382027043832564, -0.00014665109839627385], [0.1589652738904739, 0.28825866789267796, 0.010214311852720266]], [[-0.06835349262348843, -0.04404971116987665, -0.02286070816196977], [-0.05916988005648125, -0.06497769849211212, 0.02236663039806301], [-0.19926382250417182, 0.199674837773989, 0.04709260935724433]], [[0.0709493090438225, 0.007107419643994049, -0.02005191258079237], [0.062385938760169096, 0.07239096804644439, 0.020443377750780468], [0.08911932160487403, 0.4985470934962858, -0.02620923103087689]]]" REF_dip_perm="_JSON [[-0.20482783203697955, -0.03335481431816929, -0.09947525298808618], [-0.9148891831955754, -0.07308245721307638, 0.023101243347756473], [0.30993890565794036, 0.021949928678388294, -0.19880268799873088]]" REF_dip_trans="_JSON [[0.12347475531495891, 0.005139422500018976, -0.025253383729806206], [-0.07678655865316734, -0.006982664005958012, 0.007275167079521223], [-0.4674933737335835, -0.025713874955546445, 0.08168783660734602]]" pbc="F F F"
C        0.00000000       0.00000000       0.00000000
C        1.50340685       0.00000000       0.00000000
H       -0.52078843       0.95765779       0.00000000
H        2.01895779       0.13191973      -0.95017216
C       -0.87048002      -1.22379842      -0.00000000
H        2.37694755      -0.16700984       1.20291414
H       -0.28391531      -2.13887145      -0.00000000
H       -1.52145135      -1.23484856      -0.87564365
H       -1.52139133      -1.23471640       0.87568993
9
Properties=species:S:1:pos:R:3 REF_energy="_JSON [[-3183.6385087025487, -3175.7228479390546, -3168.6800740164504]]" REF_forces="_JSON [[[-9.233715921076366, 1.783513267975693, 0.21619741293871686], [-10.378647845666224, -2.3163373145311192, 0.2721119823600432], [-18.169943723122863, -0.3331835760183501, 0.7184905123770394]], [[12.246352537250965, 3.2426283316473867, 0.862183094247288], [11.434544132743696, -0.9759396930990666, -1.5805165301243618], [18.929495966709826, -0.15232712569013512, -2.2707041631917813]], [[-0.19721653678193984, -0.346421555064184, 0.18990715025420069], [-1.0115200138644396, 1.4097988256463223, -0.4377508999433931], [-1.271344905940294, 0.7706848392921015, -4.359879522719501]], [[0.9191643707573747, 0.4637324794824448, 0.3593805354289629], [0.32274202370300564, 0.37629769499954724, -0.046124347896951065], [1.7410805377182306, 1.7298694904733531, -3.2035494901821475]], [[-0.25096885916203, -0.0027798877566486643, -0.17810116817651453], [-0.06702683975488413, 0.04649648963742416, 0.6738028736648718], [-0.4848724125044517, 0.02024361678584588, 4.955874239958349]], [[-3.604035618906692, -4.933767264856001, -1.441381579172295], [0.1334105216919936, 0.7950650404138886, 1.0424675518591402], [-0.19760964289788524, -2.0718872540680526, 4.115016010883001]], [[0.11839417443428016, -0.12078748866624245, 0.011982990241049167], [0.09466693798138638, 0.06358094103953305, 0.0035450598541845618], [0.13743164715125053, 0.06170121696466643, 0.04357093992651674]], [[-0.04493341585078637, -0.05058709863202225, -0.08334733692551254], [-0.11578355718897418, 0.43077928152083034, -0.15712725151333884], [0.39392152972258304, 0.8248555431657312, -0.2722917925721442]], [[0.04695926933392954, -0.0355307841333189, 0.06317890116394395], [-0.412385359643571, 0.17025873437428463, 0.22959156173898734], [-1.0781589968369656, -0.8499567509045926, 0.273473265521788]]]" REF_nacs="_JSON [[[-0.019558767586350067, 0.0670050169688506, -0.06459606454594403], [0.2793610125511013, -0.08369076640741974, -0.023720908768814466], [-0.3894286001985519, 0.11443455256351609, -0.043943665556210466]], [[-0.49358273347020704, -0.033284362733350906, 0.11029875163371892], [-0.2849827627639728, -0.06905631671105661, 0.0343996702984366], [0.021578170889285538, 0.11472637735493041, 0.1262594070089138]], [[0.06360705917167885, -0.062131657627029165, 0.03337768064255127], [-0.02013111058390865, 0.04899671622928439, 0.05795756621622829], [0.09516156489838158, -0.10523461050242129, 0.015511392809381602]], [[0.11045278474190484, 0.06763557617429931, -0.10942072184088804], [-0.013899937504905159, -0.019665042405948928, 0.02949631404122669], [0.06202359894622813, 0.05571971515912284, -0.09642229762179108]], [[0.021642304735883428, -0.021905079682673058, -0.016347425289648127], [0.002714475543831256, -0.010114414506098509, -0.06150145572685991], [0.013216896980431526, -0.004766515324562262, -0.006781854967780606]], [[0.15498012998147337, 0.19165243050767336, 0.0509598805968005], [0.0426170618660591, 0.10641491824542915, -0.039310577552612816], [0.05513115183460147, 0.041787419566644855, 0.015574317603167489]], [[-0.012355294907575908, -0.013525221728500559, -0.009868858291556436], [-0.0011684303511935441, 0.004266642827821858, 0.000552008915210422], [-0.008363445737626238, -0.01707847690326256, -0.005577604616581479]], [[0.033374128664397304, -0.013977264903841689, 0.021655386214498737], [-0.010561720641774137, 0.0031708656354401494, -0.0006131307241955236], [0.02591027845839415, -0.02260282162743894, 0.01602704732032623]], [[-0.029821380273159493, -0.026213850129537804, 0.02522852178266449], [0.005415472495080662, 0.02025390137460118, 0.002893823206496768], [-0.022207606099811702, -0.043744262270336974, 0.014786165733149394]]]" REF_dip_perm="_JSON [[-0.11605376783831914, -0.049798002851026237, -0.026080504273372867], [-0.4515735113670133, -0.4826777449300524, -0.11867701645206943], [-0.42196827701183154, -0.4177419320230116, -0.14100169493242204]]" REF_dip_trans="_JSON [[0.18511944731941954, -0.14494718216307115, -0.07774171558057692], [0.05194875472048766, 0.06610551883261624, 0.014029225948420723], [0.21716369869112623, -0.16699278360256517, -0.0901767238490861]]" pbc="F F F"
C        0.00000000       0.00000000       0.00000000
C        1.22204665       0.00000000       0.00000000
H       -0.52078843       0.95765779       0.00000000
H        1.73759759      -0.92761630      -0.24445442
C       -0.87048002      -1.22379842      -0.00000000
H        2.09558735       1.17435850       0.30947831
H       -0.28391531      -2.13887145      -0.00000000
H       -1.52145135      -1.23484856      -0.87564365
H       -1.52139133      -1.23471640       0.87568993
9
Properties=species:S:1:pos:R:3 REF_energy="_JSON [[-3183.7171199477484, -3175.9541999593757, -3169.8072142522533]]" REF_forces="_JSON [[[-8.18335412890552, -1.220189967266654, 0.16540433093606918], [-9.098991250222788, -0.22812096136335044, 0.733196068503142], [-17.014601361710287, -0.44561184078336635, 1.6276971072890962]], [[11.217125093738044, -2.679373736664942, 1.2360701960934979], [10.273062951896552, -1.2133629031171795, -1.868408585543868], [17.907799254322683, -1.23099493454434, -2.466760558206325]], [[0.17824680118363653, -0.1285232358711912, -0.5738076989045638], [-1.5417042184377214, 0.6880566984298055, 1.4768914788739962], [-1.4849333310253627, 0.5885423325141896, 4.622574773535777]], [[0.791099699062001, -0.335181852581548, 0.7359586801950989], [0.5607592102933404, -0.6025462392805391, -0.3693426271350005], [1.5866582244152307, -1.8877329849418159, -2.9623815351135168]], [[-0.41799896854886054, 0.15281150899053145, 0.6266894168582753], [-0.00017791083219105398, -0.36351169088665125, -1.2869938553209361], [-0.16738773498447174, -0.04191102367737734, -4.303848593122891]], [[-3.5782790894486913, 4.345767097628516, -2.1612440585113832], [-0.13877368870851434, 1.1317902391110533, 1.259613602710754], [-0.44261490745496646, 2.933169694281749, 3.437256722997973]], [[0.12005241942011168, -0.04150503469563666, -0.013739587945820163], [0.2351796792754248, 0.11346529316687853, 0.0054263091964434], [0.16163068942747458, 0.061274510476139306, -0.04890238041080434]], [[0.02144293667362857, 0.03449074815516425, -0.09722316474819324], [-0.275450383635662, -0.026786978244802678, -0.11093729077556158], [-0.820963658036851, -0.6823114743455607, -0.1912171418047598]], [[-0.14833476317180622, -0.12829552769590075, 0.08189188602730069], [-0.013904389625598762, 0.5010165421830161, 0.16055489949091453], [0.27441282504437253, 0.705575721021019, 0.2855816048343604]]]" REF_nacs="_JSON [[[-0.07593940333621517, 0.030107055187216968, 7.051335707405988e-07], [-0.3198096532183182, 0.007253621200674665, 0.014935306752180577], [0.2311467666428453, -0.09271611923504744, 0.028786462590659957]], [[-0.47504977486719496, 0.059776716807695335, 0.13871952790184033], [0.319696498401097, -0.025454475700694708, -0.02140126935540985], [0.235888915328629, -0.05966620773807253, -0.11008648876101487]], [[0.09436698557323776, -0.03190389360235066, -0.04989234071172556], [0.03388889368300167, -0.025882407581357732, 0.04132246753395066], [-0.12980284948162757, 0.05941381694268436, 0.028575901294931674]], [[0.10851646241821611, -0.06692466243942255, -0.13641013173006764], [0.00808004727346963, -0.022564841529304738, -0.021637851538308477], [-0.06968121862324601, 0.05243895971599864, 0.10388193634648173]], [[-0.002456521361478213, 0.007082764808169736, 0.07177394331054865], [0.007037660511581418, 0.023966605728393788, -0.03369286836643754], [0.031094955601646344, 0.0011441819488957814, -0.04968601730419944]], [[0.14534584521159752, -0.12399328267155192, 0.0794311822689929], [-0.044564440882374046, 0.06600529621733936, 0.021059628257545926], [-0.12080388645425036, 0.11608316450114836, -0.07122047728226952]], [[-0.0037452188640005706, -0.011680042771382163, 0.00635002252680692], [-0.0041685020849066175, -0.00519162439211231, -0.00044424911615865704], [0.0008785653429352744, 0.00970485995272939, -0.0024210220320824817]], [[-0.024242634460579292, -0.029418307497421796, -0.021901714199597355], [-0.005963156330696039, -0.01117122277029008, -0.0005796954895653779], [0.010561318694277998, 0.04706141595461006, 0.00836137302380158]], [[0.01966629322893164, -0.0223081455417841, -0.016862928949977433], [0.005102297786474978, -0.007581685846557797, 0.0006720778700460019], [-0.012430358636229426, 0.02328260608079193, 0.004833625054464124]]]" REF_dip_perm="_JSON [[-0.11675121885864162, -0.007680080802590019, -0.04102052971168402], [-0.3982965811877515, 0.1751976143616668, -0.13268016738546975], [-0.41028857485061, 0.13247821888107786, -0.16220004206353744]]" REF_dip_trans="_JSON [[0.23413173313886876, 0.18916373230627984, -0.10771747673745485], [-0.052971561133318516, 0.035013873172069256, -0.0175719179864191], [-0.28155408327455883, -0.22913196789732318, 0.13042670555810948]]" pbc="F F F"
C        0.00000000       0.00000000       0.00000000
C        1.23363386       0.00000000       0.00000000
H       -0.52078843       0.95765779       0.00000000
H        1.74918480       0.89677478      -0.34062435
C       -0.87048002      -1.22379842      -0.00000000
H        2.10717456      -1.13531326       0.43122906
H       -0.28391531      -2.13887145      -0.00000000
H       -1.52145135      -1.23484856      -0.87564365
H       -1.52139133      -1.23471640       0.87568993
9
Properties=species:S:1:pos:R:3 REF_energy="_JSON [[-3181.3243071262355, -3178.0176937843758, -3177.633647520404]]" REF_forces="_JSON [[[1.2351208883333922, 0.2869367031537713, 0.4972323818738597], [6.227905182900735, -0.9145508334090082, 0.43269803433118065], [6.360504865288358, 0.35882836536762525, -0.48850619566008135]], [[1.1626869406211926, -0.023232319901423455, 3.328940907725716], [-2.125170961664723, 0.04591096224256709, 3.422351341482245], [-6.190546438444643, 0.19381062495927426, 2.857118650582175]], [[0.24925310875589976, -0.0744530225976169, 0.19590577874020645], [-0.8822493673823408, 0.16095309084048923, -0.11285942596935368], [0.4386184576655365, 0.20075211341115265, 0.05571137962460215]], [[0.4833999168727498, -0.13318502124239998, 0.44594960775576337], [0.07164294825842671, 0.12967489240417301, 0.3352986267070547], [1.201391007740075, 0.18016635628992883, 0.37057195931283654]], [[0.37579478295465363, 0.15036136915672216, -0.0900140004149046], [0.1918689991042494, -0.23518321932863537, 0.05306004329326663], [-0.054830055124144045, -0.14511977572425308, 0.4474469956460798]], [[-3.389932558877479, -0.00484150479675548, -4.388740180744548], [-3.3039440277669856, -0.19206935164485808, -4.1666875170151885], [-1.5027106258577616, -0.23640621053494143, -3.239790101205246]], [[0.06037258930352006, -0.13426510510874148, 0.0026579701031157962], [0.22382886248754139, 0.2885414442175313, 0.010906758668446906], [-0.023520299075948842, -0.17556939831979435, -0.004354086640927287]], [[-0.10477086975617225, -0.03087511305013597, -0.12007509383468817], [-0.189189318619041, 0.37227280941680485, -0.14549262284249107], [-0.05690476649460871, -0.10227947123496228, -0.2103642127269359]], [[-0.07192479820595071, -0.036445985614188436, 0.12814262879475058], [-0.21469231732176652, 0.34445020526257375, 0.1707247613446491], [-0.17200214569714528, -0.2741826042137187, 0.2121656110664152]]]" REF_nacs="_JSON [[[0.058026159172480545, 0.05224137051953402, 0.08355673942145406], [0.05945049918791621, 0.14961498728739248, 0.022801431579710915], [-0.25165305245948827, -0.6679310914004629, 0.713207835027359]], [[-0.027347911881005837, 0.1283259808196852, -0.0035339893464886958], [-0.08112366392072523, -0.12158768163364776, -0.042237063271880336], [2.330259401817047, -0.10280189385970885, 0.2887466311053716]], [[-0.014258103233134482, 0.00044472768166030666, 0.2903936623017913], [-0.02556040971071919, -0.008799873136699877, 0.6110291068062316], [-0.6848435806321119, -0.0016075973224147758, -0.3921862181522297]], [[-0.010076200950351515, -0.5897338876169625, 0.00957818702160587], [0.006917870620950664, -0.41614130286889417, 0.01164756596884925], [-0.4721493455775633, 0.22700772357087093, -0.04939059091854703]], [[0.0014880747344720067, -0.00560991749123812, -0.33288258614315813], [0.023524802142188717, -0.0128837411994199, -0.6458888874521491], [0.11969008106051658, -0.05023902847427078, 0.014310224091741208]], [[-0.0036188748617568193, 0.3685105295711197, -0.018857828829832016], [0.005089367715777226, 0.4310453189715576, -0.00755589690399321], [-1.0675371044339355, -0.18263526509599085, -0.5831887638662976]], [[0.0024388032981669076, 0.0016886156348413816, 0.01007619926827322], [-0.0009320330697131768, -0.002438873369614657, -0.0008842894876524033], [0.1265536534557685, 0.23202864106136903, 0.007997937086163242]], [[-0.08514098015511895, -0.03880379136418219, -0.018420554994146784], [-0.06220987755042004, -0.07407794000211669, 0.02500058966118786], [-0.04267185346330287, 0.25688728722494564, 0.030280645847651163]], [[0.08837201994842109, 0.04798325768349182, -0.019848023988754668], [0.06812213114409393, 0.07904034644318148, 0.026045410375014875], [-0.05720281735886963, 0.2877160422383834, -0.02977491495658454]]]" REF_dip_perm="_JSON [[-0.20711380582896194, -0.050366373384005465, -0.10241703893350615], [-0.9624824080450449, -0.07119621654318926, 0.04101636582499552], [0.3555334648969334, 0.0030527535256682876, -0.21608489969931907]]" REF_dip_trans="_JSON [[-0.02460359909529671, -0.0041016458332379865, 0.010396390689311641], [0.01763759067745259, -0.004504591889594573, 0.004997290750699456], [-0.298481785952021, -0.008256361271975333, 0.05671932219941659]]" pbc="F F F"
C        0.00000000       0.00000000       0.00000000
C        1.48151645       0.00000000       0.00000000
H       -0.52078843       0.95765779       0.00000000
H        1.99706739      -0.02752341      -0.95889124
C       -0.87048002      -1.22379842      -0.00000000
H        2.35505715       0.03484452       1.21395246
H       -0.28391531      -2.13887145      -0.00000000
H       -1.52145135      -1.23484856      -0.87564365
H       -1.52139133      -1.23471640       0.87568993
9
Properties=species:S:1:pos:R:3 REF_energy="_JSON [[-3182.533667109138, -3177.894718728085, -3176.215802605426]]" REF_forces="_JSON [[[1.6596971652739472, -0.6680659552527151, 0.23719350064284356], [3.6659533044070294, -0.17187762128610826, 0.19120201653972305], [0.24950347007584214, 0.3155840735417714, 0.5837033198230797]], [[0.9713818876454313, -1.6071636955352537, 2.911612376678255], [-1.4302466842591433, -2.0407574626716807, 2.005102823340064], [1.4388810384071067, -1.7999311453094353, 1.7516329007062228]], [[0.27255532466322174, -0.0066979894228397265, -1.4279689390409476], [-0.5344374102106701, 0.21843624959409527, 0.7937420742417077], [-0.48903607767347945, 0.18072200179968587, 2.9359429969092736]], [[0.5007665703053975, 1.0752724849395374, 1.1520467478014318], [0.6090380016916813, -0.5604621825672639, 0.14953416074571485], [0.9662355880258421, -2.4817443539110235, -0.9219928612486256]], [[0.0779008630384474, 0.11616516904006077, 1.606842782708134], [0.01698077049758755, -0.1752302468528161, -0.5821785653946244], [0.0972378951706079, -0.07195901195389832, -2.8173743355068877]], [[-3.4095475532609925, 1.19692643187577, -4.4317328336979855], [-2.1533604568335494, 2.399438455993462, -2.5408108077377056], [-1.9992344642253563, 3.825126292072228, -1.6129727286977362]], [[0.08787850521540427, -0.07577338727280253, -0.007210617178973686], [0.141016574293306, 0.08934642997638427, -0.018057177899701772], [0.10128152997545878, 0.0014087088978765796, -0.0094367343094698]], [[0.14670193910435136, 0.18962556274878525, -0.12987167711345224], [-0.2555215926334565, 0.029773588499129273, -0.17497082922567972], [-0.5800602325298958, -0.35244932480836694, -0.1537815090062015]], [[-0.30733470198629853, -0.22028862111913058, 0.0890886592011185], [-0.05942250695812537, 0.2113327893139974, 0.1764363053908794], [0.21519125277655513, 0.38324275967047433, 0.2442789513311222]]]" REF_nacs="_JSON [[[0.15353169398618038, -0.056485652373895065, 0.02160940327893699], [0.5634806186744652, -0.05514365951125056, -0.04510163725581104], [-0.22768074733539684, -0.3678866863127956, 0.29805517059923126]], [[0.3163021661056489, -0.14456032134938399, -0.0987688148523359], [-0.5728533009547325, 0.02069372994416166, 0.025707270570184574], [1.4355482457547177, -0.19168426893554905, 0.1908278157622896]], [[-0.10527834329970548, 0.009258024312170049, 0.09482404073642742], [-0.011241115252208266, 0.017705227700972558, -0.20457000874126083], [-0.38152058991597354, 0.007472877301578642, 0.06241699898918555]], [[-0.09051485944341801, 0.1798290832450586, 0.10075132514870029], [-0.0016345762208631843, 0.1665017583159255, 0.08438068010487829], [-0.2709612225240046, -0.016555591963389193, -0.028412971886376016]], [[0.0065529776087483275, -0.018189415926873155, -0.10962283434351063], [-0.029304523264554617, -0.027108179965234507, 0.2121885668962168], [0.09908340187882694, -0.00690144416666302, -0.20201956355214362]], [[-0.10567431246217665, -0.010664480497473006, -0.07161157372615999], [0.03806680912828382, -0.15297670489120013, -0.06054775805118154], [-0.555202544090918, 0.21714315924689717, -0.3196796396176046]], [[0.014103015119476139, 0.026856934010622748, -0.0082772163344612], [0.003064446442469242, 0.011034376114205872, -0.0014049922097748267], [0.06048903033215129, 0.1063001099083625, -0.00570227744146327]], [[0.024738725427574798, 0.026230304602899046, 0.027349586497647883], [0.027037017133818023, 0.03198045015667021, -0.005380069030921203], [-0.04443717285007511, 0.12095674425352806, 0.006162069304054424]], [[-0.026126019666722185, 0.04910984305813632, 0.01878237171515844], [-0.02684586776368335, -0.016033876883868623, -0.003910946957828526], [-0.010988464485408151, 0.1652863696081147, -0.015528071577677703]]]" REF_dip_perm="_JSON [[-0.1789513582113428, -0.005845472327640218, -0.07589099878446458], [-0.30100736871112393, 0.0015489658481192157, -0.0983510035821932], [-0.20927694496363383, 0.013050037270404392, -0.1491816503319656]]" REF_dip_trans="_JSON [[-0.3417396707229141, -0.05322581279096928, 0.08186187717095114], [0.0526448833192376, -0.008117979314704047, 0.019336539459556185], [-0.6190629657945216, -0.0934064468849027, 0.14239536423873342]]" pbc="F F F"
C        0.00000000       0.00000000       0.00000000
C        1.40996822       0.00000000       0.00000000
H       -0.52078843       0.95765779       0.00000000
H        1.92551916       0.48408107      -0.82818807
C       -0.87048002      -1.22379842      -0.00000000
H        2.28350892      -0.61284469       1.04848276
H       -0.28391531      -2.13887145      -0.00000000
H       -1.52145135      -1.23484856      -0.87564365
H       -1.52139133      -1.23471640       0.87568993
9
Properties=species:S:1:pos:R:3 REF_energy="_JSON [[-3182.2325554353774, -3175.666219684169, -3170.7532877485382]]" REF_forces="_JSON [[[-17.425692434596282, 1.464944421325497, 0.6031659368207282], [-16.759207380489595, -0.8491098038564417, 0.40413162453312], [-20.87295213314714, -0.9714216617297531, 0.8092445802641046]], [[20.219818201239736, 2.1523411667392285, 1.500514030328784], [19.09522416836165, 1.7303172943476395, -0.1383097065838737], [22.25429138024278, 0.5318865768154138, -1.1470925987567249]], [[-0.43064365691863365, -0.13468340473965734, 1.2717555626691897], [-1.1870675644482709, 0.7806528613741384, -1.115925588292409], [-1.6253006747720917, 1.087834444564444, -4.1967000743627585]], [[1.0364840399484812, -0.42860133043764287, 1.3650525834646772], [1.1576829837619864, 0.8689089772035192, -0.41186073046691923], [2.01013129641934, 2.8461476240269366, -2.644423440887795]], [[-0.38611963231962193, -0.048897700823929156, -1.3348904887799322], [-0.9560070499845554, -0.33190373959185615, 1.37372385495541], [-1.2902340834829, -0.4233504754863842, 4.670827416431369]], [[-3.0976355137059732, -2.896877872959516, -3.448019594647687], [-1.1650019592401306, -2.4356079355800637, -0.1849731252730604], [-0.16611465305177375, -3.21057093329527, 2.529216855917159]], [[0.12941278595881217, -0.09138171597335147, 0.0142132508396899], [0.1484548130065945, 0.06691441333801497, 0.03625696396225105], [0.16293128623627634, 0.09108353711595547, 0.04889691751460833]], [[-0.21719287320791952, -0.16943395500909372, -0.06326557634453524], [0.052381176914322, 0.3400576148635027, -0.15882485169245544], [0.4044623432326126, 0.7547822393032748, -0.24779157710437474]], [[0.17156908359763143, 0.1525903918783645, 0.09147429564946254], [-0.3864591878842461, -0.1702296821018017, 0.19578155885756804], [-0.8772147616774826, -0.7063913513138326, 0.17782192098478655]]]" REF_nacs="_JSON [[[0.03702396537569327, -0.06795724023303595, 0.03717936093666703], [0.24109974221081446, -0.024295038377883955, -0.024217629615031426], [0.0869998453054853, -0.15460901990608794, 0.04613423290905634]], [[0.5081815020823977, 0.07692686544870435, -0.018643299779579698], [-0.19361848022583955, 0.023106622528790564, 0.059335352415662394], [0.5091391866316831, 0.1203043674881693, -0.04619897583677029]], [[-0.12478939903544788, 0.08126079731110003, -0.1041539758925907], [-0.014481679049268191, 0.016141302384224107, 0.055943477368590504], [-0.16919632197146747, 0.09628981315481357, -0.05538574212597334]], [[-0.14885908753472382, -0.1253141110374707, 0.13085160966187448], [-0.009566504728166413, -0.036256171891023765, 0.023867178252261284], [-0.16313048963367227, -0.124255140538956, 0.1479922952802999]], [[-0.046714772086445464, 0.005670240943920761, 0.08958611122632164], [-0.006865129339946589, -0.011309206461880425, -0.06106044042150797], [-0.00830710461423702, 0.022021934842754144, 0.0249308907899209]], [[-0.19677213798355522, -0.1352534444641723, -0.183898410640154], [-0.01491597620438896, 0.01798775732631326, -0.05907997270802664], [-0.2111223233690535, -0.13138601810639625, -0.1729266372722067]], [[0.014569627368291909, 0.014069720983987467, 0.008787034250602135], [0.0006548584936823315, 0.004376751653564365, 0.0011570179542343985], [0.015111967656894335, 0.015562766834865833, 0.006879429983722946]], [[-0.03122691686650825, 0.02058407636289505, -0.01972903612311622], [-0.008166863685644298, -0.002307779519329638, 0.0001837716003479993], [-0.039293665983663226, 0.02289007876293375, -0.009797887878605199]], [[0.01573680365630856, 0.020273764451011634, -0.020965868972603677], [0.005938864538751705, 0.012237121317812908, 0.0036360914066454826], [0.00198823000098327, 0.04349139131570626, -0.007817757346020885]]]" REF_dip_perm="_JSON [[-0.14779299412135333, -0.07318863632363294, -0.04519690806024201], [-0.31095905789662104, -0.2664679286300785, -0.1594248115856572], [-0.39019782157863364, -0.3372956412013362, -0.21927027301601584]]" REF_dip_trans="_JSON [[-0.04447691665519839, 0.10988321384826895, 0.13868406559915203], [0.033077610530635175, 0.039419614557643166, 0.023404973025078817], [-0.05382630245160591, 0.13514350016560975, 0.17009496646380054]]" pbc="F F F"
C        0.00000000       0.00000000       0.00000000
C        1.16251937       0.00000000       0.00000000
H       -0.52078843       0.95765779       0.00000000
H        1.67807031      -0.76452994      -0.57941688
C       -0.87048002      -1.22379842      -0.00000000
H        2.03606007       0.96789183       0.73353944
H       -0.28391531      -2.13887145      -0.00000000
H       -1.52145135      -1.23484856      -0.87564365
H       -1.52139133      -1.23471640       0.87568993
9
Properties=species:S:1:pos:R:3 REF_energy="_JSON [[-3177.052272720513, -3174.4623210264413, -3173.3321303942653]]" REF_forces="_JSON [[[-36.10520414237254, -0.9803174223241634, 0.9949700531510333], [-34.213046026084285, -0.06280870905409462, 0.9202255393983777], [-34.86632111034643, 0.061435649957833835, 1.349177630690501]], [[38.3926839534274, -0.1451023496711553, 1.414304392781934], [35.03543961390227, -0.18368981854663144, 1.1932518934728857], [39.98284421780753, -1.0617265298016996, 2.025220604009791]], [[-0.8352440093628111, 0.3148669268453819, -2.333748090916962], [-0.8264379308399181, 0.3293336794205357, 0.7572762586963167], [-2.464950666799483, 0.9146915871891572, 2.814048138473475]], [[1.7251969583156324, 2.2601252983674134, 1.039471088837416], [2.210468355207147, -0.661110052237975, 0.1211751185640313], [1.2407281607685068, -2.7497028138210133, -0.24156073697713956]], [[-1.181886172735056, -0.27095063027687744, 2.4427375502691815], [-1.2489955822277643, -0.565204267706609, -0.6588312388347279], [-1.5223093893835926, -0.7060811049543908, -2.9825847662858203]], [[-1.987045637879207, -1.132453758100871, -3.5203755412681637], [-1.000330069872296, 1.1109712441367114, -2.39185785483042], [-2.198794416363611, 3.1444671581271275, -3.027589006899693]], [[0.1680203693649883, 0.013424115355800107, 0.016486167441918543], [0.14308522337444748, 0.07494017742904861, 0.006165039119545429], [0.25188273802390765, 0.14091953389817663, -0.016350143539211694]], [[0.22277685405581896, 0.3070981840423485, -0.13247041428502843], [-0.1482566013730562, -0.11978073008774383, -0.12889201059384917], [-0.6001179438251069, -0.28682913827435136, -0.11549811267076206]], [[-0.39929817281819086, -0.36669036424038015, 0.07862479398844299], [0.04807301791460254, 0.07734847664644756, 0.1814872550062391], [0.17703841011581117, 0.5428256576760594, 0.19513639319694367]]]" REF_nacs="_JSON [[[0.18540667519520973, 0.1283891905342949, 0.027114857769675545], [0.31697115527196573, -0.18153361200882606, -0.12105490155416569], [-0.22905696763196823, 0.5084652068179059, 0.234745180537807]], [[-1.0465637724125465, 0.11309504833960661, -0.1338805904090492], [-0.09620082848850617, 0.03236146790964198, 0.23709109224893732], [-3.130447192006105, 0.5701537481895863, -1.2080433084143374]], [[0.2698989007925264, -0.10351248608296416, -0.30837770292830063], [-0.01359146520960599, 0.007373096646773743, -0.477371556441116], [0.9561037325601104, -0.325696178236442, 0.7872201010115173]], [[0.2331719666303941, -0.06411363096749197, -0.06138936602804069], [-0.06386032023550112, 0.5557159354135366, 0.10764022213756658], [0.955157400508425, -0.9282525596983476, -0.32829320282716024]], [[0.05582925146469605, -0.0025466889868816195, 0.32408871862562155], [-0.033228060839081586, -0.004214473221277002, 0.48056260928033545], [0.1955492597585453, 0.01232640207062129, -0.67228713136156]], [[0.283003908241972, -0.06933720992137969, 0.22207327065262875], [-0.10590793501218286, -0.41891072396103546, -0.23469434790104937], [1.109145652573568, 0.4014337226774338, 1.1810063786703098]], [[-0.01854691051414814, -0.008725757048686751, 0.009673673736465379], [0.006250505701341612, 0.011208950452289361, 0.0005740064117698598], [-0.08524372472940224, -0.0622512911096592, 0.005118823839169844]], [[0.027579065477447505, 0.007577951422011748, -0.025209044385275593], [0.06558340952520211, 0.07271431691120386, -0.0038771656001271564], [0.006858400508260705, -0.19740915136168957, 0.01171485047375437]], [[0.03032532239553539, -0.05197393095438909, -0.02074528151064944], [-0.08137179045971904, -0.061090492736177476, 0.0022467949799902845], [0.23268160032437252, -0.006114239747290477, 0.006647008661355018]]]" REF_dip_perm="_JSON [[-0.21337837335179893, -0.004194283061318511, -0.16061568317856603], [-0.3021316181170169, 0.02155644138632575, -0.2980093702954093], [-0.19748689980516726, -0.06360545111006742, -0.07669879280203214]]" REF_dip_trans="_JSON [[-0.06154791819290152, 0.03697403684306655, -0.12762458840070667], [0.032524627013228814, -0.003322223265140888, 0.04000700337807787], [-0.11939172556027275, 0.059220656617866546, -0.22641683477308402]]" pbc="F F F"
C        0.00000000       0.00000000       0.00000000
C        1.07164090       0.00000000       0.00000000
H       -0.52078843       0.95765779       0.00000000
H        1.58719184       0.20815372      -0.93643045
C       -0.87048002      -1.22379842      -0.00000000
H        1.94518160      -0.26352177       1.18551718
H       -0.28391531      -2.13887145      -0.00000000
H       -1.52145135      -1.23484856      -0.87564365
H       -1.52139133      -1.23471640       0.87568993
9
Properties=species:S:1:pos:R:3 REF_energy="_JSON [[-3184.119497978257, -3176.3451758749125, -3170.7316846291733]]" REF_forces="_JSON [[[1.4981995580804366, 1.88476910681111, 0.03315563353346769], [2.0235852340490585, -2.6737811164891596, 0.4439483061245311], [-12.892447201583707, 0.6276155161926857, 0.23086388046378073]], [[1.9699795606925572, 4.372351974426231, 1.2468856611328298], [-2.3682109262082465, -1.2617637276506866, -3.2159105123275737], [14.977908137015522, 2.9720670465189993, -0.9477793578309854]], [[0.2137402500439983, -0.4527221005804397, 0.054022865916498485], [-0.3965044493772777, 0.979254683834229, -0.2874605223682648], [-0.1487150028226234, -0.2951031959615716, -2.5912518713864876]], [[0.5342474725872783, 0.514357340531577, 0.023340593548559448], [-0.16099905927130256, 0.09496723288020832, 0.6461241620537447], [0.6666962371738354, 1.1058418749149337, -1.8639135081565135]], [[0.3089501433134971, 0.1244955446592916, -0.020040814883828185], [0.3178912237696136, 0.08657053805888577, 0.41502676059245724], [1.3114174463567398, 0.9680177376395186, 3.0196907901799057]], [[-4.599307689259166, -6.108758184886468, -1.2597915192974394], [1.0404602331794166, 1.9419548935286728, 1.6690948764320708], [-3.098563608450475, -4.950946860328895, 2.053156741280209]], [[0.09149530917481985, -0.18426719019423363, 0.015391167220036462], [0.06382444805318528, 0.13509518941023105, -0.02932641090278957], [0.08542538068485885, -0.12231176997865399, 0.02110299181569284]], [[-0.06558905475933073, -0.06810370977298343, -0.13940078845360943], [-0.003892192761936678, 0.44366776477066266, -0.026127889000079535], [0.04392109849399801, 0.3533771085128762, -0.28759295830216364]], [[0.0482844501278132, -0.08212278099340861, 0.046437201283735144], [-0.5161545114310756, 0.25403454165519973, 0.3846312293950277], [-0.9456424868661465, -0.6585574575065556, 0.36572329193698533]]]" REF_nacs="_JSON [[[0.338534386230876, -0.12358522482439609, 0.11333832534884143], [0.5586596820078811, -0.17972973542711917, 0.0015015204825084513], [0.136876404818019, -0.04541764673471815, 0.022752175842138567]], [[0.25815230528534305, -0.13163121042434764, -0.23571018557125675], [-0.661245689963091, -0.22191478282386787, -0.08361013045667325], [0.5659338851706694, 0.12237664851551565, 0.12170001795251824]], [[-0.021209680518454507, 0.03870628813814223, 0.03102867331159718], [-0.03047340852579543, 0.07295810661063921, 0.04381230378191763], [-0.07692204193273325, 0.02792951255884865, -0.06006940758965961]], [[-0.05974577645448483, -0.033468939698125574, 0.12449444186564784], [-0.024727247130109892, -0.026384025279987587, 0.04855270469176665], [-0.009502069630796256, 0.02813746594452308, -0.07116873536985624]], [[0.0010615723746867044, -0.0034023165501799748, -0.06028453552914344], [-0.0207257124936085, -0.028665700132100357, -0.0561949646252492], [0.06478798881814406, 0.010453778824835369, 0.014853867489758654]], [[0.07830112983917996, 0.13272319491344026, 0.09600813984090842], [0.20148971851876954, 0.3161807193875097, 0.032070203637544974], [-0.21754567045767484, -0.2762997726731917, 0.004942613819603231]], [[0.0077961550160576785, 0.02243070914840067, 0.007801136522367126], [-0.0008442367315956985, 0.015564613246614796, -0.0005131160746616148], [0.010288158223574638, 0.02980327089945595, 0.007795873449841587]], [[-0.022175520219478707, 0.02726184493257892, -0.010294680065905665], [-0.0023106847439701168, 0.01856069786305222, 0.0074898931191555084], [-0.00737761910798255, 0.04516545718756927, -0.0070285070429481995]], [[0.04878155333714117, 0.05597689702814625, -0.03068046001285277], [-0.0006690215283280248, 0.032974050283322814, 0.007977839547036382], [0.016707544034283015, 0.046344835423119554, -0.006371349502797165]]]" REF_dip_perm="_JSON [[-0.1523191389517447, -0.05400977423643641, -0.03227012183581699], [-0.3755617598685824, -0.3551587150949691, -0.05102843136747578], [-0.17421701904652684, -0.08284260761090283, -0.02690287189435014]]" REF_dip_trans="_JSON [[-0.6336925037058715, 0.019305655989617303, 0.011294826963641116], [0.053920620880907974, 0.08078650864414941, 0.00512534169241612], [-0.8135124127149104, 0.037391622327656554, 0.015430833813066694]]" pbc="F F F"
C        0.00000000       0.00000000       0.00000000
C        1.38508929       0.00000000       0.00000000
H       -0.52078843       0.95765779       0.00000000
H        1.90064023      -0.94503562      -0.16473503
C       -0.87048002      -1.22379842      -0.00000000
H        2.25862999       1.19641129       0.20855389
H       -0.28391531      -2.13887145      -0.00000000
H       -1.52145135      -1.23484856      -0.87564365
H       -1.52139133      -1.23471640       0.87568993
9
Properties=species:S:1:pos:R:3 REF_energy="_JSON [[-3182.864398920814, -3176.1404684274453, -3173.295201822292]]" REF_forces="_JSON [[[6.520555296938186, -0.9047716560684245, 0.2221414809298586], [5.58496658772982, 0.17056062265559396, -0.32804554971705113], [-0.8332920463148507, -0.04198805590168085, 0.3068399520314809]], [[-3.334131560564208, -3.3525884466363975, 2.570077187793919], [-4.649519357987884, -3.2904263118200037, -1.0461567671349719], [2.3487238644413306, -3.395709927840007, 0.2865745464150326]], [[0.7893570839417936, -0.018302107507395003, -0.7454925773766483], [-0.31715875046235975, 0.12090552457035846, 1.296954948558896], [0.07782130770533224, 0.008240472648000888, 2.4301170352427266]], [[0.1997793253018154, -0.1498597742076206, 0.5548752176048022], [-0.09038027784532078, -0.27343626333209575, 0.21324812404830817], [0.33483861007428717, -1.2480599150305667, -1.2794854446460189]], [[0.3126626930577717, 0.1686386226049175, 0.5756872018933866], [1.008637324553767, 0.15884955643662513, -0.32375712574807336], [1.1433511422019615, 0.549253115642379, -1.9996571960329388]], [[-4.419464730185713, 4.451659074029499, -3.1922478358551376], [-1.3623265698625993, 2.655143328805649, 0.3386511151009912], [-2.5590688352381674, 4.302289190913603, 0.2785684542169737]], [[0.0582494628883402, -0.10894972244870074, 0.009484249451198103], [0.1508369944158759, 0.06327790931910617, -0.07009762480327583], [0.08519026204524537, -0.07437256587511974, -0.0350613698770379]], [[0.02223822091005511, 0.024846421353623447, -0.12279988402056984], [-0.22306484713733907, 0.14875269422142112, -0.2210520686152994], [-0.5956128636783763, -0.31528598332825486, -0.25882541313346996]], [[-0.14924579228767484, -0.11067241111717012, 0.12827495958024202], [-0.10199110340635358, 0.24637293914326266, 0.14025494831037738], [-0.00195144123557129, 0.21563366877024046, 0.27092943578404494]]]" REF_nacs="_JSON [[[0.33140247771325915, 0.003098245610819222, 0.05975895353824901], [0.4944510270214663, 0.020885632330437512, -0.04959698705967152], [-0.08641528728513612, -0.33286700107604006, 0.17386309579884426]], [[0.23905520204251393, -0.027503247909426293, -0.30850765831027316], [-0.6113467443624842, 0.03679235583539993, -0.11079508794182344], [0.9290321562153772, -0.0642735654572893, 0.1704065346996895]], [[-0.08355770264156052, -0.00018167320376185337, 0.044738046010691104], [-0.04291788307312579, 0.016247129739119733, -0.03095842623946119], [-0.14930194320508325, -0.009680472166106286, -0.003319776964328232]], [[-0.06151044207512297, 0.0733261852202089, 0.13036674985514202], [-0.01540118951723844, 0.04611150903930884, 0.06332567661001497], [-0.08543651279752615, -0.04747693898267151, -0.06451467797247575]], [[0.02515982632229524, -0.021788854380341224, -0.0457344860475955], [-0.0012124928844377814, -0.026756888665727997, 0.0780245995457762], [0.06483040434786837, 0.012851904128710338, -0.10146839486153143]], [[0.03452561978891615, -0.057741728075586696, 0.09397366167232331], [0.14186069633938225, -0.14104957415154867, 0.06181318001222498], [-0.38371508724665343, 0.25024740827378644, -0.16437242193592777]], [[0.009541075425783849, 0.02228637609918712, -0.004957809506138998], [0.005266885775763081, 0.011129501127269936, -0.00413438220941517], [0.02759405117274672, 0.06473329081764785, -0.0024653016855661477]], [[0.03738990444234784, 0.03742888677424932, 0.027651910401437198], [0.013550962212134853, 0.024458045095369182, -0.001461402197903204], [-0.013691469582160665, 0.07910800821164057, 0.004794031129648248]], [[-0.008396084474189793, 0.05098940089190231, 0.007681009519706244], [-0.006311666972675624, 0.008815419965744808, -0.006426579355929311], [0.013254218283440204, 0.09560841207944469, -0.009922023035584007]]]" REF_dip_perm="_JSON [[-0.17758352143417303, -0.017919286363927537, -0.040712402096735566], [-0.3696282213374806, 0.050393438647480665, -0.05790509023352116], [-0.17689648013057177, 0.06291216397643341, -0.06906222461533686]]" REF_dip_trans="_JSON [[-0.6418400547131272, -0.07915268723596383, 0.03444787284780201], [0.08084750425532505, -0.038338130700242994, 0.010102018456005278], [-1.0691609500319466, -0.12464136722229212, 0.05522730811258626]]" pbc="F F F"
C        0.00000000       0.00000000       0.00000000
C        1.57254253       0.00000000       0.00000000
H       -0.52078843       0.95765779       0.00000000
H        2.08809347       0.84952417      -0.44557674
C       -0.87048002      -1.22379842      -0.00000000
H        2.44608323      -1.07549418       0.56409836
H       -0.28391531      -2.13887145      -0.00000000
H       -1.52145135      -1.23484856      -0.87564365
H       -1.52139133      -1.23471640       0.87568993
9
Properties=species:S:1:pos:R:3 REF_energy="_JSON [[-3182.7407111983234, -3177.385041304433, -3174.2736152345256]]" REF_forces="_JSON [[[-6.652230155409088, 1.2088297757374449, 0.6549460834087089], [-5.520220970881935, -0.5543877243332324, 0.22506931226903268], [-9.984372208038417, -0.7180788632632765, 0.39682112146381326]], [[9.34507909229581, 1.8344379090907081, 2.1187277517616185], [7.806719715374689, 2.120130118170134, 1.1352518692003999], [11.803093349779479, 1.5120834355439412, 0.9352771961092131]], [[-0.2571897410404928, -0.09296637967738339, 1.5878864387800218], [-0.8191699794229854, 0.4081825853693239, -0.8803302246007423], [-0.9823781194309454, 0.5039310746020769, -3.649455812948782]], [[0.826690741955475, -0.9941229882186421, 1.3983518922930729], [1.0181813203981385, 0.7972304695499675, -0.1016371490001712], [1.5084692862579914, 3.037376978188762, -1.842535623094433]], [[-0.12184425085573229, -0.04750189504650467, -1.6658793105936907], [-0.6117230292529199, -0.27535945364019526, 1.0962904368128528], [-0.6943395828451961, -0.1971145992360466, 4.059193140250407]], [[-3.178345546821144, -1.816996846695309, -4.152676238653617], [-1.6679997191743476, -2.6822644044986506, -1.5475129130788068], [-1.3285557745426528, -4.194919244607299, 0.13736022418412774]], [[0.10882070078156054, -0.09849833570539451, 0.015502728285694961], [0.12928841278814154, 0.058318687933962804, 0.02842525928281483], [0.13026970925334777, 0.04734292577660625, 0.02770996016780019]], [[-0.275854301649382, -0.19515391323757567, -0.06848462769870794], [0.012869288304292688, 0.2645972401351207, -0.15912028283535576], [0.33946658372246596, 0.6054423391760057, -0.23530643549000418]], [[0.20487346074735763, 0.20197267375289885, 0.11162528241770177], [-0.34794503813263217, -0.13644751868431843, 0.20356369194977655], [-0.7916532441563705, -0.5960640461811343, 0.17093622935730843]]]" REF_nacs="_JSON [[[0.07222103197672121, -0.08355489263461084, 0.06274284819120139], [0.40228368646025386, -0.016908013072755846, -0.018269401541971528], [-0.008597791415831063, -0.1902684032231714, 0.0877045069283352]], [[0.48479507584094483, 0.08964348729374365, -0.015982112726538125], [-0.36792451349218164, 0.014272663189996496, 0.028223336252103565], [0.8331560110821238, 0.13850233530825276, 0.09786703106920258]], [[-0.11199724696411027, 0.04758412252048971, -0.12447911151521578], [-0.02002741212058683, 0.01560087708150671, 0.10426434264992888], [-0.22639740001069553, 0.06299398933474874, -0.08775342550100788]], [[-0.13179013480220794, -0.15426061536169466, 0.11493949669985917], [-0.0070527024695119355, -0.08303161052221723, 0.05280979290306657], [-0.18993626995464735, -0.10898457322901191, 0.09174019453358187]], [[-0.02746907888597244, -0.0025242321682801953, 0.09748203199291276], [-0.014834615935589145, -0.021114727292123082, -0.11414671051329231], [0.02765909073730455, 0.016533128877393645, 0.011136772047492218]], [[-0.1588916223001143, -0.04188221357454034, -0.14586032038029784], [0.00744188103572229, 0.06999148828151484, -0.06020262527585982], [-0.32105746807486585, -0.13208023529612514, -0.2387976506713565]], [[0.016398444580889626, 0.022079597339009015, 0.009344628215722978], [0.0012159300483223978, 0.00731589882348347, 0.0014748201102991543], [0.02803927316134628, 0.0419243124280593, 0.008625306345192998]], [[-0.030587274581425444, 0.03274921999000097, -0.019088688595542528], [-0.014543797036303603, -0.00708034245475772, 0.0011671557341296625], [-0.040754529273020694, 0.05276033834600294, -0.0002390754221328115]], [[0.019160259602658353, 0.027293262029431758, -0.024604620890270205], [0.013694782450828613, 0.02083300010086205, 0.004591881454253025], [-0.007386175008849664, 0.0734462946834331, -0.0029789536912656414]]]" REF_dip_perm="_JSON [[-0.15952890875286949, -0.07806871152254616, -0.05577526219235725], [-0.26111733423536565, -0.1552442693504107, -0.13461429275227454], [-0.3088146562520474, -0.1732655709382063, -0.17416288851957643]]" REF_dip_trans="_JSON [[-0.2126498086181813, 0.054281148256110696, 0.11035297662916231], [0.034175259217204164, 0.025988770239523073, 0.02655527418174162], [-0.29567864536589294, 0.07576599648088651, 0.15381124652191122]]" pbc="F F F"
C        0.00000000       0.00000000       0.00000000
C        1.25836518       0.00000000       0.00000000
H       -0.52078843       0.95765779       0.00000000
H        1.77391612      -0.61416560      -0.73690608
C       -0.87048002      -1.22379842      -0.00000000
H        2.13190588       0.77753118       0.93292013
H       -0.28391531      -2.13887145      -0.00000000
H       -1.52145135      -1.23484856      -0.87564365
H       -1.52139133      -1.23471640       0.87568993
9
Properties=species:S:1:pos:R:3 REF_energy="_JSON [[-3181.655520035216, -3177.9606663384566, -3176.6102580408933]]" REF_forces="_JSON [[[-7.121957897550323, -0.7483000210433612, 0.44066882738921065], [-4.539270254858057, -0.15984439719245142, 0.3992342311905383], [-6.966381907373265, 0.3247132852726462, 0.9647485846095278]], [[9.622216901832775, -0.9146850000309659, 2.5314430151106535], [6.925326108829362, -1.2581855078606832, 2.164860529127417], [9.232011316523083, -1.196896631889023, 1.722916054522142]], [[-0.12465694021971621, 0.06816932739372114, -1.8676799952367975], [-0.8077521034669154, 0.31807952512404924, 0.6228999651957795], [-1.036720884010507, 0.3406106003243181, 3.1217868512874434]], [[0.9216015405882179, 1.6755692252197056, 1.1742263201575691], [1.0664431070041316, -0.4916760401695019, 0.23953988812838758], [1.3008454484926235, -2.889484565337023, -0.666931157077302]], [[-0.34351211144374405, 0.020943526898644, 2.05165955154875], [-0.5675586981324175, -0.3496681937497783, -0.51536786450937], [-0.48542945411003247, -0.33670498118978925, -3.1426085722342494]], [[-2.8867866222980383, -0.00827402808678997, -4.277394873443666], [-1.9424180522020087, 1.7332202332805484, -2.931743267926384], [-1.8660505683414315, 3.5898362943812527, -2.0940911894643754]], [[0.11570387337490877, -0.047809627400673065, -0.0012880502752423589], [0.14213851564051866, 0.08007122478049172, -0.005580198082308438], [0.13777037451096172, 0.0549337036835021, -0.008022698981310071]], [[0.18622170862922488, 0.2482595652618101, -0.13155487646905353], [-0.21961723501235517, -0.0189693973968612, -0.1537585133389251], [-0.5883151219198053, -0.36428776991791273, -0.12235775968066252]], [[-0.3688304529119573, -0.2938729682131913, 0.07992008121944273], [-0.057291387804496226, 0.1469725531829248, 0.17991523021540326], [0.27227079622656114, 0.4772800646729944, 0.2245598870194615]]]" REF_nacs="_JSON [[[0.01816419803018242, -0.09035592437271346, 0.002955681247895474], [0.5521648388823599, -0.09297683445346641, -0.06114424221387531], [-0.1250485403380748, -0.3901337049954052, 0.23791602471847223]], [[0.5265617448893761, -0.1483959186941822, 0.011526724119750033], [-0.49222791441402713, 0.020812951304821692, 0.08607845974459127], [2.092273175736896, -0.39378031673968245, 0.46861391975612326]], [[-0.144484074340567, 0.02714076468155199, 0.13725891937022], [-0.0076951772860572405, 0.015650420139699816, -0.31180824687006964], [-0.6259780732929311, 0.09512716897490027, -0.06575035381593992]], [[-0.13386088844174077, 0.20039345655234836, 0.07909551049522824], [-0.013003031674680256, 0.29271434989426054, 0.09512448101847754], [-0.5128276198341094, 0.14952232694488837, 0.058172891126717134]], [[-0.0070540947728997645, -0.01008180511199096, -0.1550183663434721], [-0.035637460094711436, -0.025552749892286192, 0.3158504571950019], [0.04714781485079567, -0.011640874203367103, -0.09043335422167151]], [[-0.17900591070012387, -0.016074988491230298, -0.14665063978151768], [-0.0027615154854165845, -0.23625534746438817, -0.11529265390281425], [-0.7861215054574957, 0.15959431908331095, -0.6056711108429325]], [[0.01640276623163994, 0.025049819911052634, -0.008649573331978534], [0.0033487279701738845, 0.0122163990156777, -0.0005786007064917556], [0.07822786432744053, 0.11054163861607395, -0.0067611600443991905]], [[0.012445191337682945, 0.020952332481785286, 0.026802580804864598], [0.04144619118645346, 0.04596124176393114, -0.006011622975099097], [-0.058463391596055944, 0.14786583468381065, 0.0022690971593481695]], [[-0.03349987504203533, 0.04727550549229459, 0.021271352821094915], [-0.04456670750192295, -0.03178144259727231, -0.0026613039069616155], [-0.06773508476906852, 0.16354449204196186, -0.015570753046548145]]]" REF_dip_perm="_JSON [[-0.1839230389174029, -0.002754619238772223, -0.10421791992627917], [-0.22328842367041113, 0.0025468412930164473, -0.1418282264400878], [-0.2744209522050992, -0.021331591505147154, -0.15512768052313292]]" REF_dip_trans="_JSON [[-0.17115094646678441, -0.04394135190527899, 0.10446398888228903], [0.02832127252106287, -0.002558502025185643, 0.022035955438546678], [-0.31072626872846154, -0.08024625734210011, 0.19153674442623134]]" pbc="F F F"
C        0.00000000       0.00000000       0.00000000
C        1.26653691       0.00000000       0.00000000
H       -0.52078843       0.95765779       0.00000000
H        1.78208785       0.34089051      -0.89667364
C       -0.87048002      -1.22379842      -0.00000000
H        2.14007761      -0.43156601       1.13518522
H       -0.28391531      -2.13887145      -0.00000000
H       -1.52145135      -1.23484856      -0.87564365
H       -1.52139133      -1.23471640       0.87568993
9
Properties=species:S:1:pos:R:3 REF_energy="_JSON [[-3183.2223432069695, -3175.223427031023, -3171.876513354347]]" REF_forces="_JSON [[[5.387319201114394, 2.3874529683792494, 0.14496233410146647], [5.355353782740527, -2.0417379830785416, -0.28044831498342715], [-5.190652424009447, 0.9288917193745222, 0.027708729387940303]], [[-0.6337912071048398, 6.165750678494263, 3.92484059244986], [-6.188572739756355, -0.22876350960836705, -6.3729116686062754], [7.481270383204575, 3.704407506539473, -0.30528095721181814]], [[0.4972934106201028, -0.32629160546304375, 0.39953146792864375], [0.2652517888635383, 0.21701136244428118, -0.6803785228835271], [0.517400642987434, -0.28730040508708166, -0.35939106059583414]], [[0.4625970230749703, 0.7308900139305469, -0.7525809757504464], [-0.5386238109011351, -0.24012252553256846, 1.298952318944484], [0.1828848800856778, 0.5534600918922326, -0.20024161729718598]], [[0.8826542773204288, 0.23327233958492208, -1.2761373264297668], [0.793776375641034, 0.20271113223948942, 2.247928119143317], [1.9182859758515407, 1.0556121028009893, 0.46508993306917024]], [[-6.580781096578175, -8.529152389837288, -2.25228438819845], [0.6722011728554051, 1.294776393441383, 3.481353055196226], [-4.0961499758439155, -5.286018415278174, 0.3492000193916177]], [[0.05688598629682197, -0.3135398698126593, 0.052743351494263645], [0.05801652133778586, 0.15688299514647072, -0.08812492616998426], [0.02851915167170789, -0.25270446493228843, 0.0020136266529827123]], [[-0.3765928069623414, -0.42232401523054264, -0.2746764304855475], [0.37483105092001734, 0.7602046700790759, 0.006726803685840009], [-0.336743573828901, -0.13533004266305587, -0.33865737267884044]], [[0.3044152122194151, 0.07394187995386187, 0.03360137488975642], [-0.7922341416997914, -0.12096253512984126, 0.38690313567416523], [-0.5048150601192343, -0.28101809264733846, 0.35955869928193396]]]" REF_nacs="_JSON [[[0.6613261885839964, -0.23170447009030581, 0.07248321944577919], [0.6442189945550014, -0.2511380835113931, -0.02102163246223309], [-0.3578248614907256, 0.07546672813333223, 0.09296616233075769]], [[-0.057267844422503066, -0.3113415078302235, -0.5488809243373564], [-1.00254041741851, -0.35490612774767516, -0.5256676489645783], [1.4202936119387208, 0.38034914501800543, 0.7282940176845822]], [[-0.03437710079337974, 0.03305731046772938, -0.03637763208003836], [-0.011734135325217769, 0.042299970955486606, -0.05351474976970792], [-0.10575373801039653, -0.04816524638417771, 0.0774348482070612]], [[-0.06461911979076589, -0.031889215807500565, 0.09468112914696455], [-0.05359638480870473, -0.06440179901753953, 0.10939360469418229], [-0.036188128026814766, 0.10708161212384464, -0.16280100923343674]], [[-0.036913940160115365, -0.03523428142305309, 0.1145969445048012], [-0.060000931630020134, -0.04528879030686623, 0.17154158384507015], [0.1751583094776314, 0.058002955153252246, -0.3168319211504311]], [[0.31752317756633996, 0.45483087636225045, 0.3402433156249224], [0.4226977759550465, 0.573812930100963, 0.28646011897482504], [-0.6233967688053937, -0.7012100137271349, -0.37596895383616624]], [[0.005832593183147124, 0.03872511357838897, -0.0015192525620681585], [0.0005024024306015689, 0.02889064330141025, -0.007265308322677445], [0.020305683841689667, 0.0398991475264434, 0.014395821318329456]], [[0.04556576417136529, 0.08352329509754082, 0.021240973230805735], [0.052080892067460256, 0.06862783455702468, 0.024374947536759003], [-0.06849098781899425, -0.0010491404674668897, -0.013874969300883482]], [[0.0015584912635748475, 0.04093365992347784, -0.014746492262288035], [-0.04479906354827497, -0.0004897775024494238, 0.01305386377040178], [0.07803122975548206, 0.1141144333158393, -0.01863309510643405]]]" REF_dip_perm="_JSON [[-0.15327683289009797, -0.07950941631676459, -0.024192181660141514], [-0.3862837680914506, -0.15848169125071362, 0.0036506876541358125], [0.1765821066855906, 0.012117118457847645, 0.0011109874267901305]]" REF_dip_trans="_JSON [[-0.8247632388051641, -0.021484159130212212, -0.0077793914149804156], [0.08339274027351781, 0.04103449263879816, -0.015226878491324342], [-1.3788326648900067, -0.04455188069261268, -0.009447477470891788]]" pbc="F F F"
C        0.00000000       0.00000000       0.00000000
C        1.58090707       0.00000000       0.00000000
H       -0.52078843       0.95765779       0.00000000
H        2.09645801      -0.95888901      -0.02760117
C       -0.87048002      -1.22379842      -0.00000000
H        2.45444777       1.21394963       0.03494297
H       -0.28391531      -2.13887145      -0.00000000
H       -1.52145135      -1.23484856      -0.87564365
H       -1.52139133      -1.23471640       0.87568993
9
Properties=species:S:1:pos:R:3 REF_energy="_JSON [[-3183.8383151072794, -3176.9902805572137, -3172.898250558498]]" REF_forces="_JSON [[[1.6782241265157047, -0.9853154147071758, 0.1213273367563314], [1.0854928741525813, 0.07358713935109348, 0.39959936167106475], [-6.640631569179476, -0.06692878032284875, 0.9236140929285757]], [[1.3081023518351083, -2.843098118288883, 2.0196505254286126], [0.1996037968719679, -2.5183040424232526, -0.9271506307683433], [8.14134269266933, -2.608840329275986, -0.320552342201654]], [[0.4135034335320244, -0.06371995783653225, -0.8535681578784952], [-0.7917601769082705, 0.27660099373728364, 1.3731858690798429], [-0.6691775849266646, 0.16558445590632265, 3.5691355868144914]], [[0.45817897559946313, -0.0031929464475185854, 0.9437659636816887], [0.40398417364691064, -0.6143072668167792, -0.1439694895280276], [0.9543028843724776, -1.9667905898595948, -2.1389666461049237]], [[-0.022992590721345157, 0.172314671898589, 0.9145607344989], [0.3435467334533197, -0.08887606551031123, -0.9860566161251942], [0.47390820625312347, 0.2958681129747192, -3.2962777203582325]], [[-3.807120999623797, 3.851878488095143, -3.1218117209658125], [-1.0936328257742274, 2.4677344526810026, 0.33210952977422326], [-1.8143797931963939, 4.22625251017419, 1.239257808955024]], [[0.09976530321977582, -0.07050080876696035, -0.006560611095668464], [0.16415245892526073, 0.07575880684405814, -0.03318019683602496], [0.11988817996780886, -0.0060828872181149, -0.03865134862906368]], [[0.06646270154486429, 0.08881064035399965, -0.10827176819619119], [-0.2917385439128853, -0.027002576497460358, -0.17344742003162064], [-0.738599225508418, -0.5025735131647344, -0.2121507916660741]], [[-0.1941233019009647, -0.14717655429991433, 0.09090769777082479], [-0.019648490454350995, 0.3548085586342646, 0.15890959276371075], [0.1733462095465799, 0.46351102078436857, 0.2745913602615405]]]" REF_nacs="_JSON [[[0.1914886258000847, -0.03625943604952174, 0.030725262110122303], [-0.4482000622433785, 0.0014576758729800768, 0.016269980450812207], [-0.05684868768804437, 0.19116375816534692, -0.08660378345646334]], [[0.382917878987971, -0.05668508364682904, -0.19349778776705254], [0.48078272324914356, -0.0350610628466869, 0.0340847249656506], [-0.5795480564573877, 0.11825546844313155, -0.03778571158002753]], [[-0.08603716420037233, 0.01313593335912053, 0.06176325688932151], [0.033582016845598806, -0.019814056931280768, 0.04734030912502957], [0.1300399654087273, -0.02213954906191975, -0.034489859603148064]], [[-0.08403065747146718, 0.08958946152859015, 0.13824495193015474], [0.006074587594584842, -0.035169372159423604, -0.040152200930618], [0.06296701917854985, -0.027018466692435936, -0.03115149659788921]], [[0.016453356156191236, -0.01614486759630684, -0.07919979218754886], [0.011655116147477771, 0.028208793530152633, -0.0515347907312202], [-0.05614898617693662, -0.008302796963411144, 0.07651653516467503]], [[-0.0677576044624321, 0.021312285262778525, -0.021980016178934202], [-0.07604549497534205, 0.09185915336408276, -0.01029830920986943], [0.2345971289686653, -0.18333553913421513, 0.13263009873824858]], [[0.009031245885306741, 0.01938138684432097, -0.006050243086197125], [-0.003532484763290561, -0.008327182235290012, 0.0013282660653742742], [-0.014006057666797798, -0.032971917315292504, 0.004190092551223272]], [[0.030012043245831534, 0.032265839884595165, 0.025912386622951377], [-0.00901009215638281, -0.014643708741919337, 0.0005622077922689322], [0.002597036449242937, -0.058753945838204195, -0.0037304815390950437]], [[-0.015445373629303163, 0.04248968249042616, 0.014112755983350449], [0.005588115923809739, -0.008251184570569097, 0.002328641625703526], [0.0035178298155142448, -0.05591842861004103, 0.0021343399531566585]]]" REF_dip_perm="_JSON [[-0.1462065532930377, -0.008884276832902056, -0.04336896180399379], [-0.31847487336935004, 0.09258193857528682, -0.10557534698672773], [-0.2968851208895163, 0.07245162837976976, -0.11843134713744835]]" REF_dip_trans="_JSON [[-0.4609393615777137, -0.11281383004935856, 0.0747762885150448], [-0.05661341796426645, 0.033258068743779144, -0.02038849612820815], [0.6368845958918905, 0.15538047761812981, -0.10300811759894021]]" pbc="F F F"
C        0.00000000       0.00000000       0.00000000
C        1.37750093       0.00000000       0.00000000
H       -0.52078843       0.95765779       0.00000000
H        1.89305187       0.82832009      -0.48385513
C       -0.87048002      -1.22379842      -0.00000000
H        2.25104163      -1.04864990       0.61255865
H       -0.28391531      -2.13887145      -0.00000000
H       -1.52145135      -1.23484856      -0.87564365
H       -1.52139133      -1.23471640       0.87568993
9
Properties=species:S:1:pos:R:3 REF_energy="_JSON [[-3178.5909413596023, -3173.4628424639445, -3169.8646683727047]]" REF_forces="_JSON [[[-37.459042271982064, 1.4158036368947582, 1.045087357450302], [-36.05893780428713, -0.4566764449553942, 0.6667657482972491], [-37.336081790288674, -1.3752350110467941, 1.119061259350576]], [[40.096183487234754, 1.3419182776761864, 1.365986458550962], [38.70760559218558, 1.6185629270881738, 0.7755804267570475], [39.765064846592686, 0.8451112638805668, -0.6652369418480163]], [[-0.8514345822897654, 0.022272370372398292, 1.9625868392089336], [-1.4542642954062874, 0.749962169054962, -0.927141783621359], [-2.1198049346454892, 1.3739622317005133, -4.1042524963036815]], [[1.4738370451062823, -1.3845493567128042, 1.6284431187323662], [1.666079678401792, 0.8414931122063928, -0.18345434305657457], [2.2107020327863105, 3.4286061577962608, -1.9002288187957812]], [[-0.8079672565463034, -0.18869500361203506, -2.0373938076121063], [-1.4782614963627623, -0.5361788976617613, 1.0815237241975113], [-1.9873991487906435, -0.7485182219022379, 4.403272830737619]], [[-2.5345137724509472, -1.146127222123374, -4.022407403435979], [-1.326745696041155, -2.379519623299565, -1.4764627214464099], [-0.3669098712170264, -3.728265130084235, 1.163924764125732]], [[0.1607098895625306, -0.0433903437677323, 0.009628113925598213], [0.19000046341550925, 0.08483411291509699, 0.04109656092590008], [0.21193191061683808, 0.12080607615359373, 0.0598673069969755]], [[-0.3181683035320869, -0.26555901061621134, -0.0587933908601452], [0.03139258206270233, 0.2422703510162387, -0.14966238487130323], [0.383950391466951, 0.7088649819918807, -0.21758454784892006]], [[0.24039576489595543, 0.24832665188766362, 0.10686271403993611], [-0.27686902396974716, -0.16474770636482503, 0.17175477281833199], [-0.7614534365202372, -0.6253323484883333, 0.1411766435851916]]]" REF_nacs="_JSON [[[0.02039611836903526, 0.06385123164403007, -0.006705368132515755], [-0.15420625602778257, -0.00757861335053474, 0.03612319900380641], [0.04442384470710692, -0.21790072482092457, -0.01779434299952968]], [[-0.6797290135593553, -0.0861551274186186, -0.1110493454459785], [0.0754445250341782, -0.03662082231364985, -0.12287782025865253], [1.0067937500960165, 0.2682903143892117, 0.17705127351432595]], [[0.20238225472439858, -0.11270947287662267, 0.12114945231633248], [0.00937166078105505, -0.0007067383806603969, -0.08561361223510215], [-0.31182052477580763, 0.14562404051571717, -0.012351415494444637]], [[0.20375430105019252, 0.1687411158547641, -0.12851565305008636], [0.020144375587682756, 0.07728639531746491, -0.030469678306288817], [-0.3207743858364275, -0.2101280899188027, 0.19074230479962023]], [[0.06837802437384341, 0.0008251549807863488, -0.1015250307783202], [-0.000657108542823906, 0.005548997941096852, 0.09232712515828008], [-0.06233612331177136, 0.010965607500750645, -0.023759637513750338]], [[0.25535991751896037, 0.08544097427802544, 0.2849163311256818], [0.05184539708736216, -0.02360089342362239, 0.11765441714220894], [-0.3739712654647837, -0.1323327097889098, -0.373672441215613]], [[-0.01642928700838997, -0.008331685066808193, -0.00734221410460879], [-0.0015293122035442417, -0.003997809586846702, -0.0008748075851792493], [0.023118823600085603, 0.010702568848313672, 0.006732714792794116]], [[0.040028791043778364, -0.014953537558677047, 0.01897048783159796], [0.013480650533788113, 0.008564620710654535, 0.0002833454839095984], [-0.06648103746890906, 0.012621971087864428, -0.01017734965448123]], [[-0.0047462754507060015, -0.018011094312557988, 0.017707171562109915], [-0.010844880609039645, -0.01621094454897374, -0.00356413541967356], [-0.009322284368357648, 0.05020842334657255, -0.005732056651854491]]]" REF_dip_perm="_JSON [[-0.18169744148240363, -0.08002157437944915, -0.08252407027923316], [-0.2795633522653875, -0.198051106451458, -0.19306693408533246], [-0.3194325673077033, -0.24612734215679255, -0.23059604480871548]]" REF_dip_trans="_JSON [[-0.13319654713908557, -0.07621876526483981, -0.17485650247527676], [-0.025422944861241633, -0.02955117703908961, -0.029036885953882974], [0.1728498159252241, 0.1016672555738265, 0.22611484868515436]]" pbc="F F F"
C        0.00000000       0.00000000       0.00000000
C        1.06269300       0.00000000       0.00000000
H       -0.52078843       0.95765779       0.00000000
H        1.57824394      -0.57933659      -0.76459078
C       -0.87048002      -1.22379842      -0.00000000
H        1.93623370       0.73343780       0.96796885
H       -0.28391531      -2.13887145      -0.00000000
H       -1.52145135      -1.23484856      -0.87564365
H       -1.52139133      -1.23471640       0.87568993
9
Properties=species:S:1:pos:R:3 REF_energy="_JSON [[-3183.0580667089707, -3174.700766510871, -3167.1013298085936]]" REF_forces="_JSON [[[-15.52094612996518, -1.3048967751743077, 0.2226097822566459], [-17.492473655778447, -0.9786368835251816, 0.5209141946424815], [-22.232245526590397, -0.8448266308731367, 2.181807763456234]], [[18.50925411814238, -2.5115991603936934, 0.49383957410587953], [18.592046320465652, 0.09386215549247726, -1.2542621948157584], [22.014828360446668, 1.158329984870536, -4.3810384506530315]], [[0.07177074404611934, -0.19465282914477652, -0.1891738724679134], [-2.1386968438377147, 1.2350662651953117, 1.059081603742644], [-1.9945829628088734, 0.9963697155301354, 5.234220677288408]], [[1.020577765053831, -0.5751237298086631, 0.3953547030090003], [0.44818364827796175, -0.44640025800512817, -0.4670159002985523], [2.0196104861883404, -1.550338899329958, -3.2614510380857684]], [[-0.6802845146518208, 0.09870232820785085, 0.24723252627522624], [0.08976511206944916, -0.4370254774074035, -1.1233962762609304], [-0.7873730970663969, -0.5413586563659238, -4.8617882291754935]], [[-3.406630815019408, 4.637602331037129, -1.1368243758659275], [0.518093749560862, -0.3094116349738352, 1.0878785222986826], [1.2089233238630583, 0.5489338773654793, 4.99708242384668]], [[0.11167923589717531, -0.021831602111844223, -0.017610889217619368], [0.34762220534803057, 0.14023803720173353, 0.040758051658083126], [0.20335096218865104, 0.12014511490336073, -0.0444416212470319]], [[-0.02097608916778519, -0.03330951213716995, -0.09320731662755663], [-0.25800253286068425, 0.12516885239730105, -0.04609561040699138], [-0.7884293482569404, -0.76832356443085, -0.14927348742564434]], [[-0.08444431433504322, -0.09489105047403022, 0.07777986853175041], [-0.10653800324816794, 0.5771389436245244, 0.18213760943992788], [0.3559178020339334, 0.8810690583291994, 0.2848819619966954]]]" REF_nacs="_JSON [[[0.05126338283204845, 0.006488878335274404, 0.013254453473024742], [0.1764128308645646, -0.024840473049238684, -0.025446939106870774], [-0.37173061895313475, 0.023825717488489877, 0.006941799312277276]], [[-0.5198470759763423, 0.09402212315927864, 0.12178526011271132], [-0.1516525554962241, -0.014781550899933112, 0.08391122350253406], [0.11896794678522017, -0.12630058320262588, 0.17433888277737142]], [[0.09775326472860649, -0.04478223123293563, -0.03356257022021591], [-0.03435146282068805, 0.03472024081274834, -0.05149883963830138], [0.1330649410099154, -0.07765615046147126, 0.022112698740919798]], [[0.11548926875858807, -0.045865023388038786, -0.1039606392587984], [-0.012165231669195224, 0.01948854584465846, 0.011870729611578631], [0.08983061918170776, -0.04596043446813274, -0.13766213140306047]], [[0.0060221516690185375, -0.0036383814652647096, 0.05661124048783876], [0.00814354194739251, -0.010568051837661447, 0.036335624856803604], [-0.010320026078915709, 0.02494546429091404, 0.00400114789555884]], [[0.2221199033535527, -0.2617086546571986, 0.07063170492760722], [0.012209564235328851, -0.02957421204055111, -0.05579521368219441], [0.02462121810957948, 0.0041538337805686635, 0.04058074728269176]], [[0.0036516691299650615, -0.006010839221419572, 0.00639397362577161], [0.006536891562639369, 0.0030319301513807126, 0.00121633319842659], [0.006616818165053339, -0.0015374036472516031, -0.0007057840561402123]], [[-0.01758260644878666, -0.02371957337986216, -0.01642858440672834], [0.0025560285884877127, 0.011760841632955384, 0.0005003916958930499], [-0.025034991014253508, -0.05330327055436424, -0.015428239874782125]], [[0.022370381612941453, -0.0034233072892738115, -0.018191370601740763], [-0.007996178636051872, 0.006045807158347834, 0.0004842449244979858], [0.017587708391341356, -0.00044270855403932965, -0.00980659885391139]]]" REF_dip_perm="_JSON [[-0.10562739557033388, -0.009665005586994402, -0.037743550887840406], [-0.48380199433594534, 0.25170695031937257, -0.1268132510413838], [-0.5117000351488452, 0.24038117852667293, -0.19482201232453206]]" REF_dip_trans="_JSON [[0.03081977986318311, 0.2712623395482628, -0.11856288958315128], [0.05146244901330854, -0.03226632550946789, 0.010700465386773692], [0.04236237611656331, 0.3051572358108799, -0.133852327880568]]" pbc="F F F"
C        0.00000000       0.00000000       0.00000000
C        1.17011026       0.00000000       0.00000000
H       -0.52078843       0.95765779       0.00000000
H        1.68566120       0.93633872      -0.20856598
C       -0.87048002      -1.22379842      -0.00000000
H        2.04365096      -1.18540104       0.26404369
H       -0.28391531      -2.13887145      -0.00000000
H       -1.52145135      -1.23484856      -0.87564365
H       -1.52139133      -1.23471640       0.87568993
9
Properties=species:S:1:pos:R:3 REF_energy="_JSON [[-3181.546786057801, -3178.2092788130462, -3177.7601132532936]]" REF_forces="_JSON [[[-0.06061725333147539, 0.5922376660221912, 0.6213515326766315], [4.293085999288875, -0.6903950367148864, 0.26681001036275154], [3.9081987763279824, -0.0909485381263014, -0.18771166855819968]], [[2.4541227030144928, 0.4144968622103971, 3.0371216214955643], [-0.7920084965390496, 0.7095513496603709, 3.187399451399869], [-2.9739794059490325, 0.6998826168775946, 2.7281081217450796]], [[0.06104858003189006, -0.07280173079037804, 1.0295441683848183], [-0.7712266918552487, 0.20887890103657525, -0.3247987930511117], [0.08242367881096434, 0.208209842495584, -1.1786585864343542]], [[0.6094375725572041, -0.9207904794804268, 0.6171720243854705], [0.39294333134730425, 0.3796071358041485, 0.31082205040393357], [1.1801759952252409, 1.335006616560593, 0.15377996274157005]], [[0.2561889303055318, 0.08843805747640901, -0.9972550486705061], [-0.0474034898848018, -0.24442284922426338, 0.35768825402016197], [-0.2167152274430197, -0.17588967215372908, 1.5910379804592902]], [[-3.2346371058117804, 0.061655062614708434, -4.349818557316581], [-2.869848252892444, -1.018825677637617, -3.8522774589104354], [-1.7463690814512098, -1.699683613306291, -3.0703236177502546]], [[0.07422498056795077, -0.12290013955965565, 0.00882828020574013], [0.17730040680604314, 0.18993360592067576, 0.015216586880501716], [0.030886480947032988, -0.08137335550509134, -0.0013903610733434065]], [[-0.22608126431173883, -0.12867199380504457, -0.10065993949881868], [-0.1292096919029892, 0.2957903332545734, -0.14865518707413009], [0.08668934785531045, 0.13279342061118848, -0.21170967284832515]], [[0.06631285697651747, 0.08833669530933104, 0.13371591833725432], [-0.2536331143680656, 0.16988223790287996, 0.18779508596805694], [-0.35131056432070157, -0.32799731745232946, 0.1768678417184213]]]" REF_nacs="_JSON [[[-0.21587951714593917, 0.036298006401023375, -0.08923697577683669], [-0.45355400061157697, -0.1287110677153627, -0.010423586557130876], [-0.8677512249177022, -1.2826345527473733, 0.8645511410830136]], [[-0.0334423842252364, -0.13772257661852605, -0.007523699938673963], [0.5066465077075464, 0.05525500206268436, 0.018232777552621343], [4.870182995684717, -0.1323458898457442, 0.7781389335229861]], [[0.06234489050012941, -0.012066452097677538, -0.0591473713711327], [0.023226084482447906, -0.0015564432048112396, -0.6078426032083682], [-1.2871596332170585, 0.04322282127341216, -1.0676570909377485]], [[0.061225216944695716, 0.4108784440906588, -0.05948638975093036], [-0.013369676132835287, 0.4966238319364586, -0.07652006641618814], [-1.0264790983428367, 0.8304134697624311, -0.16791956299572544]], [[0.010694233426044766, 0.015453426180182443, 0.10369831910300922], [-0.004178007017266007, 0.031376407214875696, 0.6465600704511761], [0.22023638393374814, -0.04363179933311394, 0.5483531138331033]], [[0.06114744870571722, -0.20426977030661675, 0.0793795690120828], [-0.03224290204510475, -0.4539321004759358, 0.06518502272967161], [-1.8882039246475428, -0.7929326810322084, -0.990827458623382]], [[-0.01169409820340554, -0.020364486114881942, -0.010159110526999065], [0.0011254960439942528, -0.002300815932243256, -0.0009946764916135022], [0.22572346953111572, 0.4068099795838048, 0.016536578075444758]], [[0.06053610006074875, -0.0059460448370994195, 0.022545856734251496], [0.07235118983390919, 0.07379875156607373, -0.016674221466592504], [-0.028280439717524163, 0.5226616247982786, 0.05009169356981103]], [[-0.057587409507936574, -0.04315482248856926, 0.027450838816418393], [-0.07991554351266304, -0.08309197735054033, -0.019934175605316205], [-0.20191819601399164, 0.4382321550723862, -0.03323000690373638]]]" REF_dip_perm="_JSON [[-0.20543992338018796, -0.06444863816448715, -0.09787215661301657], [-0.6018481819547081, -0.06398852868540873, -0.016782128909300233], [0.07257446303708029, -0.037914270242068594, -0.1946346374235499]]" REF_dip_trans="_JSON [[0.15477701027732932, 0.0008542158823597163, -0.04503035806964505], [-0.0623273681776699, 0.0017471471685018712, -0.008917065425307095], [-0.5467005646347037, -0.0006202884714211499, 0.128048936135035]]" pbc="F F F"
C        0.00000000       0.00000000       0.00000000
C        1.41891461       0.00000000       0.00000000
H       -0.52078843       0.95765779       0.00000000
H        1.93446555      -0.16540022      -0.94491943
C       -0.87048002      -1.22379842      -0.00000000
H        2.29245531       0.20939601       1.19626419
H       -0.28391531      -2.13887145      -0.00000000
H       -1.52145135      -1.23484856      -0.87564365
H       -1.52139133      -1.23471640       0.87568993
9
Properties=species:S:1:pos:R:3 REF_energy="_JSON [[-3182.2200474496776, -3177.688716018643, -3176.3794872557783]]" REF_forces="_JSON [[[3.2375511003093984, -0.5530374725667451, 0.22914974855979658], [5.642738825311062, -0.2567796881560463, 0.08955379730586777], [2.8752497486496327, 0.34421222248905076, 0.32692315605747146]], [[-0.6187829304481224, -1.553796214381786, 3.155609191979506], [-3.320213109733736, -1.992997700518386, 2.3166300853652055], [-1.3688649358883007, -1.767441947385274, 2.102446888426492]], [[0.3815403802147452, -0.01719752569110786, -1.2806543268987354], [-0.43155117760930256, 0.18071296954044014, 0.7152630498654045], [-0.227806815094477, 0.14786511314112868, 2.549845876328208]], [[0.39203718260485226, 0.9920030399765573, 1.000351867717327], [0.4371839259346769, -0.4887587271637755, 0.1857151934460033], [0.8288633059915824, -2.1599210637795356, -0.6415976306811009]], [[0.23162084457482074, 0.13221594143325172, 1.4545834002533105], [0.2128195469935264, -0.13080184939681402, -0.4686226949593403], [0.25473892307332213, -0.031156644608115784, -2.3689846318153833]], [[-3.535744672067946, 1.1239920829211718, -4.515850856879922], [-2.3576527427632423, 2.2726993719697073, -2.810802476340179], [-2.089102464348137, 3.498631744135114, -2.042437306312162]], [[0.07304354623034931, -0.0907904625887648, -0.007577762882506918], [0.14491552684068432, 0.10713077169514111, -0.018474181546071534], [0.08217944122433038, -0.024834472917800193, -0.005803059084523441]], [[0.12794367138212523, 0.1673665935880196, -0.13392610498478816], [-0.2490459109795311, 0.08820738694596855, -0.18289522395953095], [-0.5172448043760779, -0.301361696893852, -0.16444602283087897]], [[-0.2892091227990313, -0.20075598269077552, 0.09831484313526329], [-0.07919488399603088, 0.22058746508260918, 0.17363245082252138], [0.16198760077040975, 0.294006745818339, 0.2440527299112188]]]" REF_nacs="_JSON [[[0.20547995823844709, -0.045720639539015145, 0.018754922936144513], [0.5820761571033066, -0.06510071260214217, -0.0542876531009969], [-0.3545228240921174, -0.4855487033785632, 0.4295924491326131]], [[0.21723991713069654, -0.15215092293234633, -0.11532280131569339], [-0.6191644575297274, 0.02951728359235017, 0.022670818951403743], [1.7941574213134315, -0.14431258979975803, 0.2049629637633704]], [[-0.09614204434508708, 0.004546741587662099, 0.07367370390795125], [-0.006299155223163422, 0.018764680143531748, -0.24418018222325216], [-0.4669369286947783, -0.017065678618410754, 0.11575678874640248]], [[-0.07684474450627224, 0.19617245788660265, 0.09894398840006906], [0.0013122251790504025, 0.19570763871235305, 0.09097754062789934], [-0.3300083836359179, -0.12735291319274084, -0.08940847921186727]], [[0.008542893074437247, -0.020118180567011836, -0.08546659565774199], [-0.03038660467386451, -0.025753123971862524, 0.25948987301718823], [0.1253497514136082, -0.013979996619900152, -0.3187731527967532]], [[-0.08002027253475141, -0.028599319595215045, -0.04740805163258144], [0.04858613832273169, -0.18502990293241714, -0.057909446937115014], [-0.6955547434766052, 0.28478267153025505, -0.335127243688052]], [[0.013633858445391762, 0.02739242813867763, -0.00829620800491381], [0.002927526178334419, 0.01102097543101106, -0.0016529106683480454], [0.08143045531497767, 0.14916389795171822, -0.004352667587926258]], [[0.02973658315508672, 0.027660175642808302, 0.028214209241682324], [0.03203043218888153, 0.03708077489250025, -0.0072426697186384024], [-0.06619693281600665, 0.15080591437536872, 0.01096912683684888]], [[-0.027750286095847263, 0.047534862141631516, 0.019032752283092372], [-0.03176419976795833, -0.022258030996475844, -0.005958631222710949], [0.007037635609008259, 0.23122772329877792, -0.022355614777008224]]]" REF_dip_perm="_JSON [[-0.18734783571868796, -0.011070317344360625, -0.07651558178773846], [-0.3843475607813016, -0.016181280060150762, -0.07661967895495078], [-0.13063986290810842, 0.01518236364358141, -0.14628566714011906]]" REF_dip_trans="_JSON [[-0.36029989250344663, -0.04317269343136564, 0.06795658494858624], [0.06839820396871298, -0.005755999534156115, 0.015206318898339516], [-0.739199638985434, -0.08373538780913, 0.1296733233719107]]" pbc="F F F"
C        0.00000000       0.00000000       0.00000000
C        1.47334623       0.00000000       0.00000000
H       -0.52078843       0.95765779       0.00000000
H        1.98889717       0.44514162      -0.84975225
C       -0.87048002      -1.22379842      -0.00000000
H        2.34688693      -0.56354750       1.07578293
H       -0.28391531      -2.13887145      -0.00000000
H       -1.52145135      -1.23484856      -0.87564365
H       -1.52139133      -1.23471640       0.87568993
9
Properties=species:S:1:pos:R:3 REF_energy="_JSON [[-3182.982754572213, -3176.6991339651295, -3172.3976835068866]]" REF_forces="_JSON [[[-9.49744898886776, 1.3612230162746861, 0.5636109798925302], [-8.941740862347293, -0.7784524485261283, 0.2842181205508301], [-14.165785602321185, -0.7482560604103848, 0.5398657851259627]], [[12.281414503023479, 2.2085805808711703, 1.779365196463489], [11.120088607463114, 2.0150427829331052, 0.16963171778401168], [15.701970853518047, 1.2093867156811253, -0.15552236996725705]], [[-0.27752903376058896, -0.1370871999770026, 1.2968514865622613], [-0.9559716541911322, 0.5750552967761806, -1.0499470704345168], [-1.2274989329673334, 0.6979218646888394, -3.960291818710812]], [[0.8658905052556831, -0.518169450676105, 1.3366845148954727], [1.0083610036006954, 0.843402053711704, -0.30160197192726473], [1.6998474992642603, 2.8298018905328606, -2.440659853740264]], [[-0.19417596290168918, -0.03219848559101694, -1.36547818419462], [-0.6840707699507445, -0.2594001917439578, 1.3089390188108558], [-0.8310601605688747, -0.21802048490059764, 4.427132586304764]], [[-3.245420685130899, -2.774753163418215, -3.6554752020038257], [-1.3227542102267649, -2.6191190758908296, -0.4930038229289932], [-0.8171547243802171, -3.8395885967071646, 1.6132430836023943]], [[0.1153649290823933, -0.10263310070479777, 0.015406158023745292], [0.13177217973263394, 0.060039810380205914, 0.030802912186520807], [0.13971365704353075, 0.05898422103069923, 0.03753855239554298]], [[-0.22529789319121676, -0.16479445208516233, -0.06783529950480542], [0.04145631576502246, 0.3223090353457715, -0.15872473613341456], [0.36882393711584055, 0.684331482633108, -0.24853353053533017]], [[0.17720262649096963, 0.1598322553040034, 0.09687034986618749], [-0.3971406098467542, -0.15887726298837393, 0.20968583209134717], [-0.8688565267052273, -0.6745610325476941, 0.18722756552516476]]]" REF_nacs="_JSON [[[0.07390636662126067, -0.07669228053616507, 0.05346856625156292], [0.3283888167552357, -0.029033218409755923, -0.019847850039245767], [0.06481488513024758, -0.14899464005530472, 0.0637864512689072]], [[0.482515258435096, 0.07409678718203999, -0.041492651212289046], [-0.2957482577653107, 0.009972732870624498, 0.03007754257321237], [0.5709359224139638, 0.11439552241414913, -0.0026512482906286858]], [[-0.1065726636285118, 0.060698879650651565, -0.10745613778242587], [-0.01802443415300867, 0.01889182250569176, 0.06627363635874435], [-0.16657878182875793, 0.07235549813419175, -0.07262520240393727]], [[-0.13253941990430998, -0.12872087184894315, 0.12922315722203828], [-0.007413693114449307, -0.044958529843513534, 0.03529728629548075], [-0.14222764739419635, -0.1063000009501658, 0.11712683845766199]], [[-0.033537700392310285, 0.002335825557762844, 0.08811831190410878], [-0.012010987091069287, -0.01653963115204862, -0.072147116738132], [0.014562632742876737, 0.02012240212990307, 0.02445873806142229]], [[-0.1640178571735619, -0.08867635139799619, -0.14716378508893535], [0.00607752540373827, 0.043065062532880144, -0.04560164354211535], [-0.22802888370529587, -0.1320152354048051, -0.17222463509787367]], [[0.014884972669030588, 0.018356020551610775, 0.009268620995397988], [0.0007194945467767979, 0.005861496437155235, 0.0012890890345946258], [0.018030084191984264, 0.02514370518696647, 0.007562427760700091]], [[-0.029490709423569704, 0.02725890522756641, -0.019233547483532093], [-0.00919606201488944, -0.0022978688355065535, 0.0006021334200887948], [-0.03476032139010031, 0.034860413112293265, -0.005691785431551156]], [[0.019797518629257944, 0.024822869916114765, -0.02344036747069258], [0.007552721220702182, 0.014799148728736318, 0.003894760522928706], [0.0009294159107064666, 0.05279449645733079, -0.005636880590125631]]]" REF_dip_perm="_JSON [[-0.147426572092766, -0.07410469139510129, -0.04420798497172503], [-0.29488645527903995, -0.2195825645176528, -0.14272970790814643], [-0.354346757190713, -0.256995086413758, -0.18708551085731295]]" REF_dip_trans="_JSON [[-0.1740507359786498, 0.08398837261653869, 0.11660252720611143], [0.036499128872154875, 0.03626474908878608, 0.024620239548942376], [-0.2220972225878078, 0.10796198042170982, 0.1495088865720538]]" pbc="F F F"
C        0.00000000       0.00000000       0.00000000
C        1.22526680       0.00000000       0.00000000
H       -0.52078843       0.95765779       0.00000000
H        1.74081774      -0.73729406      -0.61369978
C       -0.87048002      -1.22379842      -0.00000000
H        2.09880750       0.93341132       0.77694145
H       -0.28391531      -2.13887145      -0.00000000
H       -1.52145135      -1.23484856      -0.87564365
H       -1.52139133      -1.23471640       0.87568993
9
Properties=species:S:1:pos:R:3 REF_energy="_JSON [[-3183.095234196914, -3176.375171257841, -3171.5380496994467]]" REF_forces="_JSON [[[-10.576419486623076, -1.1771404365160403, 0.27066728830606257], [-10.544529573231811, -0.13016116808282557, 0.6914216044969264], [-16.136153616778532, -0.1083901913628543, 1.5336107373193844]], [[13.433581760275397, -2.09939064185833, 1.686734340902754], [12.518705270192923, -2.119343412104402, -0.5125365353958623], [17.379809108238256, -1.4835054045100562, -1.466819086849081]], [[0.017537678496372933, -0.05197875185295903, -1.147451011695266], [-1.2884846173883735, 0.5296518871698652, 1.4687958616886385], [-1.6153920558508936, 0.6736338092563365, 4.4488726410310555]], [[0.8486668588017551, 0.24009400762792693, 1.3015153278699028], [0.9200095246246327, -0.8097990624529876, -0.37918390585465855], [1.7018476102833038, -2.565004787121419, -2.6160693636165884]], [[-0.4555462435906024, 0.08955002218208452, 1.2402597202571506], [-0.4850277646323116, -0.41371381274368346, -1.3044215957859413], [-0.5418966226854065, -0.32764916456825505, -4.250907310240282]], [[-3.2678373644699423, 3.0906130863294052, -3.31307891104585], [-1.0536369320703616, 2.570170245550535, 0.005448790425212027], [-0.5282165459716142, 3.6487916954689927, 2.2736889640920084]], [[0.13356539410167567, -0.034513455864110476, -0.0065222220781905645], [0.18945542332725437, 0.10552376539046432, -0.019201654314473904], [0.1541825226492312, 0.0727489845444966, -0.04152982403902134]], [[0.10190250455343111, 0.13122923575856463, -0.10345289941722143], [-0.28701924482764213, -0.11510230827971771, -0.13031026880266203], [-0.7576600072945483, -0.598928488688245, -0.15096471065282702]], [[-0.23545110155071192, -0.18846306580661482, 0.0713283668992053], [0.030527914005496752, 0.3827738655522018, 0.1799877035432845], [0.3434796074093104, 0.6883035469786858, 0.27011795295512103]]]" REF_nacs="_JSON [[[0.0654170347690075, -0.053321369284650255, -0.003548235111309421], [0.3040734817409613, -0.009137780368869634, -0.01933047952538334], [0.09913984077376742, -0.09543115471902935, 0.050561085335492584]], [[0.48696547392241024, -0.11027735608308999, -0.09171443585638964], [-0.2726976625940634, -0.006528920687084778, 0.04382035753202236], [0.48098817953268447, -0.1792869124755268, -0.05363066192078288]], [[-0.1207074850555124, 0.041075270521311325, 0.08977647398262131], [-0.020246539643155773, 0.014554229977369463, -0.055538323881095725], [-0.17606360999277687, 0.057854013866871036, 0.03463875606814727]], [[-0.12572400666368877, 0.10997374135773738, 0.14084232107743946], [-0.00763511039913809, 0.035851774900484266, 0.026744318170450032], [-0.12465956834706186, 0.09674952667660713, 0.1228330889480555]], [[-0.013739244698553985, -0.0077556768274897, -0.10233452586761604], [-0.014412573490709811, -0.020655313338156955, 0.048507698461588256], [0.03103290552452225, 0.008383292920908659, -0.0636825453326506]], [[-0.17063393568774943, 0.09994842194054855, -0.14207503242891517], [0.008801877656625724, -0.03146729808309648, -0.043064815994002435], [-0.19851681298598828, 0.13337531480914874, -0.15968013738282658]], [[0.007587110980542557, 0.012632731198401602, -0.008006542184780637], [0.002905903673191712, 0.005714957482049504, -0.00047201750272250027], [0.00915314730536587, 0.013443458389044843, -0.00616003297296949]], [[0.01842249571737836, 0.022566159445280287, 0.02059925398463228], [0.006782513533110978, 0.009861484601022725, -0.0010124697620371972], [0.0016573964398876677, 0.045732233515613764, 0.006896911132310494]], [[-0.0242791885939487, 0.027725070593954647, 0.016861253630541837], [-0.007052932786615104, 0.0024068759332672024, 1.0728518200902586e-05], [-0.02402476665599554, 0.03330331701301974, 0.004505159548754368]]]" REF_dip_perm="_JSON [[-0.134339476230834, 0.00897858886639641, -0.056666333943694636], [-0.31989059484343746, 0.10661423671550661, -0.15307280244236185], [-0.38880291953798857, 0.09497409147782578, -0.20025380250967054]]" REF_dip_trans="_JSON [[-0.159057091866622, -0.15367369378532886, 0.13443502713256267], [0.04133851738193153, -0.02219189359062651, 0.021880190062826085], [-0.19768802891188758, -0.19248910835632355, 0.1684503043312793]]" pbc="F F F"
C        0.00000000       0.00000000       0.00000000
C        1.21393798       0.00000000       0.00000000
H       -0.52078843       0.95765779       0.00000000
H        1.72948892       0.78441366      -0.55220030
C       -0.87048002      -1.22379842      -0.00000000
H        2.08747868      -0.99306453       0.69908336
H       -0.28391531      -2.13887145      -0.00000000
H       -1.52145135      -1.23484856      -0.87564365
H       -1.52139133      -1.23471640       0.87568993
9
Properties=species:S:1:pos:R:3 REF_energy="_JSON [[-3182.3288946264584, -3177.441458671077, -3175.9017290600464]]" REF_forces="_JSON [[[3.97557625411548, 0.9183120586383863, 0.5027910383380404], [6.08072883201689, -0.6360628773402743, -0.16866716896265424], [2.8018145971939457, -0.4215027183386707, -0.20554430545253138]], [[-1.338151976265797, 1.7496720339321126, 3.027984882637747], [-3.8424362492710893, 2.1803992820866447, 2.208233122369817], [-1.2587942111193624, 1.8670396561753162, 2.3481022825680684]], [[0.25102150858481903, -0.11146887097599043, 1.2421591853602643], [-0.2695041458015384, 0.15414005056347357, -0.5297038765558012], [-0.025115253912790906, 0.14725933639403357, -2.293014162031505]], [[0.35732366162374973, -0.8512908875424205, 0.9862972807676303], [0.4145442001414835, 0.5717229723275677, 0.09530507258284321], [0.7873334789478682, 2.17461369243951, -0.8689202991540612]], [[0.4327299602994011, 0.0511475519624651, -1.3203770342792132], [0.20596858208868696, -0.11699044398719116, 0.8295579806446318], [0.19185003141989626, 0.03103400119188883, 2.8089033734745]], [[-3.6594731274740693, -1.6243046474092824, -4.491765939789479], [-2.3250173161352046, -2.5281122954091857, -2.5076894723259464], [-2.1266823461951176, -3.714704888736078, -1.7406618214089182]], [[0.06646544895155418, -0.1367810577683637, 0.018077262504839455], [0.11067200676237321, 0.0911865485314151, 0.015358154949975424], [0.06011267382408179, -0.030791825551588832, -0.0039258945597398604]], [[-0.24395024093829512, -0.14576916536238976, -0.09402229581748738], [-0.03441212136462135, 0.290319164829791, -0.16875822857175338], [0.19909320541931574, 0.3694024283957542, -0.2416282775089171]], [[0.15845851110280668, 0.150482984525531, 0.12885562027768574], [-0.34054378843840477, -0.006602401601306941, 0.22636441586800918], [-0.6296121755783927, -0.42234968197182554, 0.19668910407307963]]]" REF_nacs="_JSON [[[0.22700028909815276, -0.12120482981801604, 0.09536445955653795], [0.5689591408054524, -0.005960326546932213, -0.023455254822255973], [-0.3180881996879869, -0.3389684304771735, 0.2930187804196688]], [[0.21725479698525907, 0.12970829140425214, -0.09990541237477635], [-0.6152162468590564, -0.0030009134777367517, -0.019530239199522684], [1.5239009610101009, 0.002222321306604632, 0.19045750543319737]], [[-0.06541154359150894, 0.0180596528710985, -0.0893081027701454], [-0.020833000276446897, 0.01337769034999825, 0.19803346570620375], [-0.3620486256412367, -0.004882244224460157, -0.25372787417344894]], [[-0.08075956780017497, -0.17546121706498766, 0.10122660180599534], [0.002686748685471603, -0.15028995058334588, 0.08494910940245952], [-0.26837086066648913, 0.09643232387490042, -0.06790671694518023]], [[-0.015550002625444979, -0.008470852125062368, 0.05545677257342581], [-0.015836956961450724, -0.03150896642853185, -0.21004314640390886], [0.1135451805076327, 0.005519533295250678, 0.05321060707944787]], [[-0.062062061702558124, 0.016078635580822922, -0.035710647784345566], [0.053527474767018794, 0.15296439622915484, -0.04368434409169429], [-0.5898087300344483, -0.24070427218660462, -0.25394176524256057]], [[0.014750043803917855, 0.028938731475066835, 0.009867768338967972], [0.001194577618262355, 0.009564153311493642, 0.0017141742700654702], [0.06869049169751466, 0.1344700261798628, 0.01565089231994797]], [[-0.030510128836942423, 0.037942201912031744, -0.018636317103569253], [-0.023584301603827195, -0.014335688720811595, 0.004976440455254371], [-0.021531173546091558, 0.15727425346921403, 0.02208136514209695]], [[0.03166155223995609, 0.0330398646537542, -0.02927725120717024], [0.02543822187621947, 0.03333128418883241, 0.00813325536537304], [-0.024223200960706646, 0.16727280767652278, -0.004483102978566806]]]" REF_dip_perm="_JSON [[-0.18522841739424528, -0.0837544987956827, -0.055113204208886934], [-0.3862004903576808, -0.10107834936315581, -0.07574734469371158], [-0.12760230756885313, -0.10563364140036663, -0.14418498630577456]]" REF_dip_trans="_JSON [[-0.4079005653047298, 0.020030582412166122, 0.060015604086423494], [0.07053178985974486, 0.01539803657374581, 0.024445405378274564], [-0.7916910760480762, 0.032695516009038715, 0.10507097948495744]]" pbc="F F F"
C        0.00000000       0.00000000       0.00000000
C        1.49497825       0.00000000       0.00000000
H       -0.52078843       0.95765779       0.00000000
H        2.01052919      -0.51544706      -0.80903911
C       -0.87048002      -1.22379842      -0.00000000
H        2.36851895       0.65255391       1.02424026
H       -0.28391531      -2.13887145      -0.00000000
H       -1.52145135      -1.23484856      -0.87564365
H       -1.52139133      -1.23471640       0.87568993
9
Properties=species:S:1:pos:R:3 REF_energy="_JSON [[-3181.42197885889, -3178.212514791072, -3177.8603518359914]]" REF_forces="_JSON [[[0.06489266871263558, -0.011498820834618896, 0.4513249629176567], [4.801212793834543, -0.7402176359168526, 0.48124817080889176], [4.882334797257879, 0.4487229457202728, -0.19687152685941364]], [[2.3140979860098607, -0.3747085230352924, 3.169403937508987], [-0.801648322725016, -0.4597749378474453, 3.314485031177105], [-4.471699355554782, -0.24805029003401888, 2.630887091040738]], [[0.1793005900742873, -0.04400854020939447, -0.5158599314825785], [-0.9416771923838891, 0.19842301372470234, 0.25290754518989395], [0.22813565901846694, 0.1936290564655, 0.8308209208462541]], [[0.5825120403755676, 0.547169553927489, 0.5193199060069175], [0.21739086102079513, -0.24952674663838967, 0.33358480819793296], [1.2632040148897887, -0.6308236228627366, 0.32352188752991895]], [[0.22914741051078996, 0.1454630538648425, 0.6836255548142753], [0.04863817113773624, -0.25656555747028265, -0.31093340177754053], [-0.14357733855735577, -0.18474060133294665, -0.4770778350819955]], [[-3.2513874999398653, -0.07717372419402928, -4.29257305955245], [-3.141083919613285, 0.6396538237967923, -4.0917188446274855], [-1.5445690487971409, 0.8543170886058181, -3.152238358924714]], [[0.07090081490433145, -0.11612186524617799, -0.002109267840787645], [0.21374890470411018, 0.25003149645945827, 0.005805156293866549], [0.0028797737820914176, -0.1348483957296091, 0.0008996131717909884]], [[-0.0005410880785989936, 0.0634888711947906, -0.12715291255755606], [-0.2457129747464945, 0.2725334082275972, -0.151544628895989], [-0.180097948271025, -0.1894605015727816, -0.17964143895996584]], [[-0.1889229225693291, -0.1326100054686516, 0.11402081018566312], [-0.1508683212257025, 0.34544313566418633, 0.16616616363389025], [-0.036610553767475934, -0.10874567925933804, 0.21969964723830898]]]" REF_nacs="_JSON [[[-0.1820430916363511, 0.09136453004891276, 0.06541579660353], [-0.26323402866781964, 0.15963663427295535, 0.06298780532502446], [-0.6556983045707284, -0.94075338255332, 1.1398655470071282]], [[0.04413730337381625, 0.12983206939390632, 0.006218938154556045], [0.3093817458907515, -0.10927186661736968, -0.06259975132761798], [4.393221340216865, -0.21936227603612507, 0.5872353338086396]], [[0.032956941830235315, -0.007007965089441419, 0.2178617054128382], [-0.034894414981375126, -0.015764603901601882, 0.6716132606219943], [-1.2690773430583773, 0.005989924597509904, 0.5677014885472402]], [[0.028586154824521922, -0.54383124323373, -0.051763244681208125], [-0.008093065150046836, -0.5083841102629025, -0.04187520073843361], [-0.9188051452311823, -0.8098939170535339, -0.1335258194997826]], [[0.007815029092411965, 0.010387431763725972, -0.2394917712506207], [0.03784961270703084, 0.0017051534912852998, -0.7114085058050376], [0.2397524606742809, -0.08791503388668341, -1.184920401902089]], [[0.034583197874607015, 0.3229295709563589, 0.04141697841372969], [-0.02824423450832234, 0.4879673841618159, 0.03283010178145056], [-1.8075639810238295, 0.7546533017772901, -1.0073684984308362]], [[-0.0053589415270221645, -0.014880270754944438, 0.009405527435237558], [0.0005118424697446063, -0.0036362333198724527, -0.0005102328126090365], [0.21501955024888567, 0.377433615139398, 0.01067882798600816]], [[-0.07398124739109442, -0.04686551281526163, -0.022792088367477092], [-0.07625150478901285, -0.08172809418227334, 0.02408624899587698], [-0.2504931196124483, 0.2952670049459279, 0.053786421360613214]], [[0.07973723221687924, 0.018323196266687315, -0.021402383777918282], [0.08008120191149261, 0.08973283311123062, 0.022394624553791896], [0.05874749800668257, 0.6306233263740262, -0.034193159133221344]]]" REF_dip_perm="_JSON [[-0.20804651644718428, -0.03513903976418834, -0.10849006766867249], [-0.7848926407808391, -0.06875201505704417, 0.025564182323999797], [0.21877060661339673, 0.010866911479627766, -0.21583506649800951]]" REF_dip_trans="_JSON [[0.08193483642050323, 0.0020981096179977046, -0.021501031786817882], [-0.05089223358088826, -0.007564760630945311, 0.0075995511220652255], [-0.4178897027474054, -0.023659128266641814, 0.09775033666224515]]" pbc="F F F"
C        0.00000000       0.00000000       0.00000000
C        1.43371526       0.00000000       0.00000000
H       -0.52078843       0.95765779       0.00000000
H        1.94926620       0.08769197      -0.95526963
C       -0.87048002      -1.22379842      -0.00000000
H        2.30725596      -0.11101768       1.20936751
H       -0.28391531      -2.13887145      -0.00000000
H       -1.52145135      -1.23484856      -0.87564365
H       -1.52139133      -1.23471640       0.87568993
9
Properties=species:S:1:pos:R:3 REF_energy="_JSON [[-3182.6528823682215, -3174.66928783529, -3167.524016512834]]" REF_forces="_JSON [[[-18.169696827940342, 1.7227828874823616, 0.3313722101276829], [-19.120731237435283, -1.7614963532264443, 0.2796681609040262], [-21.92035196572004, -0.9508896805847551, 1.0526256038276927]], [[21.01766755815107, 2.7018413462786945, 0.6860749182551512], [20.94718778052062, -0.30233458604281255, -0.964194322127731], [21.956733398699065, -2.3322483061387436, -3.289415141278643]], [[-0.38783518262950867, -0.26117285837720494, 0.4354949681325834], [-1.225072114155153, 1.4352916147940382, -0.868797166591071], [-1.7894467171565558, 1.6214301111385665, -4.358355793570625]], [[1.0884295383311147, 0.39062748655147994, 0.6636846041657345], [0.7199922824185516, 0.5408503997213007, -0.5829610819319164], [2.187123241312277, 1.9367414732002315, -3.0793998643608753]], [[-0.46312638493014147, -0.02012816309708168, -0.4525297317466067], [-0.5481077940527636, -0.11779142586966534, 1.1802961761919293], [-1.3857313445756816, -0.4910263161148245, 4.97663560147036]], [[-3.212449007458905, -4.366288500891027, -1.6790906725640995], [-0.46095700695614333, -0.3084902637843476, 0.9608879562170687], [1.3077170201767778, -0.04801819594534584, 4.704699418807488]], [[0.13141969753976032, -0.10288562216980657, 0.008933682190662318], [0.12465485342952026, 0.06058987439101545, 0.028033434716080333], [0.16207241359864463, 0.13098218172610926, 0.0499000362668378]], [[-0.07572212340598838, -0.08160772619795136, -0.06510681801928414], [-0.049401195783011, 0.44440413621187375, -0.19536222185900365], [0.4462030608588139, 0.898301570862061, -0.2681678165605243]], [[0.07131273234446507, 0.016831150420502244, 0.07116683945837463], [-0.3875655679877897, 0.008976603804026742, 0.16242906448043026], [-0.9643191071937608, -0.7652728381473637, 0.21147795539674216]]]" REF_nacs="_JSON [[[-0.02542184102569878, -0.05817379778026102, 0.04119254467156219], [0.1275414337219422, -0.04919252862713349, -0.02851531051388285], [0.26900412209238456, -0.13511379333243656, 0.03910365572376246]], [[0.46886020595698996, 0.073513201796804, -0.07321388924858611], [-0.0827912461081676, 0.02667099727902397, 0.07964145549071883], [0.007299514529136323, -0.12348789473156155, -0.17800123444105193]], [[-0.10152087117158495, 0.09442572422276044, -0.06452600385565543], [-0.012421827683591574, 0.02681379484703202, 0.04231479890557357], [-0.10339770845499265, 0.12575393893989853, 0.015950019306298645]], [[-0.13048958264612304, -0.08556777864956744, 0.0956013627336308], [-0.010957438897082028, -0.016246533411171195, 0.007777773622787404], [-0.12313824986702582, -0.10197149147160339, 0.15537547487381537]], [[-0.053057987224336293, 0.02276156211364865, 0.0530188298408758], [0.008955271567242549, -0.0025973893574542544, -0.04684206459794842], [-0.02705452119018343, 0.02020836869923497, -0.014648752821126803]], [[-0.22622152167482987, -0.3027129738882632, -0.10815182521055178], [-0.022598249949419356, 0.005043345404744536, -0.05563299118840025], [-0.07324177321192021, -0.03853303639734937, -0.06521128252132948]], [[0.014151682813104988, 0.010374925191684124, 0.009055754050329195], [-0.0005420571715314722, 0.002037024865029035, 0.0009365766417060999], [0.008929856639361678, 0.010283749401270472, 0.005394833905814463]], [[-0.032149060113916536, 0.009597070901323144, -0.021792225912263583], [-0.008507274720051717, 0.000668526971813223, -0.000844417431253475], [-0.038964136983220266, 0.007776110967508387, -0.018597980232318442]], [[0.01724130674475415, 0.013035005712669499, -0.019245282744494455], [0.0028785354164884824, 0.011858315461627522, 0.0031628395865403404], [0.02068382343163363, 0.04067593269986445, -0.01622196198262074]]]" REF_dip_perm="_JSON [[-0.1317495387105917, -0.06204399360188272, -0.028468493289223327], [-0.42413349808984757, -0.5045173306111955, -0.14248403859352538], [-0.5106174246098372, -0.6358671361996919, -0.2180002875760256]]" REF_dip_trans="_JSON [[0.050230537379039854, 0.20913026369097423, 0.11968876966223298], [0.03918668260312248, 0.057225777598913244, 0.01372048755928425], [0.049787912975130764, 0.2276048794157995, 0.13391241330694145]]" pbc="F F F"
C        0.00000000       0.00000000       0.00000000
C        1.15327481       0.00000000       0.00000000
H       -0.52078843       0.95765779       0.00000000
H        1.66882575      -0.91549781      -0.28652000
C       -0.87048002      -1.22379842      -0.00000000
H        2.02681551       1.15901655       0.36273317
H       -0.28391531      -2.13887145      -0.00000000
H       -1.52145135      -1.23484856      -0.87564365
H       -1.52139133      -1.23471640       0.87568993
9
Properties=species:S:1:pos:R:3 REF_energy="_JSON [[-3180.6418199860414, -3174.869592480499, -3170.7241304762993]]" REF_forces="_JSON [[[-26.357778168816996, -1.289366874989577, 0.5050869527785758], [-25.428073226979397, -0.3007034654078579, 0.8154191970845397], [-28.10417138654833, -0.07559645894989798, 1.8308923439554603]], [[29.0936387777928, -1.3257394397868505, 1.6296994067020454], [27.955579319198133, -1.839548676684402, 0.3510602777646899], [29.8991657928597, -1.1705743621038789, -1.4407787293825507]], [[-0.3429751395380279, 0.018813322338185515, -1.673410930608994], [-1.5036646924588275, 0.6416541168140198, 1.2901192833723842], [-2.1877756772337524, 1.0566109984314218, 4.465482598828448]], [[1.2228952751950433, 0.8941464395521943, 1.6400954974787978], [1.3719465103689095, -0.849104014987985, -0.2861744392103978], [2.061515738091574, -3.085383920982905, -2.2750254886819135]], [[-0.8273336761716661, -0.03636878174299427, 1.7719825229073722], [-1.121718422831723, -0.6145741653160759, -1.1985311535482917], [-1.3240444552818058, -0.796431243539316, -4.369634095570319]], [[-2.8038258373198217, 1.7997470139097358, -3.8319997285908305], [-1.2576487071883105, 2.6530544381261936, -1.0148647361828436], [-0.22363993469059454, 3.789336284820491, 1.6919485498149067]], [[0.1610016168094613, -0.002935903061612375, 0.0015129784999884368], [0.19892395516545536, 0.12660131605262534, -0.016331817938587425], [0.1798542812423937, 0.11546200090134527, -0.041162142368662905]], [[0.15995232637099455, 0.20304094576038598, -0.10901046377704365], [-0.25664347694578676, -0.13132686641212665, -0.12488855074078242], [-0.7033196659597769, -0.5656840561680904, -0.11464981145896658]], [[-0.3055751743222112, -0.2613367219782624, 0.06604376461154508], [0.041298741670232245, 0.31394731781505203, 0.18419193939935363], [0.40241530751901283, 0.7322607575905908, 0.25292677486204634]]]" REF_nacs="_JSON [[[-0.0005773972763878222, -0.08024940494072635, -0.03244368249173735], [0.20722923208724658, -0.015288669097180638, -0.03167052381061848], [0.06168554128574009, -0.06397929610250248, 0.013892607027676885]], [[0.5938059641635224, -0.15223097187863893, 0.005973473928131636], [-0.13992721717831552, -0.028126765438265325, 0.10411956059417148], [0.7460671111856398, -0.3149509589748313, 0.045801506320598026]], [[-0.17054465308863226, 0.07508609353215887, 0.10680631423172023], [-0.009502932763964543, 0.004956962825494432, -0.07271082905888075], [-0.26668424452192574, 0.09884587948306679, 0.011603865288046198]], [[-0.16921489632329362, 0.14382488491886208, 0.14261223352289218], [-0.014118158966040623, 0.05515188118683607, 0.025998088191535325], [-0.23494834688444813, 0.1598391616909617, 0.16767286997497044]], [[-0.042457450310719055, -0.0010177230769176167, -0.11240815781358396], [-0.011765510850926404, -0.01249231913288973, 0.06370648764478475], [-0.010466846224011332, 0.005823941108810662, -0.045094839382242624]], [[-0.23001569769445418, 0.094298261910891, -0.23244976024918243], [-0.032577159841335676, -0.014920558603011579, -0.08989996224763874], [-0.28794645923900797, 0.13515582237166693, -0.27719225266876213]], [[0.009371361857369576, 0.0076454063904540315, -0.00914247175401907], [0.0027042576216202855, 0.00520862957843092, -0.000281456022495161], [0.015285143366582786, 0.009015084062203518, -0.00890442546082591]], [[0.008550444247094252, 0.015975747934597044, 0.016930046307765755], [0.007541310980786414, 0.010357023529982978, -0.0019190650924556108], [-0.004568192126517666, 0.04230153801156772, 0.007087884765815215]], [[-0.035041997747454354, 0.019530112566623795, 0.016374356524746187], [-0.010237139757833656, -0.002624183173289525, 0.0008899057146658669], [-0.047319280383351814, 0.026225543694782052, 0.00694517602480476]]]" REF_dip_perm="_JSON [[-0.1551131069197232, 0.02554960872059007, -0.08488707597495265], [-0.28959831918465445, 0.07731921191861751, -0.1844872455636936], [-0.36746300025946443, 0.05125328124865437, -0.23600909750375576]]" REF_dip_trans="_JSON [[0.048147493097553486, -0.14146099180462315, 0.17532372255967335], [0.03066789309182735, -0.012777825828759115, 0.02381791609091826], [0.06323667666237902, -0.17784298761872605, 0.22123547655078418]]" pbc="F F F"
C        0.00000000       0.00000000       0.00000000
C        1.11185911       0.00000000       0.00000000
H       -0.52078843       0.95765779       0.00000000
H        1.62741005       0.65923843      -0.69687492
C       -0.87048002      -1.22379842      -0.00000000
H        1.98539981      -0.83459320       0.88224084
H       -0.28391531      -2.13887145      -0.00000000
H       -1.52145135      -1.23484856      -0.87564365
H       -1.52139133      -1.23471640       0.87568993
9
Properties=species:S:1:pos:R:3 REF_energy="_JSON [[-3183.9947106436575, -3176.709284356344, -3171.676773073285]]" REF_forces="_JSON [[[-0.9785683975879128, 1.5011959955771674, 0.27437185660094865], [-1.4329468253058621, -1.4744012512620814, 0.1812745267035463], [-10.387604430907219, -0.2212927455368593, 0.27179068617351165]], [[3.9795280552583003, 3.150330776543208, 1.6505208481989602], [2.669145484114668, 1.3517533831627662, -1.4481467550416742], [11.881845791495763, 1.7833071050905789, -0.31098205538174933]], [[0.03556838430584994, -0.25990597755181916, 0.622421542840109], [-0.6303980415043607, 0.6148751022740008, -0.8712329213919452], [-0.6838369404375706, 0.2546627906088017, -3.5114749184913]], [[0.6094635815798952, 0.16408125632522874, 0.7343340538691864], [0.43305347794487964, 0.5602126921246192, -0.14366210377711724], [1.1809396391246874, 1.912556074255665, -2.568634772300433]], [[0.09305256079488212, 0.03778379999070731, -0.6690138137109957], [-0.014340076616890358, 0.0027929388317682134, 1.210356576258352], [0.15100901637658526, 0.2976150573162537, 4.040116685291012]], [[-3.822626627617698, -4.4169754772020084, -2.6149582388269548], [-0.6382693696162005, -1.4693529522249074, 0.9292165632522744], [-1.5683972306194134, -3.925924366259658, 2.056199560055799]], [[0.09765624838459909, -0.13862511197887661, 0.016006404024573408], [0.09187951042663524, 0.06671638599437076, 0.007216494293052169], [0.10529161017691682, -0.007140677762254716, 0.02858126733729623]], [[-0.1271473223850192, -0.09207565089829818, -0.09016718485171543], [0.023391783540627813, 0.39597653805667754, -0.14080186419027393], [0.2654997982483495, 0.5958714323962355, -0.26977804473417194]], [[0.11307351726666703, 0.05419038919321878, 0.07648453185709721], [-0.501515942982228, -0.0485728369568379, 0.27577948389355067], [-0.9447472534600717, -0.6896546701056959, 0.264181592049342]]]" REF_nacs="_JSON [[[-0.1731133820016836, 0.0959914439720442, -0.08279298208604734], [0.4220394597002709, -0.07959563252811021, -0.014741559310271435], [-0.14662450921560108, 0.09051616012740452, -0.061920227867820365]], [[-0.4070999706343444, -0.011384286699752756, 0.15153999995306944], [-0.4462805667626515, -0.05802273702886844, -0.03585519790238333], [-0.4263674031130375, -0.04382032457863935, -0.002613665890693002]], [[0.0560473572458417, -0.045695774484440746, 0.055764736118657766], [-0.023866991821369647, 0.03676728537566006, 0.04920094323310576], [0.10582670148825202, -0.049342583734497604, 0.07085679047257482]], [[0.0943926119672158, 0.08029347497809464, -0.13442759244696195], [-0.008633013499418942, -0.026727049435032527, 0.03704833388969855], [0.0537092362938977, 0.03322762163820982, -0.05116524436425698]], [[0.012166334001530584, -0.005765623509803577, -0.036018586336914314], [-0.013708535371348576, -0.020939377636153337, -0.05074973538718724], [-0.03831918017239153, -0.012401447032943168, -0.022727897895246613]], [[0.0759208616546593, 0.05155340796008254, 0.028154426576083795], [0.075127189086294, 0.11546979754033489, 0.00837010610325216], [0.18023729037029504, 0.16702203252411343, 0.07900110123136828]], [[-0.012090088036852855, -0.020704807753683267, -0.009589465730892841], [-0.0002493474706899162, 0.008342828018439871, 0.0007752514269265288], [-0.013544588205702875, -0.029616118186983738, -0.007806408840933768]], [[0.026050102827163666, -0.029639996160632183, 0.017828383471422463], [-0.005787081097535409, 0.00649198657391164, 0.0014409492891313696], [0.017245761189487244, -0.04140635124190457, 0.005015387331258442]], [[-0.03307409965630788, -0.034853974526570776, 0.0280801306192339], [0.0028946393180583367, 0.01787325527338453, 0.004431996896858271], [-0.011456990354694805, -0.052410959713048384, 0.005711151566480495]]]" REF_dip_perm="_JSON [[-0.1394464832542701, -0.06407388836252281, -0.029303352570266072], [-0.34716405265306344, -0.28428936365682644, -0.10747824320336881], [-0.31780865149919124, -0.2427129550722287, -0.11187947143310538]]" REF_dip_trans="_JSON [[0.41290529317015595, -0.07584013156220044, -0.06255964892671527], [0.053189804927676464, 0.05711586167132982, 0.020324988936155728], [0.5321886892761226, -0.09921692219657627, -0.08125513104815402]]" pbc="F F F"
C        0.00000000       0.00000000       0.00000000
C        1.32630002       0.00000000       0.00000000
H       -0.52078843       0.95765779       0.00000000
H        1.84185096      -0.87459004      -0.39410940
C       -0.87048002      -1.22379842      -0.00000000
H        2.19984072       1.10722747       0.49894091
H       -0.28391531      -2.13887145      -0.00000000
H       -1.52145135      -1.23484856      -0.87564365
H       -1.52139133      -1.23471640       0.87568993
9
Properties=species:S:1:pos:R:3 REF_energy="_JSON [[-3183.472921432086, -3175.6868587041267, -3171.907783046483]]" REF_forces="_JSON [[[5.755919698174759, -1.128665116975833, -0.03631583666891127], [4.349455274095515, 0.21139603173264634, 0.22290676962793798], [-6.014057624324621, -0.6526202407402172, 0.35079842336629397]], [[-1.7612018089689239, -4.829535793372388, 2.285959248613473], [-4.777018490178661, -1.1076139734208335, -4.282027933294444], [8.14238104978382, -3.954079224312295, -0.7317253781243014]], [[0.9693358208344086, -0.05007421992705239, -0.5608867399571796], [-0.5392951766707144, 0.07646558625548439, 1.5531516518367632], [0.4346790971027203, -0.15108524918445723, 1.5012867512131474]], [[0.32549864542874607, -0.5748133771757803, -0.17085895000553186], [-0.3827078064887522, -0.0036338804175358895, 0.7595442695382018], [0.19666472930750267, -0.7271610200490004, -0.7508271816597264]], [[0.19651247606461708, 0.35990620253631217, 0.18017703176004762], [1.317550859216017, 0.06586992973246131, -0.3557716460560968], [1.6157901500942116, 1.0922229112979307, -1.1849461865925643]], [[-5.361869963902142, 6.637453416305611, -1.7402430788823682], [0.1750361448050183, 0.03748933703007622, 2.259186353018323], [-3.584650014144656, 4.871291060659747, 0.8563006314599856]], [[0.057938032981822214, -0.15376205032948775, 0.014224904262517274], [0.1593618982141364, 0.11368026950308383, -0.062384684119467515], [0.07017060054326757, -0.14330238863698433, -0.028889547139292943]], [[-0.08610399910171808, -0.08958132789235407, -0.12650822258920488], [-0.1553065486664211, 0.20590910903590007, -0.20630009879291966], [-0.6001506559952957, -0.3474652641331182, -0.3301131484424499]], [[-0.0960289015070575, -0.17092773316918553, 0.15445164346664217], [-0.1470761543258657, 0.40043759054906664, 0.11169531824075014], [-0.2608273323669749, 0.012199415100058696, 0.31811563591903175]]]" REF_nacs="_JSON [[[0.5131145182767903, 0.006395977922913733, 0.0762938723391417], [0.549147110321543, 0.05648408302076303, 0.00437125351172394], [-0.1716769511084241, -0.3063466107281456, 0.04656421943575344]], [[0.11069245763161141, 0.17909773502349305, -0.3840162756052832], [-0.775443740325769, 0.21576107752448187, -0.2587246718507821], [1.0757299953891366, -0.2299681820365421, 0.3535605934402995]], [[-0.08219563073665799, 0.00717268728727485, 0.02962893331735448], [-0.07680968829211757, 0.01714949461931023, 0.04811325224997665], [-0.03494481260996439, -0.007488877322939025, -0.09582603325814397]], [[-0.05093863055739873, 0.024977325530218992, 0.10428680877880986], [-0.03527422478069197, 0.03989124258873597, 0.0653188994206442], [-0.03032153888254838, -0.06878572151312219, -0.10286967669127067]], [[0.027534018648912122, -0.043277352568372035, -0.020263479484018816], [0.01371653446268433, -0.05240221710592161, 0.013291526851357526], [0.07521320691849465, 0.0502856125325932, -0.017435013935660066]], [[0.1905946425671901, -0.25998115788108284, 0.20653297679907873], [0.285801839252817, -0.3553054210060051, 0.13715068521317728], [-0.4341706240848803, 0.4444086880117817, -0.1660765776595526]], [[0.009247525106908563, 0.027566645102713307, -0.0016216064640771255], [0.006355725250807439, 0.01727393068264122, -0.0030637610338052077], [0.013667703194297363, 0.04187492477833974, 0.004387795275327523]], [[0.040814784889072316, 0.05513487415951282, 0.02546081489359197], [0.01314800521985252, 0.02712505426491001, 0.002288692231870834], [-0.00819330721542709, 0.06168597726208884, 0.0002404018711377452]], [[0.0095133686882012, 0.05864501901746246, -0.0057046284690018415], [0.003556613582335065, 0.03287662093290508, -0.009375118476595471], [0.008311586059144812, 0.0501369810808232, -0.002889536620691432]]]" REF_dip_perm="_JSON [[-0.16868945946755304, -0.019347707692414895, -0.032732313258239665], [-0.3456234145783212, 0.08107295576829351, -0.0171901898047725], [-0.019630643792897962, -0.01169344298729353, -0.006312244025420228]]" REF_dip_trans="_JSON [[-0.7791400509679229, -0.06537908817092868, 0.006269690691159132], [0.0740801574820797, -0.04645765833454743, -0.007047631250852098], [-1.2167869505331819, -0.09805098710689536, 0.010287681550356906]]" pbc="F F F"
C        0.00000000       0.00000000       0.00000000
C        1.53624634       0.00000000       0.00000000
H       -0.52078843       0.95765779       0.00000000
H        2.05179728       0.95024038      -0.13142742
C       -0.87048002      -1.22379842      -0.00000000
H        2.40978704      -1.20300050       0.16638659
H       -0.28391531      -2.13887145      -0.00000000
H       -1.52145135      -1.23484856      -0.87564365
H       -1.52139133      -1.23471640       0.87568993
9
Properties=species:S:1:pos:R:3 REF_energy="_JSON [[-3181.584800364077, -3178.2514014943845, -3177.4999925393263]]" REF_forces="_JSON [[[-3.9467956182339896, 0.7944782260968439, 0.7742636374856302], [-0.34663513448010935, -0.3741263432715328, 0.21516932521408585], [-1.8304190445243758, -0.5620145421135041, 0.19038952842780021]], [[6.35738746847338, 0.6348590563829142, 2.6102991287371102], [3.0064042343504336, 1.067077139427087, 2.6896712949435955], [3.842835202117598, 0.904748741482582, 2.534482926018975]], [[-0.2130869495690731, -0.03229216830668485, 1.6195419124124855], [-0.6904817423738641, 0.2714708882607524, -0.31608199294990225], [-0.5041377434192614, 0.2902510511960511, -2.2830522407708567]], [[0.8336300459481081, -1.4756981149749548, 0.8583285307519074], [0.8838511836356283, 0.37748037011101904, 0.30244844765713735], [1.1932305873974813, 2.3473161563240668, -0.20161737890125497]], [[-0.0003794759585099588, -0.00935691937056202, -1.643589085440979], [-0.42724794782258385, -0.2943934947538062, 0.43431484204054155], [-0.48846637634500034, -0.23337813455154843, 2.565664741061029]], [[-2.9805337673051104, 0.20243633615185078, -4.28103717389522], [-2.2374124080515165, -1.3039174202710946, -3.375734293474666], [-1.9925233187443103, -2.7961418926315273, -2.7665993230296744]], [[0.09462535514663382, -0.09858522507076449, 0.010846603854570874], [0.13273083377599942, 0.08238745810135048, 0.01709449332548641], [0.10662651998883677, 0.030368177831238196, 0.00942299615689764]], [[-0.3062892569156412, -0.200908736162658, -0.08334307625940644], [-0.09176709833601311, 0.1703359934356103, -0.15623537900674828], [0.19012747610071815, 0.36873706716732635, -0.2013127114742884]], [[0.16144219841245191, 0.18506754525432328, 0.13468952235365286], [-0.22944192069755714, 0.0036854089585846273, 0.18935326225092106], [-0.5172733025739974, -0.34988662470367377, 0.15262146251225733]]]" REF_nacs="_JSON [[[0.07558938658852579, -0.07601955460449657, 0.0844963984939872], [0.6037761564601869, 0.08650489240331719, 0.008467393918995859], [-0.4658721889704303, -0.8387697868056507, 0.43957704697452554]], [[0.35430667443339503, 0.11233098312260437, 0.04845151074259273], [-0.5793789562578863, -0.004239367481220233, 0.018621974254571724], [3.7509927328645274, 0.05786916132867587, 0.7815665391078003]], [[-0.10454879687643141, 0.023325740914028757, -0.1302248911374801], [-0.033728946194258876, 0.00856605307524012, 0.4932297537834401], [-1.028458880189114, 0.11815559808509424, -0.32525770745673893]], [[-0.11016441996987052, -0.2460188550989742, 0.05523516020844027], [-0.003469438851150936, -0.4660446852354863, 0.10368698318902304], [-0.8667634348759635, 0.10246593278650547, -0.011149868458624881]], [[-0.014969722698459396, -0.00999616201384546, 0.09005820944042899], [-0.008269610818370377, -0.03774106760156533, -0.5311416946379729], [0.11317759688322766, -0.016494559498883708, -0.02364682514174325]], [[-0.13321168733657648, 0.06455538076115905, -0.12089448916422349], [0.011065374598699586, 0.38628356555639737, -0.11369318448611383], [-1.4108255575672854, -0.30742565422278817, -0.9170467536561077]], [[0.017144440035364163, 0.025889990864718188, 0.009592110378756133], [0.0013126599391937767, 0.009081605656764483, 0.001943105053819244], [0.1513675007485923, 0.24857546410209902, 0.01471410923222542]], [[-0.03948637966457938, 0.03446764984759192, -0.024046320146812437], [-0.06738327662904235, -0.05737202910576325, 0.008079310792236597], [-0.10735832674868302, 0.2866591129453285, 0.0361292929419612]], [[0.02613330170089424, 0.029324911845932684, -0.030196673500447937], [0.07221922194347548, 0.07725682971455992, 0.011761343227494945], [-0.10736970288393852, 0.3317679089543796, -0.0020392138890362593]]]" REF_dip_perm="_JSON [[-0.19933566549485793, -0.06989083806634687, -0.09724965555308694], [-0.26929937157825345, -0.07203315776757627, -0.1031748663108118], [-0.20794241927997195, -0.06641399268145562, -0.15901258680349642]]" REF_dip_trans="_JSON [[-0.18015357323232453, 0.00606946532790316, 0.07322175108243192], [0.03182392717006315, 0.003458145463859627, 0.021661274901341097], [-0.44423404086039603, 0.014125124500873523, 0.17412985432175565]]" pbc="F F F"
C        0.00000000       0.00000000       0.00000000
C        1.32150083       0.00000000       0.00000000
H       -0.52078843       0.95765779       0.00000000
H        1.83705177      -0.24386260      -0.92777206
C       -0.87048002      -1.22379842      -0.00000000
H        2.19504153       0.30872907       1.17455569
H       -0.28391531      -2.13887145      -0.00000000
H       -1.52145135      -1.23484856      -0.87564365
H       -1.52139133      -1.23471640       0.87568993
9
Properties=species:S:1:pos:R:3 REF_energy="_JSON [[-3184.121636521085, -3176.094148117699, -3168.47134690304]]" REF_forces="_JSON [[[-4.301682484456706, -1.09011424043048, 0.12906217577270834], [-0.38428886914814, -0.8086093551943221, 0.44835726931515174], [-23.679784245854123, -1.0112371047559023, 1.643716253317301]], [[8.03519656084218, -4.311262283798243, 0.2185104841322141], [-1.8344684452887683, 4.522452944001522, -2.4105030510815877], [26.103223783770627, -3.9243584342320563, -3.817057281188317]], [[0.5904687363582488, -0.36236941187369826, 0.2120288494160983], [-2.3315971045164474, 1.4310500326037239, -0.16173144508636256], [-0.14637361903843218, -0.3769541164357696, 3.313944068768506]], [[0.6206211244761997, -0.6411215556178272, -0.19908912310793372], [-0.07108605667008296, -0.11587610233901666, 1.1180830461322064], [0.6386169092138816, -0.9841482651671046, -1.5219521494088741]], [[-0.11061716174773716, 0.4058979232462185, -0.25717919686037866], [0.49593427880938584, -0.8054250973024838, 0.5645551969120114], [1.7670547763676516, 1.5414128780983383, -2.8556347025157423]], [[-4.671941104665086, 6.296220100352871, -0.11458193409045685], [3.804692075071377, -5.577528487898362, 0.6056137984131008], [-3.5690158289301928, 5.213135970038604, 3.3305311777041267]], [[0.0629367095312951, -0.07243570201978043, -0.016431488394746518], [0.41590349211702954, 0.2064854579564721, 0.029653836442932027], [0.11959881544114827, -0.06955945634468823, -0.032449930453928195]], [[-0.14210040259003548, -0.15266313994371716, -0.1100466151649978], [0.02614166125079582, 0.58156822614973, -0.12596764518964074], [-0.9743585249002601, -0.7456342845315371, -0.4166193290512665]], [[-0.082881977749383, -0.07215168991444085, 0.13772684829764395], [-0.1212310316265533, 0.5658823820216117, -0.06806100585796852], [-0.2589620660688112, 0.3573428133292261, 0.35552189282801494]]]" REF_nacs="_JSON [[[0.3122692988516318, -0.019654333919098627, 0.009467519816226124], [0.621329091668534, -0.040981720537255795, -0.023374412667191476], [0.32972026560139683, -0.14713745322466276, -0.06850789001420286]], [[0.1968292134966632, 0.21998193632810478, -0.1891124422682406], [-0.7450175809994225, 0.2869123226162783, 0.039385590333741095], [0.391539723973447, -0.20608052220775214, 0.1132244871546106]], [[-0.01787479708611857, -0.005738755045058296, -0.16852443546681176], [-0.10034185773833482, 0.0847286763695802, -0.08186364367071611], [-0.07754665947361641, 0.06966092920385573, 0.07572016255360912]], [[-0.034874585697839994, 0.001951802793201191, 0.1293152050847722], [-0.012447407467623463, 0.01950168351463274, 0.048446371524957475], [0.007778974171774148, -0.023263384050280334, -0.18647021681927634]], [[0.03203281647702965, -0.029787859427993092, 0.10658394700366043], [-0.0011361269951557663, -0.05612809476354428, 0.07786994683041323], [0.032354145247895885, 0.014808948286957323, -0.08799344549468235]], [[0.1462291589466942, -0.24668970296249002, 0.08182635611211947], [0.2555650981865997, -0.3617202678030942, -0.053333977958856936], [-0.12659362382843928, 0.21983095776216868, 0.14386368897331336]], [[0.006601169412370044, 0.018734733620165343, 0.0015410043646505531], [0.013466886784596723, 0.010534214398849141, 0.0022833029192531927], [0.00725668350456257, 0.016361308807415858, 0.003764724806748921]], [[0.056569262270548315, 0.0758837437350717, 0.027092716482073956], [0.016267770879638283, 0.03969115272932709, 0.0021070046910866666], [0.00028989565843685314, 0.0410902458623351, 0.006990206751284799]], [[-0.015130812878431377, 0.008418167913583883, 0.004456287684858635], [-0.0014026726971370356, 0.019028177865399627, -0.01134077444093421], [0.01306833835673298, 0.034283025730697136, 0.0016482706630186457]]]" REF_dip_perm="_JSON [[-0.12883065414195843, -0.05450527675236702, -0.038166185386722395], [-0.46244125562397875, 0.2926171370338115, -0.03225763017575151], [-0.21835421794454749, -0.061371525901691176, -0.04019816209070674]]" REF_dip_trans="_JSON [[-0.6278244682014734, -0.03711075432633972, 0.029513822313960464], [0.030828892506419906, -0.0601884010835838, 0.0002030165899463816], [-0.7033162593396304, -0.07109394962748873, 0.03384924885433894]]" pbc="F F F"
C        0.00000000       0.00000000       0.00000000
C        1.29368720       0.00000000       0.00000000
H       -0.52078843       0.95765779       0.00000000
H        1.80923814       0.95817878      -0.04608021
C       -0.87048002      -1.22379842      -0.00000000
H        2.16722790      -1.21305048       0.05833736
H       -0.28391531      -2.13887145      -0.00000000
H       -1.52145135      -1.23484856      -0.87564365
H       -1.52139133      -1.23471640       0.87568993
9
Properties=species:S:1:pos:R:3 REF_energy="_JSON [[-3181.5980182948388, -3177.4070237505184, -3176.6257217273433]]" REF_forces="_JSON [[[3.6699052311685807, 0.7195671161444439, 0.5271509092209526], [7.154981704590432, -0.7432729904976811, -0.0656351708078449], [5.821318249628163, -0.20960222550603358, -0.45501191939771446]], [[-1.1326558847063095, 1.0426323106526336, 3.3941161360076477], [-4.264149567269602, 1.41496021794462, 3.012076190456345], [-4.805182608459712, 1.3232906514882967, 2.8920884112640564]], [[0.3289890884339305, -0.0957298598273934, 1.0644845882987009], [-0.3881034408020638, 0.1263952801402037, -0.3971448842373915], [0.2829272313887984, 0.17025563774684502, -1.465621538328149]], [[0.32470437616689757, -0.8643293867493858, 0.711558720353752], [0.20133427395062697, 0.4889661227859241, 0.19605288590584916], [0.8259965384599227, 1.6009953179912335, -0.17070337415798323]], [[0.5185057645921671, 0.09333272277707283, -1.1037353646825891], [0.3249715365966687, -0.1451674483746313, 0.5984903505649035], [0.19083601841521292, -0.04972440129877735, 2.0337021562324504]], [[-3.642193774168903, -0.7297241167894618, -4.641269038176556], [-2.8025976678774516, -1.7891401448508428, -3.4073342847163257], [-1.989065595686086, -2.579115369975769, -2.7776897429789913]], [[0.05502642996940084, -0.14345526469818418, 0.014860342544772906], [0.15005352977870645, 0.17319629878146198, 0.014601838662205888], [0.019518255725293154, -0.09057702563337434, -0.011588952948734587]], [[-0.22900351180176515, -0.13175709338728497, -0.10596967092494072], [-0.07922339946133242, 0.34203888579807645, -0.16003366029810315], [0.1225032825518372, 0.2066543666224841, -0.24071225047546257]], [[0.10672228034701607, 0.10946357187937183, 0.1388033773582117], [-0.2972669695050147, 0.1320237782731109, 0.20892673447090018], [-0.46885137202754557, -0.37217695143386154, 0.19553721079047226]]]" REF_nacs="_JSON [[[0.28911637233901155, -0.10287069371571514, 0.08885275378669343], [0.5195308810048002, 0.0571036367248949, -0.02244192867439495], [-0.6047209823055578, -0.7081568771164938, 0.6034857744608048]], [[0.025670384401319135, 0.16171756198987347, -0.06458624319746409], [-0.6017811943550648, -0.0405447122111476, -0.010426280872694016], [2.706962160575062, -0.0989439042217698, 0.26987994619467]], [[-0.05577147097408343, 0.012770769845466521, -0.013053302748904021], [-0.018196355560032972, 0.007095569975488392, 0.3545473110067564], [-0.6852025920661731, -0.03631631502612777, -0.6586578695690214]], [[-0.06358314167058916, -0.274494089200183, 0.08796546357075591], [0.011205137203546602, -0.2635304724907969, 0.08619825381911454], [-0.5237201536298569, 0.47097435550439953, -0.18706968968896112]], [[-0.017285877021453573, -0.013050322172691302, -0.024679910846211517], [-0.005897835736215148, -0.031082595546734246, -0.37455560033527546], [0.15972863607273494, -0.005800588197158074, 0.29637437866859934]], [[-0.04093450861185432, 0.0911696156025, -0.04192631529411049], [0.04924973194474867, 0.2641839325557354, -0.058545633659731415], [-1.0459539652318457, -0.49471035588970835, -0.3649837073663058]], [[0.012951524181224352, 0.026128729131487064, 0.010055390634157765], [1.4530118318703242e-05, 0.0051220590590535684, 0.0014175654231933594], [0.13495964317922138, 0.25978114070938485, 0.018266535006819334]], [[-0.043950181986125554, 0.024282916580539424, -0.020042488863581672], [-0.03971116371584202, -0.03704562198588041, 0.01097565714367252], [-0.00034254472514668046, 0.3166470870582472, 0.04115831918906607]], [[0.04422464750359246, 0.036429116060106716, -0.02848656061924871], [0.04447483627596577, 0.04905994743777643, 0.014443332146740588], [-0.08741134887415519, 0.2828399505091653, -0.020583665125712768]]]" REF_dip_perm="_JSON [[-0.19799489398116335, -0.07782928803795784, -0.07248702141662194], [-0.6708021455161441, -0.075793147447285, -0.03372540023344513], [0.10747407931668031, -0.0619169950578837, -0.1635533052372975]]" REF_dip_trans="_JSON [[-0.298268625963125, 0.005653860077352809, 0.048829951461422924], [0.09909157969495049, 0.0038803143904000666, 0.015910948517306272], [-0.7795327110417056, 0.00990310174799103, 0.1004246628150689]]" pbc="F F F"
C        0.00000000       0.00000000       0.00000000
C        1.54132253       0.00000000       0.00000000
H       -0.52078843       0.95765779       0.00000000
H        2.05687347      -0.32493062      -0.90257966
C       -0.87048002      -1.22379842      -0.00000000
H        2.41486323       0.41136085       1.14266222
H       -0.28391531      -2.13887145      -0.00000000
H       -1.52145135      -1.23484856      -0.87564365
H       -1.52139133      -1.23471640       0.87568993
9
Properties=species:S:1:pos:R:3 REF_energy="_JSON [[-3182.9592311453366, -3177.790087139227, -3175.323365200019]]" REF_forces="_JSON [[[-0.22393919115707456, -0.8236342865056575, 0.23808321854645917], [0.9839440698467082, -0.09498342835776351, 0.30746491606670207], [-3.5100632322437297, 0.25419920972890714, 0.8385742268537567]], [[2.9241329531501585, -1.843588056695927, 2.5866346747354143], [1.117659928654431, -2.2756388273742947, 1.3346727979438808], [5.22739148464248, -1.9915737102007216, 1.061256748730815]], [[0.2058595653430742, -0.0057225556714644915, -1.444626222545682], [-0.6780023638650632, 0.26575823780866653, 0.9927012065941708], [-0.7666200769891496, 0.24381730405399304, 3.410657294747137]], [[0.5799115169092123, 0.9201383334320647, 1.303824506156125], [0.7238425852637339, -0.675400039689537, 0.029058464461868015], [1.1227286796348848, -2.6834293615480047, -1.43696252815369]], [[-0.06844232649002549, 0.10405482439301227, 1.6015162448286204], [-0.11903725503621297, -0.20890370083386564, -0.7844573659068671], [-0.01871194194412094, -0.0829489835219905, -3.2951674395664114]], [[-3.369072965284913, 1.7417304845885748, -4.238018523391159], [-1.873736886485115, 2.6972290679714304, -1.867341294837195], [-1.7780697742112799, 4.193115324437825, -0.6572734590502262]], [[0.10204817889002034, -0.062268194972254595, -0.006333625794709936], [0.14637932191330333, 0.08165325505298963, -0.022304033443007503], [0.11823885867839043, 0.020084317279651025, -0.019053864842189495]], [[0.1488713193980694, 0.1891799506620732, -0.12253929617502132], [-0.2723742040135793, -0.02821454125164381, -0.16746036776827342], [-0.6549761074739728, -0.4255474541772943, -0.1533501974701827]], [[-0.2993690507552029, -0.2198904992305083, 0.08145902364093388], [-0.028675196274167238, 0.23849997667475406, 0.17766567688960438], [0.2600821099081249, 0.47228335394679977, 0.25131921875204866]]]" REF_nacs="_JSON [[[0.12225114481822276, -0.05994066349395921, 0.021306320902272642], [0.4931568037953636, -0.03429452491365083, -0.03278600789584268], [-0.08284038636318689, -0.24410813362051212, 0.17438868381935038]], [[0.39745505096195755, -0.13206149122730776, -0.10029008722567856], [-0.4856501523988806, 0.0116946181791944, 0.022680983114567475], [0.981109236271725, -0.200680119073252, 0.11726117505746124]], [[-0.11057832977523122, 0.01583561473614024, 0.10156400320765446], [-0.016779350638243512, 0.015987511332474398, -0.13324340785037886], [-0.2678852832267536, 0.023520258536051674, 0.03674390240056328]], [[-0.10178224986287349, 0.15584380147851123, 0.11360010042230388], [-0.00415055752823933, 0.10462527713987449, 0.06609921764691822], [-0.18522600390293462, 0.058342602108893235, 0.029706231535907613]], [[0.003225044236961749, -0.015549894792265564, -0.11638674533606175], [-0.024511731112848337, -0.02620959079066945, 0.13452872472720448], [0.06890612621770538, 0.0018740045680810595, -0.11770560494064274]], [[-0.1226376228718037, 0.014086566410140366, -0.09062445001093301], [0.030979378266978563, -0.09870626907774324, -0.050090859707228916], [-0.38162836516220383, 0.16444511829823769, -0.2542633667740828]], [[0.013291604932006514, 0.023836349502488943, -0.008158510025303992], [0.0030722524010283014, 0.009690233926467048, -0.0012689616118638882], [0.03639938075319198, 0.06132779585083637, -0.006373905773264403]], [[0.022041554963454047, 0.025409045754338767, 0.02554742124776011], [0.017683450378418477, 0.02232018118117514, -0.0032771343818943314], [-0.02140852750989426, 0.08379505242166853, 0.004225131090036261]], [[-0.02411896867973818, 0.04672805334915746, 0.017478086757793814], [-0.017321499068232105, -0.006419249778648655, -0.0020066257888932365], [-0.018500584086232036, 0.09951146650076378, -0.007264829930310245]]]" REF_dip_perm="_JSON [[-0.16445062281866762, -0.00015893347295641504, -0.06880822752733881], [-0.26950756591267805, 0.028874472241351347, -0.1179025335280098], [-0.2705901764516861, 0.027029870438349164, -0.15540041510122915]]" REF_dip_trans="_JSON [[-0.3268503475478224, -0.07459261480949857, 0.0968047192124104], [0.044898582625259045, -0.013531363063880603, 0.022681027273736616], [-0.507325706562587, -0.11419462854937631, 0.14785797168161258]]" pbc="F F F"
C        0.00000000       0.00000000       0.00000000
C        1.35403088       0.00000000       0.00000000
H       -0.52078843       0.95765779       0.00000000
H        1.86958182       0.58452224      -0.76063375
C       -0.87048002      -1.22379842      -0.00000000
H        2.22757158      -0.74000280       0.96295927
H       -0.28391531      -2.13887145      -0.00000000
H       -1.52145135      -1.23484856      -0.87564365
H       -1.52139133      -1.23471640       0.87568993
9
Properties=species:S:1:pos:R:3 REF_energy="_JSON [[-3181.2472082898707, -3174.0324872516617, -3168.1103767107584]]" REF_forces="_JSON [[[-26.973598744365045, 1.6123750340609366, 0.5662693203426667], [-26.158706031277944, -1.0839944298102726, 0.4900047307064762], [-28.196934673928517, -1.286213871208518, 1.1651471221660845]], [[29.782983991158652, 2.1955256153242773, 1.0787530126441038], [28.622125908352487, 1.1099611595863985, -0.6293223438618457], [29.062363824573463, -1.1488180376106623, -2.8371563692719564]], [[-0.5547004541542373, -0.1652671315389989, 1.0435982298860826], [-1.4095025024200585, 1.1505068332907369, -1.1598140193996367], [-2.060517469353341, 1.762211240916595, -4.262611442397586]], [[1.1970767335950205, -0.09963931991577453, 1.2443863771405734], [1.2307041351266186, 0.8289648856784532, -0.6072565135717124], [2.331445098719171, 2.5719546784396723, -2.8033953737403627]], [[-0.5719837378898189, -0.04031525741679417, -1.0939284466663441], [-1.1772789354725937, -0.3751504177692059, 1.4479290545800703], [-1.8161664973360143, -0.6767274943205897, 4.7978968744746835]], [[-2.986212215441547, -3.3819792532409654, -2.873695408995336], [-0.9525445332936275, -1.9321296604278377, 0.4100063376680783], [0.9264766826233066, -1.478150434422176, 3.962029292833423]], [[0.1434356040786065, -0.08371053602735101, 0.012129221185810564], [0.16307427476612046, 0.07657863091408477, 0.04114396902149664], [0.1867354850918892, 0.13437982606329218, 0.05906871670930281]], [[-0.1779311550253476, -0.15159688124443865, -0.05921888017595775], [0.05808994544703519, 0.3830892723402629, -0.1663181950577902], [0.4323358937460682, 0.8332621357643961, -0.25129074902147036]], [[0.14092997803862975, 0.11460772999710445, 0.08170657463825065], [-0.37596226123144116, -0.15782627380365677, 0.17362697991474177], [-0.8657383441349216, -0.7118980436212836, 0.17031192824778169]]]" REF_nacs="_JSON [[[-0.004101506469496526, -0.06216194986074671, 0.02279438695622018], [0.12723354894801647, -0.023515037903372775, -0.029909777325038685], [0.09838660938427239, -0.15636746114075092, 0.032429492531910846]], [[0.4901477838150296, 0.08157180627521878, -0.0168595641044101], [-0.06476773996807607, 0.052265297919426225, 0.09458094967828634], [0.37895218280813375, 0.07727024690494656, -0.12270985773418555]], [[-0.13886942325070312, 0.1116010436304223, -0.0914549828447482], [-0.00995130813569213, 0.012447468241039416, 0.04023756078569447], [-0.15652735005093388, 0.12462366682994028, -0.024716182285060423]], [[-0.15798508075205397, -0.11228640528318803, 0.12190097148237848], [-0.009821634674369327, -0.023720239391093113, 0.005753925951686562], [-0.18067096901184912, -0.13021463529242489, 0.1721076641984282]], [[-0.0637494098792058, 0.01298269386333864, 0.08285566747710349], [0.0012322916376280402, -0.004831871679902754, -0.04504044689464979], [-0.031235478302458177, 0.025235175203266163, 0.017942850552911494]], [[-0.23267331628779744, -0.2320945381433009, -0.20196292187109116], [-0.04024550427961822, -0.021750875596431792, -0.06911026387647966], [-0.18100857154105374, -0.13435294408264026, -0.1508915726748125]], [[0.014078583509876464, 0.009235725032695962, 0.008160143886151022], [0.00041386007671146243, 0.0026708268642680927, 0.001031919450783605], [0.011730960127822553, 0.0075393463841522314, 0.006210962708642807]], [[-0.03231814183121379, 0.011554556435340564, -0.02038355696608422], [-0.006530691027228682, -0.0011800852566939257, -0.00015959286187094428], [-0.042589640462085104, 0.00975515774780184, -0.015048710019691509]], [[0.011578356084139065, 0.013437706530043721, -0.017687122778212484], [0.0032963964682396017, 0.008868047284687921, 0.003465474903937724], [0.005806554510394175, 0.034769204593139966, -0.01140962167799956]]]" REF_dip_perm="_JSON [[-0.1517653420221752, -0.07166881768233317, -0.040947661694635394], [-0.34054347281836034, -0.37183508128238163, -0.17197476606477363], [-0.44953320688965187, -0.5224012239382709, -0.2633033747468242]]" REF_dip_trans="_JSON [[0.11367434680772205, 0.1653753497542363, 0.15941081349371966], [0.029598164800324414, 0.04713285723377147, 0.020162974136331547], [0.13154030660919724, 0.19113856768002863, 0.18566241065467298]]" pbc="F F F"
C        0.00000000       0.00000000       0.00000000
C        1.10686568       0.00000000       0.00000000
H       -0.52078843       0.95765779       0.00000000
H        1.62241662      -0.83085830      -0.47948351
C       -0.87048002      -1.22379842      -0.00000000
H        1.98040638       1.05186327       0.60702419
H       -0.28391531      -2.13887145      -0.00000000
H       -1.52145135      -1.23484856      -0.87564365
H       -1.52139133      -1.23471640       0.87568993
9
Properties=species:S:1:pos:R:3 REF_energy="_JSON [[-3178.840927464959, -3176.265076439011, -3175.4058404620346]]" REF_forces="_JSON [[[-24.30202250652528, -0.7848843873381955, 0.8455495155540858], [-21.648671286035484, -0.003217494477501931, 0.6735207346076051], [-22.600700036771705, 0.0599013202261933, 1.195790180229313]], [[26.614940638817565, -0.24617108123463738, 1.7715441262473037], [22.670464090939937, -0.26242648618810605, 1.5818328162764228], [27.144604844803418, -0.8912771078243209, 2.2746620968929387]], [[-0.644608147644846, 0.24319103366753084, -2.070636981095848], [-0.6905168064941781, 0.3030967541405422, 0.6204046963745483], [-2.022342298213095, 0.6809557715645761, 2.547419728627827]], [[1.4850928614958527, 2.028335629028415, 0.9291950409917019], [1.9339361732347777, -0.5201071606272792, 0.21624839575892882], [1.143567217633403, -2.520013870418718, -0.1276964810817747]], [[-0.8966350515680088, -0.17256879578595863, 2.2088265647125347], [-1.0464732679407598, -0.4907157340123069, -0.49986874442920814], [-1.158899409976797, -0.5791017548842704, -2.7111329128255464]], [[-2.2161310764011364, -0.9956480343221479, -3.6437767124956166], [-1.205120121558862, 0.9826905678410168, -2.646453034583205], [-2.3342835934591717, 2.8428863958975903, -3.247228559173358]], [[0.147858139045824, -0.013129969363843695, 0.010591796364316713], [0.12289426483344575, 0.04807768985586486, 0.005743119185828671], [0.22638387666880083, 0.13628768003550332, -0.008290855123331555]], [[0.19145748022458417, 0.2743403299840464, -0.13219503067680377], [-0.14468896596074426, -0.10093313235989598, -0.13600539462701447], [-0.5595798846537308, -0.23571674699359238, -0.11701652409268923]], [[-0.37995233744404977, -0.3334647246345511, 0.08090168039818285], [0.008175918982035218, 0.04353499582699247, 0.18457741143769543], [0.16124928397033986, 0.5060783123968627, 0.1934933265472739]]]" REF_nacs="_JSON [[[0.20312956075405098, 0.09338142803344272, 0.00602856102624769], [-0.4456450644316258, 0.20989616645297499, 0.11924384229651655], [0.19356571217343937, -0.6806358678864997, -0.0965342449603157]], [[-0.8941444986312195, 0.11761031826886945, -0.08803028809612758], [0.24533051282216134, -0.037101337735169354, -0.20042458912118374], [3.813070594068089, -0.6062837639225775, 1.3435109043193174]], [[0.2120419154172589, -0.06310422422602051, -0.34214116465759126], [0.012387648963146172, -0.014635871480245047, 0.5873247310498654], [-1.1736578868742729, 0.33483894331509106, -0.8554319434213942]], [[0.1857692692757807, -0.04295226923757288, -0.038063691349852394], [0.05385461965487053, -0.6648915028624509, -0.11550423320438301], [-1.1254730112409412, 0.9448662881794597, 0.2894177262627946]], [[0.024719900784026402, -0.0030500794096627285, 0.36142285779839783], [0.04383639547526307, 0.01138694955088729, -0.5970363047479149], [-0.16369784106315827, -0.020501672083311967, 0.6793825772168328]], [[0.23869740322733776, -0.08570062919974758, 0.17017878586901652], [0.08118255958952225, 0.5120077093586325, 0.20800580702202343], [-1.3771377064264334, -0.4076799776731943, -1.3373349677285715]], [[-0.017063807269694538, -0.014069996230552856, 0.009387736426629744], [-0.0063349108597695785, -0.014306222533363451, -0.00012347788759222924], [0.11760970792207777, 0.11735389511742644, -0.004926983317076852]], [[0.02388106688295698, 0.010474673253205176, -0.029120583434470687], [-0.08221562911563736, -0.08843277158303088, 0.0051876574860104715], [-0.030231976460032676, 0.2624415458504244, -0.012726826852662196]], [[0.020002286672542433, -0.06188901803955319, -0.02421462655581841], [0.09686622724724225, 0.07381981150140508, -0.00034657439084641816], [-0.2526834889889148, 0.07826734565499192, -0.017056365831827094]]]" REF_dip_perm="_JSON [[-0.20774879854895706, -0.01104616680156737, -0.14741408043270052], [-0.2280768933621775, 0.011511272944671982, -0.2716103286903668], [-0.26115897310225056, -0.06304124446377668, -0.08058578102573989]]" REF_dip_trans="_JSON [[0.010344648852934851, 0.028062191115929013, -0.10327197488131713], [-0.01997384683628868, 0.0014010951395548833, -0.03462846361983722], [-0.00462831930533131, -0.053186279019922476, 0.2172748634769266]]" pbc="F F F"
C        0.00000000       0.00000000       0.00000000
C        1.13172657       0.00000000       0.00000000
H       -0.52078843       0.95765779       0.00000000
H        1.64727751       0.18339658      -0.94159208
C       -0.87048002      -1.22379842      -0.00000000
H        2.00526727      -0.23217934       1.19205179
H       -0.28391531      -2.13887145      -0.00000000
H       -1.52145135      -1.23484856      -0.87564365
H       -1.52139133      -1.23471640       0.87568993
9
Properties=species:S:1:pos:R:3 REF_energy="_JSON [[-3183.9075220974687, -3176.2343087969475, -3171.5031328652417]]" REF_forces="_JSON [[[3.727329673554494, 1.8130138286827633, 0.05594481436266187], [3.5140189825942776, -2.240961022786995, 0.24571619532470723], [-9.171371378292005, 0.5252657030399486, 0.09999339090838397]], [[-0.22931361237026787, 4.374889092510897, 1.6077173776962745], [-3.6133896512920325, 0.04640592087420985, -3.2186393938748226], [11.232826366748636, 3.0831921711492476, -0.47701429372545795]], [[0.30777825436080153, -0.37277468388850354, 0.17809378628109435], [-0.17130605800059795, 0.595278940938519, -0.4777862890812838], [0.027918867145011562, -0.2545296049073963, -2.130032436119076]], [[0.4426845734173904, 0.4742193940353429, 0.08528435807051024], [-0.1880603578429599, 0.11050699527849496, 0.5218695594617395], [0.5010840658276879, 1.0226347136368297, -1.5465645984665688]], [[0.4273124443510192, 0.11749526006791233, -0.21029190463778458], [0.485314167073949, 0.14883743528692744, 0.8257685401593187], [1.3809541208499683, 0.9194095616431242, 2.5453672206746987]], [[-4.7476785046711525, -6.067501784959458, -1.6403537599771574], [0.4302289501496007, 0.6454109669444009, 1.8061038446966489], [-3.1966316481744976, -4.875891530242825, 1.4303209178379206]], [[0.08047567987524182, -0.1992716727231545, 0.016806016444054862], [0.06382600612556256, 0.12390655367407172, -0.02679034367994219], [0.06946299008917996, -0.13764317578927174, 0.015162194844105761]], [[-0.0922195594958528, -0.09383414626097218, -0.14548093891694858], [0.04586175550439032, 0.44970505664858146, -0.05386912802136835], [-0.0007253345887133652, 0.27384918060793906, -0.28783621770100476]], [[0.08363105097928757, -0.04623528746382068, 0.052280250677214625], [-0.5664937943131795, 0.12090915314260753, 0.3776270150154386], [-0.8435180496055049, -0.556287019138616, 0.3506038217469736]]]" REF_nacs="_JSON [[[-0.39674372783133, 0.14297177356143234, -0.1169927510437316], [0.5621170137523955, -0.17721724093879065, 0.0010734522181484148], [-0.00286203027893756, 0.026485128401383905, -0.03850213785189183]], [[-0.21854651563878097, 0.12773178494271337, 0.27168471130881655], [-0.6871659612446718, -0.19540758383136184, -0.13331058118970432], [-0.7549159724946097, -0.15023594822258576, -0.183267446545076]], [[0.025344838778065926, -0.03618324812240458, -0.009304675413767104], [-0.02567479292332562, 0.05654088685734089, 0.03210556603225555], [0.08171528013306045, -0.007896277435707092, 0.055938885134190784]], [[0.05732386033729806, 0.034989420186159234, -0.12127748968858382], [-0.026912175642206715, -0.029670786812223054, 0.05090870487225777], [0.019267181226124176, -0.03891405032566247, 0.0734551775027153]], [[0.00442373990893641, 0.00826465411802203, 0.0332123320400176], [-0.024090063550281825, -0.02933978065062557, -0.03492524690070404], [-0.0879480291843063, -0.016971289462358194, 0.013124028467985842]], [[-0.10180837630751303, -0.15410201689367545, -0.12433979147517975], [0.21452132744240826, 0.30744303388114536, 0.06805577425960267], [0.2898341271265057, 0.3329844888094853, 0.05334075496236561]], [[-0.007954988568021742, -0.025552118909133417, -0.007119420996336421], [-0.00027588175120275024, 0.017685487848847957, -0.0007223305109760571], [-0.013509337060357117, -0.035448252306625065, -0.009303158241183376]], [[0.014972086868114732, -0.0356458280623427, 0.007229134506794457], [0.0023162237652671544, 0.021778642019017233, 0.008663580095324998], [0.009214857571142196, -0.04705031888395325, 0.003316154376427257]], [[-0.04353420653992587, -0.05391112720587511, 0.029386529673730215], [-0.00531934496719988, 0.028065078448920266, 0.008686796513484012], [-0.019589283379937233, -0.05680208740517991, 0.004944443178549412]]]" REF_dip_perm="_JSON [[-0.16529797375977587, -0.06444239233445442, -0.03171424296290324], [-0.3452278453429144, -0.2846016551584634, -0.044994959555850124], [-0.13998778852377414, -0.09188240561162009, -0.023490566753130524]]" REF_dip_trans="_JSON [[0.6867432493294472, -0.01512431198851211, -0.008870096555698708], [0.06000593178536881, 0.07418409317800655, 0.004481620608515006], [0.9514696999829475, -0.025652694661524318, -0.012616439956049686]]" pbc="F F F"
C        0.00000000       0.00000000       0.00000000
C        1.44492764       0.00000000       0.00000000
H       -0.52078843       0.95765779       0.00000000
H        1.96047858      -0.93985173      -0.19211633
C       -0.87048002      -1.22379842      -0.00000000
H        2.31846834       1.18984850       0.24321850
H       -0.28391531      -2.13887145      -0.00000000
H       -1.52145135      -1.23484856      -0.87564365
H       -1.52139133      -1.23471640       0.87568993
9
Properties=species:S:1:pos:R:3 REF_energy="_JSON [[-3182.9000303260154, -3176.8658926857606, -3174.349645207647]]" REF_forces="_JSON [[[5.400816533121168, -0.7740426206649366, 0.16747926816079012], [5.61112024897358, -0.010537246176950675, -0.0657442694831372], [0.20888728364941206, 0.14651719523502138, 0.41153217651492857]], [[-2.5023614067049955, -2.6902659159582583, 2.728683379461511], [-4.084995138653178, -3.0475857857954183, 0.45943498674439837], [1.2917194133429157, -2.8582659705141276, 0.9497220468343016]], [[0.5917567265009603, -0.023690423938311656, -0.96649125664263], [-0.35212825760344507, 0.15760656643876578, 1.123218658117962], [-0.17654323799419686, 0.07729210959298904, 2.7986453297433798]], [[0.2526366611752602, 0.2688816811507472, 0.9347173074270378], [0.21167595562541724, -0.4972412755235064, 0.04384979669435531], [0.5878018874116666, -1.8186351060125387, -1.369561441424414]], [[0.2696694776967816, 0.14675885185519202, 1.0075491315082492], [0.6108328757619882, 0.03787481038280624, -0.5739759090128856], [0.7271167233700233, 0.2876037758624689, -2.487134687746074]], [[-3.955364413742532, 3.205472186789124, -3.852197576832142], [-1.815653297182645, 2.969095883047511, -0.8998281651231279], [-2.236852537472578, 4.234783172764329, -0.32636250654341264]], [[0.07001484759915606, -0.09323179435679993, -0.0017548330347458621], [0.1475710217829194, 0.07307154912995238, -0.0466478317956628], [0.09418925985569218, -0.03777281959247272, -0.025835403670936837]], [[0.08496643026341555, 0.10447693487793719, -0.12368518220682127], [-0.26582807758295574, 0.06699101464766727, -0.20286182156712573], [-0.609968012279686, -0.34364898091717744, -0.2122867993042248]], [[-0.21213485591238557, -0.1443588997523217, 0.10569976215934106], [-0.06259533112113945, 0.25072448385054763, 0.1625545554258972], [0.11364922011788951, 0.31212662357935544, 0.2612812855968687]]]" REF_nacs="_JSON [[[0.25171235569325295, -0.021349167424591396, 0.043036774638092405], [0.5142514080149803, -0.010801762113968083, -0.0397179077705427], [-0.11188699609928063, -0.3197182506096411, 0.205436921751436]], [[0.2735817086671011, -0.09141997864308944, -0.22561214141030675], [-0.5798155063827185, 0.02030702953412631, -0.04425352405925955], [0.945523875215132, -0.08067664074418848, 0.11853183131458794]], [[-0.08717005746656349, 0.0024367746775557776, 0.06536838107990726], [-0.02669559044466867, 0.017043856081740222, -0.0830302557660114], [-0.20095412162940046, -0.007941327771214321, 0.030653460595080836]], [[-0.06984626057065307, 0.11168552360328425, 0.12611380836173886], [-0.005357721262040851, 0.06589069932072739, 0.06479259505710831], [-0.11907247980910862, -0.02530613671084467, -0.03747110374474828]], [[0.01856725028080036, -0.019117816571819084, -0.07459024682926679], [-0.013856349960670018, -0.02525946635120846, 0.10370578369584778], [0.07561763498253442, 0.003199270338063065, -0.12952526993819427]], [[-0.03317476945066606, -0.009324463806367518, 0.019254396674946713], [0.0859955417709944, -0.10476328033269848, 0.00893264421665445], [-0.382258154271763, 0.20575052217469153, -0.18470756218091341]], [[0.011036360822719435, 0.02339392135683289, -0.0067766722917200145], [0.004306328527792353, 0.01037479690187643, -0.0028190483591072346], [0.03469673340498801, 0.072655749250809, -0.004715040881121705]], [[0.032493972166181086, 0.031044213336273864, 0.027590712653895132], [0.014445109267776654, 0.021998981415494574, -0.002715934276820773], [-0.01801713837741991, 0.08795371931301704, 0.005194457804872966]], [[-0.015473403896516193, 0.05002388764488435, 0.013260671149405694], [-0.011108689235290035, 0.0015940453673879127, -0.0043171210040345645], [0.006401893597467055, 0.1107125537807197, -0.010843132513780301]]]" REF_dip_perm="_JSON [[-0.17343004446240173, -0.011881234276944543, -0.049583562686568876], [-0.3438954016025968, 0.03285306597220594, -0.08011109794325175], [-0.2028895427834863, 0.05398062702961697, -0.11009940987377484]]" REF_dip_trans="_JSON [[-0.5307090886282977, -0.07542866770541769, 0.056712807498777336], [0.07126200202177911, -0.02621233337611933, 0.018070779587108714], [-0.8863633502755206, -0.11997611235839194, 0.09047726210816767]]" pbc="F F F"
C        0.00000000       0.00000000       0.00000000
C        1.51657292       0.00000000       0.00000000
H       -0.52078843       0.95765779       0.00000000
H        2.03212386       0.73298059      -0.61884522
C       -0.87048002      -1.22379842      -0.00000000
H        2.39011362      -0.92795048       0.78345556
H       -0.28391531      -2.13887145      -0.00000000
H       -1.52145135      -1.23484856      -0.87564365
H       -1.52139133      -1.23471640       0.87568993
9
Properties=species:S:1:pos:R:3 REF_energy="_JSON [[-3181.397702220848, -3177.2045571606905, -3175.0772156279786]]" REF_forces="_JSON [[[-13.03008328784351, 1.122477596548225, 0.8876279258558016], [-11.143248593317848, -0.3531448050331298, 0.3646111305028604], [-13.984815214753386, -0.8959878479193218, 0.5280575090734594]], [[15.591645741806337, 1.1798294657994226, 2.0726535453231967], [13.562879742804801, 1.6507076640016276, 1.7801204940698772], [16.303899375731348, 1.2755195571177156, 1.4580615032506328]], [[-0.500243840259861, 0.0008069598290496743, 2.0102767694925445], [-0.9315494659134931, 0.40840668233960337, -0.6702444582515515], [-1.161865049347368, 0.5790718692052815, -3.535589733359198]], [[1.0765038390656312, -1.6624594948664235, 1.354607438552527], [1.2676045639708828, 0.6681380139002957, 0.09313919611976004], [1.577806316017405, 3.292715521148738, -1.1791127128641314]], [[-0.341709761172819, -0.12286636587904519, -2.0891183566460922], [-0.868242935520418, -0.38001455731358685, 0.8165067687450734], [-1.007776916694781, -0.34994060400168636, 3.8229318812276296]], [[-2.8142278768032294, -0.44510747164948816, -4.306913853871448], [-1.743761527388848, -2.132618513056806, -2.439832422710829], [-1.4917669636964785, -4.023160120327385, -1.0573752258612714]], [[0.12132511124529863, -0.07423452149865141, 0.01194695452910094], [0.14234717977177253, 0.06117066823837423, 0.027543398085942784], [0.15456124626921156, 0.07147493850699195, 0.029774932666500605]], [[-0.3431519128355594, -0.25529566978381096, -0.06623009269548821], [-0.019849346807365168, 0.19064891151310506, -0.1558273769920411], [0.3230910808906813, 0.5788587735949995, -0.21272975741604794]], [[0.23994198679663606, 0.2568495015021781, 0.1251496694607119], [-0.2661796176017208, -0.1132940645914316, 0.1839832704311869], [-0.7131338744197354, -0.5285520873274202, 0.14598160328321347]]]" REF_nacs="_JSON [[[0.0007271744704785512, -0.07680647047585412, 0.05537690947935573], [0.4208671315566534, 0.014333078357609733, -0.018758537762590274], [-0.015586763820695645, -0.2916997149743707, 0.07910475567236631]], [[0.609512933079551, 0.08764019907352141, 0.07427042015780702], [-0.35245246128201513, 0.019892259720340234, 0.06543439230824188], [1.3898859766320644, 0.2012208130466511, 0.3053526619714077]], [[-0.15361853276094306, 0.05431031082055879, -0.15104268981782004], [-0.02351373262206698, 0.010189526112448562, 0.18467163450900922], [-0.4036944950146293, 0.10729233540521967, -0.04342875806583258]], [[-0.16323783607689246, -0.18442381928296886, 0.09134409589487828], [-0.015182023090385603, -0.17529165097665553, 0.07025043983236827], [-0.3618170044250445, -0.18096245215735673, 0.1162169924456684]], [[-0.033173265835404836, -0.004780834064970521, 0.11754373730782094], [-0.011957620927582183, -0.022378649239610294, -0.2008270125188431], [-0.00206596292308124, 0.009858668740466462, -0.06341180564126073]], [[-0.20266058397365908, -0.009656705612096054, -0.19505632566924833], [-0.017486535314451414, 0.12904261318773302, -0.11008747860141738], [-0.5221266562612693, -0.1050149458675931, -0.434055671835298]], [[0.018953423663730113, 0.02175216262373683, 0.00883233981871393], [0.0019121911637078777, 0.008076887437723742, 0.001400767158867618], [0.044857636550866234, 0.05676269378471506, 0.008533370289737201]], [[-0.03600410501917175, 0.03351917350400561, -0.02017579592317771], [-0.02723874212313655, -0.018949462299362466, 0.0013505887042303117], [-0.07247268382258377, 0.062325266639045265, 0.003131426385216614]], [[0.012249837630523671, 0.026604610711406913, -0.024543639419114416], [0.026564702229481364, 0.03359852130862754, 0.005318978007745895], [-0.022107491508543964, 0.10594484503120162, -0.00016852620513079557]]]" REF_dip_perm="_JSON [[-0.17620319299693776, -0.07715265645107781, -0.0835025836510289], [-0.23396879302639442, -0.11829602082007236, -0.15355581329822698], [-0.29263795646725393, -0.12222048402397655, -0.17025716280577044]]" REF_dip_trans="_JSON [[-0.11118694456687182, 0.033781897666111255, 0.12232252697338605], [0.025497633514835544, 0.01723100287115885, 0.02880499325048612], [-0.16487507196949577, 0.05285460593172701, 0.18767159862539992]]" pbc="F F F"
C        0.00000000       0.00000000       0.00000000
C        1.20267916       0.00000000       0.00000000
H       -0.52078843       0.95765779       0.00000000
H        1.71823010      -0.44048258      -0.85217666
C       -0.87048002      -1.22379842      -0.00000000
H        2.07621986       0.55764917       1.07885222
H       -0.28391531      -2.13887145      -0.00000000
H       -1.52145135      -1.23484856      -0.87564365
H       -1.52139133      -1.23471640       0.87568993
9
Properties=species:S:1:pos:R:3 REF_energy="_JSON [[-3182.3607904525866, -3177.565844637733, -3175.0200347098425]]" REF_forces="_JSON [[[-7.397267511978861, -0.9352686047827908, 0.36329864561574365], [-5.985585417442607, -0.12985387127520015, 0.4773886999777435], [-9.784241181034794, 0.26565679362691347, 1.1457402275552266]], [[10.04794214370949, -1.4325045577980502, 2.345907104532634], [8.2988444892402, -1.8991498901030313, 1.4065422209760672], [11.7254777702312, -1.65027747055723, 0.7658929633485944]], [[-0.052027413204360905, 0.03448428177714128, -1.7403104722030256], [-0.9279081470089934, 0.3606384527653578, 0.961380337909135], [-1.2119971371946465, 0.42308269804906445, 3.732317311535102]], [[0.8564784935102521, 1.2620192998407167, 1.4412203341210998], [1.0290673106527954, -0.7075157723685563, 0.036768716785549986], [1.4444296583705478, -3.066085531395763, -1.4708242508825171]], [[-0.36906372993319253, 0.03734011464423837, 1.8950007775570181], [-0.5499428223604755, -0.354011750004437, -0.8310776441048939], [-0.4901049589299903, -0.3155505825403078, -3.6859868601687875]], [[-3.0488354137888267, 1.1145681476774651, -4.253976359194044], [-1.7465762940393075, 2.4824327295367024, -2.064621968894061], [-1.4723683794934295, 4.192941676007787, -0.5791014900210145]], [[0.12302498089261575, -0.04066036034985386, -0.0028108402537853298], [0.15553785000682527, 0.08878624143313958, -0.01566193651934305], [0.14106594655407936, 0.05557425929393254, -0.021703341115082486]], [[0.1773715256781638, 0.22630378978861615, -0.12245271450683044], [-0.25871154834729576, -0.06537354513504098, -0.15128908151325834], [-0.6752068177916024, -0.4649392298188174, -0.13038886520126652]], [[-0.33762307488155496, -0.2662821107998096, 0.07412352433028119], [-0.014725420700617635, 0.22404740515151395, 0.18057065538429778], [0.3229450992903737, 0.5595973873354607, 0.24405430494941957]]]" REF_nacs="_JSON [[[0.04845374969079201, -0.07879603132644611, 0.004668485170144886], [0.43177162907467687, -0.03981130508783428, -0.03619829506600447], [-0.018465924075026004, -0.19484874627780033, 0.12125742328739361]], [[0.5160779464658749, -0.14495491907698113, -0.03055271953221043], [-0.3863991874040177, 0.004107271153835011, 0.060634411456751365], [1.0453568287323651, -0.28847964473716153, 0.16187487557862798]], [[-0.13820258475129835, 0.03211561278126225, 0.11744842226904112], [-0.01394025123818993, 0.012761209833625345, -0.14320498822724267], [-0.31985253432808264, 0.05956795817664376, 0.008199534497765608]], [[-0.13309417650527963, 0.1707013989956057, 0.11090074462253938], [-0.009772719564386075, 0.12007777749374676, 0.06256881081248629], [-0.2477701782290624, 0.13088489552584892, 0.08219349992881028]], [[-0.011123342212423004, -0.010074198040733978, -0.13162251895388014], [-0.024549170954359822, -0.023271614531205728, 0.14002632507291235], [0.03730811075640134, 0.0029329787983521736, -0.07949359445883382]], [[-0.17396346797535336, 0.02133090620179648, -0.15278377704904245], [0.0022431565090377113, -0.09510616966345004, -0.07956719348286284], [-0.39874116920420916, 0.1374304801593688, -0.3204112253527735]], [[0.014220263597838293, 0.020918969608706928, -0.008593252460424989], [0.0029529666302507925, 0.00897252305573381, -0.0007308400198366183], [0.03513083992478793, 0.04749409362572677, -0.007330971215402128]], [[0.014772925770116189, 0.02216970575318107, 0.023440846327922524], [0.018260739681633786, 0.022309173844429864, -0.0031901675778428216], [-0.02074193941487265, 0.07635019823941099, 0.003929945419769901]], [[-0.029852439506926166, 0.041489124998540704, 0.018006838809787016], [-0.01959467912434686, -0.009359955289941723, -0.0007829948018915275], [-0.03903980113798826, 0.07975920470646682, -0.0037028231767663724]]]" REF_dip_perm="_JSON [[-0.1625144155085186, 0.007131072342712281, -0.08339224065378385], [-0.24781371626563203, 0.03307999779672879, -0.14562152721330449], [-0.3041927420278207, 0.01309354988629914, -0.17495402699039]]" REF_dip_trans="_JSON [[-0.1898022592248118, -0.07828659400815541, 0.12333386876195004], [0.03369134454433325, -0.010064567050199763, 0.02422282031991659], [-0.276940072344198, -0.11510014495019454, 0.1816350995560187]]" pbc="F F F"
C        0.00000000       0.00000000       0.00000000
C        1.25300826       0.00000000       0.00000000
H       -0.52078843       0.95765779       0.00000000
H        1.76855920       0.52847940      -0.80058696
C       -0.87048002      -1.22379842      -0.00000000
H        2.12654896      -0.66905279       1.01353987
H       -0.28391531      -2.13887145      -0.00000000
H       -1.52145135      -1.23484856      -0.87564365
H       -1.52139133      -1.23471640       0.87568993
9
Properties=species:S:1:pos:R:3 REF_energy="_JSON [[-3184.0916003210773, -3176.4868277381147, -3171.6006943917823]]" REF_forces="_JSON [[[2.247305314553228, -1.0664255167458339, 0.039709355441549875], [1.082979267416267, 0.16399365980873126, 0.5391974514789171], [-9.569813038487437, -0.39989434109546945, 0.911647915744616]], [[1.0537392893619058, -3.546294240554956, 1.6602821553551248], [-0.7369113688378298, -1.4977951479154548, -2.6583286732708387], [11.281147504178483, -3.0817054729359676, -0.9819577588780418]], [[0.5745323079322611, -0.11733050760832045, -0.47206528806880155], [-0.9913187908940893, 0.32100149931872574, 1.3592843477515024], [-0.38591623184420215, 0.010588071188265056, 3.2744331274516503]], [[0.4463344023194825, -0.3913234859091079, 0.44263194968348596], [0.06643236850350398, -0.3711951587529656, 0.12108868982693716], [0.7434239694992606, -1.391328393304481, -2.0662932661206312]], [[-0.022253736906183742, 0.24797079693556295, 0.4532230281662501], [0.763378627120386, -0.07708702657331637, -0.824569190251468], [0.9466124006148754, 0.7057727992488128, -2.9260614344257716]], [[-4.250492954037292, 5.081179311879613, -2.1194517831792945], [-0.06451853884862511, 0.852449537015352, 1.5406379131437828], [-2.385398058045465, 4.364606357233819, 1.8120698031988713]], [[0.0906694848422992, -0.08416525379564858, -0.009628019781523403], [0.19066265933220292, 0.092524224648698, -0.019539769026888577], [0.11459625698879121, -0.043413009053292685, -0.04695099791332587]], [[-0.006701685771584515, 0.002514227472378668, -0.10517483180333488], [-0.25137032777164414, 0.06902450459702934, -0.1767982077964029], [-0.7773835703058664, -0.5369153807002577, -0.2717893506291835]], [[-0.13313242229678887, -0.1261253316743293, 0.11047343418695312], [-0.05933389601982877, 0.44708390785324836, 0.11902743814338734], [0.032730767402175495, 0.37228936941678714, 0.294901961571429]]]" REF_nacs="_JSON [[[0.26292124555398216, -0.02238253589591038, 0.03969386641004204], [0.4794638735101679, 0.012631692872823494, -0.006057219642725431], [0.11300903311147538, -0.1965952692754238, 0.04087499543884174]], [[0.3455776159787987, 0.031859620631380245, -0.24408407390682857], [-0.5576617723242907, 0.10052090357451539, -0.0792787362097589], [0.552915890191086, -0.11693958987478967, 0.07814631011216809]], [[-0.07067835232832917, 0.010305918713049526, 0.013891941267110486], [-0.055743430973687356, 0.02788032984641142, -0.021529181222409148], [-0.08351333576806878, 0.025193663168955584, 0.028157955588069234]], [[-0.07043837263757871, 0.05166732100194382, 0.13893998969143892], [-0.013971858668461234, 0.025233551572361148, 0.03651335319322382], [-0.023022663507992862, -0.008755712573879491, -0.016179342977828182]], [[0.030155654978195494, -0.020209856699758576, -0.03949945680769885], [0.00015628258921266308, -0.03649950992144347, 0.030794547887326], [0.04967896980886696, 0.013665505851419915, -0.06228928354770085]], [[0.005036100622355485, -0.043858924071810905, 0.048089335926439374], [0.14219557873094626, -0.17469622650692002, 0.04328957945443636], [-0.22391771047666428, 0.24007735089303356, -0.074759257877832]], [[0.007643627582610971, 0.019264202175695643, -0.0032377858953943485], [0.005050274226079875, 0.009770734379759019, -0.00029980093692688674], [0.007869847870965637, 0.028083985771215268, -0.0013163020067708828]], [[0.037243681927228836, 0.043570696437590255, 0.02720065160841725], [0.008877537103072219, 0.0183379958096505, 0.0010008711682753546], [-9.577073235351428e-05, 0.05341227427456062, 0.0025570551493912163]], [[-0.010054870533463583, 0.04088409491045725, 0.010042199814614643], [-0.0017468597707994578, 0.018189034448737113, -0.004543821565822395], [0.00509332521597658, 0.04414183835348921, -0.0018306146017480008]]]" REF_dip_perm="_JSON [[-0.14474711100872106, -0.021806274587635302, -0.03581775329441261], [-0.35355561871989943, 0.138946816851651, -0.08001532854941643], [-0.24431605144729832, 0.047957564934712545, -0.06538759461274221]]" REF_dip_trans="_JSON [[-0.5751066650034681, -0.11271548299395248, 0.04720801426211445], [0.0623956600842248, -0.0492445040197483, 0.013574664417913457], [-0.7724337511360427, -0.1548949792237031, 0.06447182125189792]]" pbc="F F F"
C        0.00000000       0.00000000       0.00000000
C        1.39109442       0.00000000       0.00000000
H       -0.52078843       0.95765779       0.00000000
H        1.90664536       0.91441719      -0.28995027
C       -0.87048002      -1.22379842      -0.00000000
H        2.26463512      -1.15764848       0.36707588
H       -0.28391531      -2.13887145      -0.00000000
H       -1.52145135      -1.23484856      -0.87564365
H       -1.52139133      -1.23471640       0.87568993
9
Properties=species:S:1:pos:R:3 REF_energy="_JSON [[-3179.4525613261085, -3177.2054994909886, -3176.7842851948462]]" REF_forces="_JSON [[[-18.476529639387728, 0.46239005367079544, 1.1144512711982746], [-14.575723295563348, 0.15782537905543934, 0.4509952160477285], [-15.115527352708279, -0.9833062570224014, 0.6664801923740821]], [[20.723547968958627, 0.1170366121404173, 1.7552287714494605], [14.587903235010614, 0.49505927220784063, 1.6189965078117208], [20.55979205756684, 0.35803421283462133, 3.225868506991471]], [[-0.7054276474448238, 0.16813773145332012, 1.1438983674928], [-0.21924730284212712, 0.19775866584270088, -0.2675989689372533], [-1.8958106070038798, 0.6415717917361202, -1.214137186386973]], [[1.3770605906442486, -1.1026696871146953, 0.5901547047918682], [2.0858544487362516, 0.35780580118664596, 0.27304755082514676], [0.7088144611797375, 1.2074658305846744, 0.299139839715445]], [[-0.577833840093299, -0.15805157811886836, -1.126276909430436], [-0.9018704851154303, -0.4199217868746787, 0.496714900087382], [-1.0889364952397256, -0.4642123738886016, 1.1221333463534093]], [[-2.2997937542260956, 0.6016100254543704, -3.519677429590427], [-0.9617375610659992, -0.570538640392909, -2.5930554000270525], [-2.9327921030891053, -1.3131209011212388, -4.119975294355215]], [[0.12879643308333436, -0.05366560653088183, 0.004940523880974004], [0.07064347499637848, -0.021349883818344496, 0.014221624621818543], [0.24881230545109428, 0.18611874960860367, 0.018145296312695073]], [[-0.24253678534220174, -0.15032809069299463, -0.08768188620243932], [0.012656379484472161, -0.010535724999356144, -0.16251004308732875], [-0.0880379127191272, 0.3401432415810171, -0.15376176691534163]], [[0.07271667380194827, 0.11554053973752995, 0.1249625864088694], [-0.09847889363456369, -0.18610308220719893, 0.1691886126586034], [-0.39631435344029015, 0.027305705685993897, 0.15610706591168208]]]" REF_nacs="_JSON [[[-0.1981667862437583, -0.1331766333952697, 0.028823495470184982], [-0.32429091644988345, -0.26377892634490924, -0.08476337201752722], [0.0549076680006106, 0.783905144974144, -0.12836411938109699]], [[0.5239482525177519, 0.048234208795231125, 0.09875122283782231], [0.15986326403505513, 0.03845246467762192, -0.06002831778107048], [-6.17022939338873, 0.12877516503085887, -1.8413627542137176]], [[-0.07872546947116305, 0.032287870683397474, -0.6941720057216887], [0.08392167548367381, -0.0025026009317070186, -0.9351109453657689], [1.8737585849002771, -0.4214848557496429, -1.0123706036325824]], [[-0.09414719406800709, 0.29199985937138423, -0.01464379676234618], [0.045075806234214255, 1.115157198657704, -0.06596406354727227], [1.752427232142279, 1.2144452436870756, -0.24637519353976056]], [[-0.029612608809101004, 0.008588842379430318, 0.6901441322241226], [-0.018962153518121003, 0.033335866007767924, 0.9979338728560982], [0.10939923857349074, 0.048151240345378536, 1.4205906732053626]], [[-0.10971025049779382, -0.325753012653062, -0.05579869000681719], [0.05923939351849524, -0.8648873349427878, 0.1608254264993368], [2.1558649153366503, -0.8612828697732717, 1.8690132442032386]], [[0.012303168330173586, 0.010292158085257257, 0.008779089437885482], [-0.004561004982625135, -0.00755860345477886, -0.0021814758154287], [-0.1959142710811119, -0.23272192150357118, -0.00410130745345782]], [[0.035695977404530406, 0.09252458025170025, -0.03367795766337213], [0.15080628220137943, 0.12304386608217747, -0.0023931808697432873], [0.39069800971512997, -0.11872071124693459, -0.0340695131068806]], [[-0.05676917758110974, -0.06663783264836187, -0.03785045406651272], [-0.15316821041915177, -0.15331332617581592, -0.004160551793809072], [0.028006688254678006, -0.5317169213261247, -0.020794820388925713]]]" REF_dip_perm="_JSON [[-0.22210171596419076, -0.053934824276043555, -0.14038127581583665], [-0.1377184702785457, -0.04572988555636905, -0.3206609138808086], [-0.3265528135450255, -0.0711566596196486, -0.030102818814456637]]" REF_dip_trans="_JSON [[-0.027447253382830075, -0.0015047636062821646, 0.04014729587675018], [0.000494006215099848, 0.0019584871052999208, -0.031407227686876794], [0.08295596110815888, 0.007371516702628307, -0.1661986981636842]]" pbc="F F F"
C        0.00000000       0.00000000       0.00000000
C        1.17519200       0.00000000       0.00000000
H       -0.52078843       0.95765779       0.00000000
H        1.69074294      -0.07972083      -0.95596786
C       -0.87048002      -1.22379842      -0.00000000
H        2.04873270       0.10092625       1.21025146
H       -0.28391531      -2.13887145      -0.00000000
H       -1.52145135      -1.23484856      -0.87564365
H       -1.52139133      -1.23471640       0.87568993
9
Properties=species:S:1:pos:R:3 REF_energy="_JSON [[-3180.7653098817555, -3173.022410942764, -3166.5166129062713]]" REF_forces="_JSON [[[-31.67676915993883, -1.4964612986904466, 0.3509326917973028], [-31.224232020815496, -0.6245713479303724, 0.9265978345767621], [-32.28573437828802, -0.8805102105316374, 2.330904554898971]], [[34.530406228135, -1.6887738311954485, 0.867778557235634], [33.56963377412167, -1.3456053101706253, -0.9951730560537804], [32.44196293330551, 1.503411629020669, -4.490587665069648]], [[-0.28163412997251, -0.11977048840840318, -0.8878229757866805], [-1.9558046186241216, 1.0138048317254786, 1.6705686123414458], [-2.7106674497188212, 1.6710127883757346, 4.835780911988893]], [[1.2315290248711575, -0.1978895036376765, 1.1611301359058555], [1.211057653664054, -0.7417056663148727, -0.8452021381869483], [2.3713864496690835, -2.111068907244738, -2.878148525910376]], [[-0.885856935568976, 0.03921720732198306, 0.9587776475948283], [-1.1049012972348125, -0.8097077475324538, -1.691762977825998], [-1.6764219586822875, -1.2606255609980679, -4.633327106987702]], [[-2.9505714073891705, 3.5430263176990717, -2.411379967284632], [-0.5675074823397505, 1.990969056820716, 0.7848338220078297], [1.8586085486949846, 0.6474702330905447, 4.672516334435398]], [[0.1610086738286223, 0.002017933801930954, -0.007681327416000268], [0.2592650431280765, 0.1524160794542072, 0.006658954602221413], [0.20451958315888275, 0.15573737587649678, -0.024248490855424416]], [[0.05991785029678572, 0.08528904971415849, -0.0941030392274404], [-0.25086129392695344, -0.1325203349951305, -0.06610547808044936], [-0.6265408960296681, -0.6003372830027335, -0.08801152360258124]], [[-0.1880301442660118, -0.16665538660916215, 0.06236827718162287], [0.06335024202598233, 0.4969204389423357, 0.2095844266192376], [0.42288716789239744, 0.8749099354110564, 0.2751215111010947]]]" REF_nacs="_JSON [[[-0.03603093721984432, -0.03792904338684794, -0.03743247289343646], [-0.08423637852176923, 0.006005663267952488, 0.02343728814616656], [-0.0702575178786774, -0.028509309375552055, -0.0003025543396824561]], [[0.47972201281994736, -0.12987989196126884, -0.059041182412401035], [0.006930642768611782, 0.09025224759953149, -0.11858223331102895], [-0.33056882288914086, 0.12378268653185165, 0.16174909608968704]], [[-0.15337237556948352, 0.09053863583150848, 0.0796616187493868], [0.011948817845530773, -0.010626797947375538, 0.03419348220363346], [0.18696433167549245, -0.08824441260333164, -0.0033718800177859045]], [[-0.15139072048665755, 0.07614797628578117, 0.1308560751018795], [0.008793691566847587, -0.023187545904411126, 0.008017535185196437], [0.1840884650797436, -0.09125714498850993, -0.18647616040584017]], [[-0.045325040489736845, 0.0013488169572897339, -0.08410130025380065], [0.002616240641912595, 0.005525991724711762, -0.020385692305264446], [-0.004411452453739007, 0.004479616907457897, 0.027751611034733333]], [[-0.26013073865313585, 0.25946812278844206, -0.1947230305289983], [0.05074204698206683, -0.054334374220333, 0.07194699487751981], [0.1683997387629112, -0.1260039153954289, 0.14484835618903663]], [[-0.0025688094326548937, 0.0007267690206634404, -0.009061517506635298], [-0.003951259611553844, -0.0032822844774434124, -0.0001622138122944319], [0.0044413835087269635, 0.005328103666438689, 0.005739231955476644]], [[0.008448195782739793, 0.012529785934832494, 0.012291058310246251], [-0.0002244398597627297, -0.003440515618650349, 0.001267316708203741], [-0.011089254192671094, -0.03598188028070074, -0.011912356987829205]], [[-0.028495332025886867, 0.000431043532638828, 0.017159744092754694], [0.00504020046114047, -0.0035295918872812206, -0.0015191514228750232], [0.03578979976295113, 0.0002958380807634768, -0.013320007364336726]]]" REF_dip_perm="_JSON [[-0.14181365283667807, 0.025720328074818267, -0.05747620990460643], [-0.3687329856994547, 0.16913707728656596, -0.1737777290008909], [-0.5109505355449165, 0.217792093241601, -0.2831026559506061]]" REF_dip_trans="_JSON [[0.18834482475198297, -0.2731549476627937, 0.17951707359168623], [-0.03185533362583923, 0.018876310917383267, -0.015649969800201655], [-0.21467987421739662, 0.3140365060768655, -0.20606518885245245]]" pbc="F F F"
C        0.00000000       0.00000000       0.00000000
C        1.08429726       0.00000000       0.00000000
H       -0.52078843       0.95765779       0.00000000
H        1.59984820       0.86816681      -0.40806413
C       -0.87048002      -1.22379842      -0.00000000
H        1.95783796      -1.09909569       0.51660755
H       -0.28391531      -2.13887145      -0.00000000
H       -1.52145135      -1.23484856      -0.87564365
H       -1.52139133      -1.23471640       0.87568993
9
Properties=species:S:1:pos:R:3 REF_energy="_JSON [[-3183.158306924352, -3177.6171111611166, -3174.837858017889]]" REF_forces="_JSON [[[0.5409420545934028, 1.1272541914439185, 0.5173889054424347], [1.5596143908439368, -0.6404078378449264, 0.022893987172927698], [-3.520150322223766, -0.5157332198815239, 0.11835086630182089]], [[2.1768565973475424, 2.1126425938393663, 2.4108987307761733], [0.5036332587475103, 2.3592429636248777, 1.1804902011327663], [5.235583739404828, 1.8748111262137244, 1.411158481036461]], [[0.015705393096664088, -0.13002744949633102, 1.3387005119258775], [-0.5140432503437359, 0.27625919595025555, -0.803737726307272], [-0.5241607440890245, 0.26038564986034546, -3.163783719844063]], [[0.561413545360782, -0.7416054942410163, 1.2291039961547363], [0.7107348793952073, 0.7286495364771833, -0.07084389371002288], [1.1214978779282776, 2.6204409375558173, -1.6758387398745769]], [[0.16612323188008726, 0.00800856239338291, -1.417614867680792], [-0.17547425757153062, -0.15453611099060988, 1.0797449047004766], [-0.1464324940023523, 0.010931547932526774, 3.6330764817100816]], [[-3.4874647850850664, -2.2671376963052428, -4.1298268909750515], [-1.8204557139632873, -2.807929062722208, -1.4907780453822308], [-1.7763927961731802, -4.234943762014276, -0.28746224841709567]], [[0.08915015541877039, -0.12092503154613984, 0.01732113721027661], [0.10955091184266523, 0.05861079404194437, 0.02133884707720251], [0.0977747538857101, 0.008921064602762341, 0.013886665343969207]], [[-0.2437910420688365, -0.15781991947737423, -0.0788393672138134], [0.006050604441792923, 0.28435680766615173, -0.16387322768861284], [0.2809758792772355, 0.5181801935163204, -0.2433335941263294]], [[0.1810648494568133, 0.16961024339130554, 0.11286784436045431], [-0.3796108233927779, -0.10424628620459495, 0.22476495300383176], [-0.7686958940091294, -0.5429935377847158, 0.19394580787090007]]]" REF_nacs="_JSON [[[-0.1465028378422568, 0.10144711106217054, -0.08274324980929573], [-0.48305187132014143, 0.028695235891271747, 0.017287404431607156], [-0.07630814489738726, -0.18184225226157805, 0.12900426969729173]], [[-0.38103310751286484, -0.09062035255253814, 0.08129064556588556], [0.4846823096801451, -0.003848162934135783, 0.008676735865223351], [0.8690892128764894, 0.08315429298137686, 0.10422889121027559]], [[0.08088697370067845, -0.03207938762929326, 0.11003538155773607], [0.021441229501965045, -0.01784965329936106, -0.10908825679720383], [-0.2069009061800068, 0.031259238440349606, -0.11705646356747912]], [[0.10232889163577331, 0.1426443834704609, -0.1154078044359392], [0.0024487926751470077, 0.08140066066979067, -0.06075334025254482], [-0.15299652400318595, -0.047427560989402186, 0.03795367647875682]], [[0.01695775436947107, 0.0041880784806603046, -0.08085155242791554], [0.017689148205771256, 0.025938432475270702, 0.11808710420803975], [0.0634337194075963, 0.01307548669538751, 0.017448566360414745]], [[0.10512339112464633, 0.022884858564250102, 0.07861936739272628], [-0.03755868056147083, -0.08906378210208216, 0.03409308339355226], [-0.33806292780158503, -0.1580786050688377, -0.20292938786480064]], [[-0.015340571827129732, -0.025837418274527544, -0.00977462640176487], [-0.0011115090362961615, -0.008896434226393432, -0.0015839576849936328], [0.03249175350491551, 0.060344786279674684, 0.010443974743624063]], [[0.027541397675748595, -0.03735217741177101, 0.01832318220287872], [0.013972566956724726, 0.0048888768279269626, -0.002041152938250674], [-0.028399614953163097, 0.07387969992354335, 0.005243797483932445]], [[-0.025788779513220957, -0.03102692987582126, 0.027160013699723325], [-0.013674906990114095, -0.02237786520871286, -0.005224270036650127], [-0.005209183204922332, 0.08948799719976241, -0.002095794007484024]]]" REF_dip_perm="_JSON [[-0.16409044662011305, -0.07973634814128742, -0.04670215309813205], [-0.27825172795851233, -0.14357289496256617, -0.1088190147170634], [-0.26376140228255834, -0.15392223532681432, -0.1494252377032424]]" REF_dip_trans="_JSON [[0.3621977257137547, -0.043261577422386094, -0.08135549585626398], [-0.04575144271856289, -0.026852610019098028, -0.026332043791775367], [-0.5464067919062593, 0.06268299907614328, 0.11980828592277044]]" pbc="F F F"
C        0.00000000       0.00000000       0.00000000
C        1.36623151       0.00000000       0.00000000
H       -0.52078843       0.95765779       0.00000000
H        1.88178245      -0.64472983      -0.71031923
C       -0.87048002      -1.22379842      -0.00000000
H        2.23977221       0.81622537       0.89926128
H       -0.28391531      -2.13887145      -0.00000000
H       -1.52145135      -1.23484856      -0.87564365
H       -1.52139133      -1.23471640       0.87568993
9
Properties=species:S:1:pos:R:3 REF_energy="_JSON [[-3181.363745676456, -3177.3715441848503, -3176.762498670739]]" REF_forces="_JSON [[[3.546313554566627, -0.2120926387441701, 0.32771622670881206], [7.435997192768542, -0.6663512625508881, 0.15837695537343177], [6.675913270049069, 0.49475549497543286, -0.3716530158702409]], [[-1.0085103876053352, -0.9209489514491809, 3.583847831880514], [-4.211809516119766, -1.2398080956562354, 3.1239357727364117], [-6.057113521893448, -1.1039648168586618, 2.8308470944252546]], [[0.4841402183353863, -0.04139974291121933, -0.8347833991403912], [-0.5445704349831574, 0.12181104872811013, 0.5155880156514786], [0.3423312672294345, 0.18038071045020493, 1.4566316290402905]], [[0.2982751510603975, 0.7372301975755959, 0.6059864235410476], [0.056628086662099425, -0.39327472004058023, 0.2396604272031027], [0.8614332421482837, -1.1381893601365825, 0.0869103840476871]], [[0.45242795988805357, 0.15363281933768236, 0.974907759999096], [0.43391329894396163, -0.13686181510854184, -0.3632467100853224], [0.3095862077351059, -0.05987506383741757, -1.0265150479055989]], [[-3.6492325996883017, 0.46538454192557216, -4.632419750126823], [-3.000626191874737, 1.4853072593922496, -3.654973957300342], [-1.8522399831994978, 1.982391021987657, -3.0246455394392138]], [[0.04798298369941689, -0.1242499734163344, -0.005289663856341146], [0.19342005164754067, 0.22445858372121283, -0.008660873389940399], [0.011021936038801054, -0.12988647529021194, -0.002741719211800165]], [[0.0560119367558268, 0.0956101170982032, -0.1394568019350698], [-0.2477480034044482, 0.2638387814409402, -0.17458990847120107], [-0.2970806835280477, -0.21687792655120877, -0.1930106096447073]], [[-0.22740881701006924, -0.15316636941556896, 0.1194913729292823], [-0.11520448363739376, 0.3408802200728088, 0.16391027828324056], [0.006148265419251006, -0.008733584739522824, 0.24417682455731599]]]" REF_nacs="_JSON [[[0.2985175014037841, -0.04171834232989792, -0.027514996057302267], [0.43448889923210465, -0.10770418845557038, -0.06821504923976648], [-0.584816509389878, -0.7415520413408515, 0.920141534930715]], [[-0.05482066707407628, -0.16744170027860136, -0.0795326197471564], [-0.5229036657956233, 0.08842738225691012, 0.05166786603754332], [2.9235191111967382, -0.04613353375280979, 0.17534096962038753]], [[-0.0659760535924814, 0.0032598448575538526, -0.06728303611106544], [0.020998176720048778, 0.018552589254174037, -0.40972651051447273], [-0.8088567610351289, -0.0749365838642117, 0.48235780166988257]], [[-0.045283469681658466, 0.3408780619479662, 0.0886236213553132], [0.010183016786607546, 0.29603963741055606, 0.0715802999156031], [-0.5711509538843926, -0.6672473568229241, -0.21751084984127422]], [[0.0013274652739356792, -0.02013637646971528, 0.07579589105057767], [-0.033916673693333246, -0.012899753837446282, 0.4433271642136136], [0.17732563085539438, -0.03985286532066038, -0.9628572698371107]], [[-0.03332383395989171, -0.1483759657865996, -0.03451409452432169], [0.04848671546710032, -0.30498074750254706, -0.05261300115371318], [-1.1674593062715615, 0.6301180843261891, -0.41675675852381927]], [[0.010077611837715722, 0.022741097876850806, -0.009025528037846236], [0.0002243702009229873, 0.005824304378212202, -0.0009287787551373618], [0.15070767203604482, 0.2794194853158374, 0.007094847363968704]], [[0.05225873491145561, 0.036233943507186776, 0.02585098204122954], [0.04681308879786103, 0.05151773117378143, -0.017009398165941048], [-0.17384575185783419, 0.20419201173751256, 0.041811685764142126]], [[-0.05041503077560772, 0.019316784110087058, 0.019631423987294533], [-0.04885460751278208, -0.05249497912129279, -0.014928171103281493], [0.0872679552086467, 0.46901466626416366, -0.03194030383026292]]]" REF_dip_perm="_JSON [[-0.20151546017628377, -0.02649064711218938, -0.08836183941649967], [-0.8550124926150531, -0.06681997163358364, -0.00473662930249466], [0.2446283429489353, 0.027677354818409747, -0.1706235848343578]]" REF_dip_trans="_JSON [[-0.23139300082774727, -0.01606530225989996, 0.038167396012507696], [0.10699387611548937, 0.004170137488314553, -0.002032348607287773], [-0.6888111627411165, -0.04398587851622519, 0.09522574543456813]]" pbc="F F F"
C        0.00000000       0.00000000       0.00000000
C        1.55935327       0.00000000       0.00000000
H       -0.52078843       0.95765779       0.00000000
H        2.07490421       0.24750458      -0.92680712
C       -0.87048002      -1.22379842      -0.00000000
H        2.43289397      -0.31333980       1.17333408
H       -0.28391531      -2.13887145      -0.00000000
H       -1.52145135      -1.23484856      -0.87564365
H       -1.52139133      -1.23471640       0.87568993
9
Properties=species:S:1:pos:R:3 REF_energy="_JSON [[-3184.0032384199235, -3176.2151391918346, -3168.667376639504]]" REF_forces="_JSON [[[-4.717648416058459, 2.020709524592125, 0.07621887498968301], [-3.7108206455852786, -3.6959723952627592, 0.3571199968816667], [-19.626855085389362, 0.5098180001467112, 0.6242933846723886]], [[8.061370159508053, 4.1443473248494795, 0.5720459995775381], [3.3511070384268082, -3.625218056437925, -1.8592307272712298], [21.253532473217078, 1.8962529585187191, -2.3889098890224765]], [[-0.026191687788096756, -0.5466105609542163, -0.31823211498540704], [-0.8925087581809049, 1.9884104559869853, 0.812906802699464], [-0.6707888051213559, -0.09469526772176905, -4.094589432446485]], [[0.7874749326301471, 0.5929081180959073, -0.20925272336918108], [-0.17242074246550382, 0.05121470073956052, 1.1715824829868295], [1.1635380649827132, 1.25333232508617, -2.9219334920226303]], [[-0.015027750039440853, 0.07956453740697764, 0.4171416879380212], [0.19934320791426083, 0.06937048772194455, -0.9767895039119546], [0.7605868571074109, 0.7602002508862991, 4.623009866765879]], [[-4.182527145324658, -5.982314694693972, -0.4853917747952215], [1.7177521106966445, 4.111828752691911, 0.2549497451473802], [-2.055856386311129, -4.0383080493449235, 4.002210468659718]], [[0.11233291891436925, -0.14783236045857856, 0.01321190880220442], [0.06907199091052955, 0.11662800927147411, -0.03245468202442725], [0.11671573776589907, -0.04086603222757918, 0.03417686289998781]], [[0.01274088383516506, -0.000123065205770018, -0.11366598987173951], [-0.28476409867498875, 0.3408251600698436, -0.05468869138055736], [0.27449722025077117, 0.686383941405662, -0.267105628831621]], [[-0.03252389567885908, -0.16064882363426353, 0.047924131714480386], [-0.2767601030458469, 0.6429128852204568, 0.3266045768735176], [-1.215370076500541, -0.932118126748972, 0.38884785932514987]]]" REF_nacs="_JSON [[[-0.05665775648126008, 0.07385320748338695, -0.10528507716156832], [0.4579741210435713, -0.16722888759397286, -0.021696370268179336], [-0.5456451867492249, 0.1033949452715932, -0.001994331227645847]], [[-0.4645543986081999, 0.05838659764691725, 0.1714983738648865], [-0.5185972728367053, -0.2154929446306639, 0.035291645243173866], [0.05114701625796245, 0.06093340359741332, -0.01874620228314037]], [[0.015125083788115149, -0.03023530235376594, -0.07229461451741284], [-0.034338491944507485, 0.09430359190041093, 0.08775307723924507], [0.08811201174698816, -0.09457278536673276, 0.05787572592099872]], [[0.07930277716188482, 0.036496826720615556, -0.13447547076714433], [-0.020777657694966683, -0.02110609296105423, 0.05633374753929164], [0.0016570403676442519, -0.0017894979293125103, 0.06730520837755456]], [[-0.016997332314935172, -0.022763743506459898, 0.11235361198110026], [-0.0052388445948389085, -0.019591548131653626, -0.10113275688361918], [0.010780769485015045, 0.020039510285147954, -0.06533412291911463]], [[0.03116224559652171, 0.013626924663033104, -0.025546843611531454], [0.1416496544117501, 0.2716659963695253, -0.06035440368726348], [0.04244911477030056, 0.06630718554424382, -0.08719979592548263]], [[-0.008498604989128796, -0.013667699675705117, -0.008983677244057757], [-0.0016482026140506383, 0.008769636529563033, -0.00021973301783465975], [-0.005810779894613552, -0.02295842548390282, -0.0063070905277297805]], [[0.04082893904825883, -0.002987038800929758, 0.016868360274913192], [-0.015945819417711983, 0.007327036982151679, 0.0010082482850406731], [0.009079743691687736, -0.04377730850922747, 0.02054526973002207]], [[-0.05168233695562319, -0.05206205934824908, 0.0292141469499058], [0.010655391693110352, 0.03942514945715723, 0.003545906460063316], [-0.02264106947555212, -0.03550760948358688, 0.019559370504684665]]]" REF_dip_perm="_JSON [[-0.11281426399467195, -0.03227012183581699, -0.02870999871715589], [-0.49273353128276176, -0.5479466687721725, -0.06746953795698847], [-0.3175379988644392, -0.1763801581811987, -0.0683439541615719]]" REF_dip_trans="_JSON [[0.4241055002851559, -0.05441240325471011, -0.02566803931893448], [0.04964384876589017, 0.0802542622057643, 0.006472916595034443], [0.4780985083750513, -0.08244158604252895, -0.031244611741741413]]" pbc="F F F"
C        0.00000000       0.00000000       0.00000000
C        1.27775585       0.00000000       0.00000000
H       -0.52078843       0.95765779       0.00000000
H        1.79330679      -0.95132635      -0.12332123
C       -0.87048002      -1.22379842      -0.00000000
H        2.15129655       1.20437533       0.15612418
H       -0.28391531      -2.13887145      -0.00000000
H       -1.52145135      -1.23484856      -0.87564365
H       -1.52139133      -1.23471640       0.87568993
9
Properties=species:S:1:pos:R:3 REF_energy="_JSON [[-3182.0856030662912, -3177.8832494009894, -3176.0450729272316]]" REF_forces="_JSON [[[-6.033372901199319, -0.8222998958558586, 0.38286232641473533], [-3.992479465284627, -0.1466496758566598, 0.4090666526289748], [-7.108922175304447, 0.31807297449645583, 1.0038388065346584]], [[8.608015697529499, -1.1887353020401226, 2.5180935003079132], [6.35334847035085, -1.606696760838662, 1.8964237224188842], [9.185401829926546, -1.4528600945842538, 1.379584202846982]], [[-0.0563580571672821, 0.048144061142248486, -1.8142586574356032], [-0.8261553421090777, 0.3225090480564641, 0.7717962243416155], [-1.0463190416296888, 0.34835905649269266, 3.387752775022211]], [[0.8508757293153587, 1.499787959146861, 1.309779669509754], [1.0097524546938084, -0.5950116102476035, 0.16039787323554153], [1.3300354502959615, -2.9912419649223088, -1.0154609997481232]], [[-0.3126133972531326, 0.03636375067368971, 1.9894526106248744], [-0.5097596857351605, -0.3341901308229869, -0.6508415926159217], [-0.42937991856101926, -0.3013374824678482, -3.3751078902871625]], [[-3.0005395800385193, 0.5137812019557364, -4.332661127027257], [-1.9009427662579639, 2.1284595580820893, -2.601480513673273], [-1.7324098386838755, 3.932579037122194, -1.4749686704955627]], [[0.11609549949428231, -0.04674081641651764, -0.002662030959402605], [0.1465922239089669, 0.0837595840428032, -0.010573560901263126], [0.1349519167657128, 0.049383398987785806, -0.01319246659078701]], [[0.1845970057035048, 0.23993374219412858, -0.128258178706912], [-0.24032417659085922, -0.03456260926000355, -0.15477055021811492], [-0.6283574974566393, -0.40894796855127663, -0.12692230363137316]], [[-0.3566999963862259, -0.28023470080019985, 0.07765188727122531], [-0.04003171297531194, 0.18238259684769284, 0.17998174478380052], [0.29499927464708386, 0.505993043426279, 0.23447654634886242]]]" REF_nacs="_JSON [[[-0.04308944325539737, 0.08372938982083228, -0.006810949425102276], [0.5060177727974724, -0.06316248467971305, -0.04719818168845031], [0.0842396888398754, 0.2818410413828619, -0.18391434060131223]], [[-0.505729189857377, 0.14857572165595434, 0.014562182063439642], [-0.4583684896082354, 0.012810333801814266, 0.06839486105423336], [-1.4695480432896368, 0.32409956560786385, -0.28345304220432793]], [[0.1390079158332983, -0.02701769984185753, -0.1248622603718711], [-0.011199354537844786, 0.014470363260831063, -0.21671116856062136], [0.4387647033685302, -0.0659538541197634, 0.012571892785409596]], [[0.13035464543328742, -0.18788766139856156, -0.09420564739481482], [-0.010217324122577203, 0.19287685373475758, 0.08062300068965694], [0.3470181771008106, -0.12492993064832301, -0.05849508389553391]], [[0.007283114068760029, 0.011223191241182918, 0.14125910519254373], [-0.03020305273999834, -0.025187865896738718, 0.21693583862713522], [-0.048528421674863285, 0.0034565635938534037, 0.09656288204922199]], [[0.1716907152341149, 0.0010792686070586316, 0.1441305713301054], [0.0032671007342371834, -0.15610832934828126, -0.09520660295300812], [0.5565890632133764, -0.15343775553047756, 0.42634953725699865]], [[-0.015658590152009023, -0.0241054387232711, 0.008617331392232998], [0.0031356247999519966, 0.01071251705226692, -0.0006999404198407879], [-0.053895457741186405, -0.07681002971359906, 0.007026285666778434]], [[-0.014400300371960667, -0.02240907781731953, -0.025340695075891442], [0.028296761954227246, 0.03274433689768347, -0.004583315823003334], [0.03759076922010092, -0.10690794526513528, -0.0031344396718182062]], [[0.03134955096092372, -0.04575288365878501, -0.019517748833244898], [-0.0301889239265781, -0.01881504652229113, -0.0017604921158326983], [0.047111763530290444, -0.11961759677744338, 0.009621311505152289]]]" REF_dip_perm="_JSON [[-0.1740816927291508, 0.0017967171060845205, -0.09273600238276106], [-0.2355927088349065, 0.01391446014693544, -0.13861578785991582], [-0.2810623514732448, -0.005777392780283365, -0.1629849347043183]]" REF_dip_trans="_JSON [[0.19883147767436, 0.0577933471452807, -0.11148778604449505], [0.03221481090178531, -0.005990380058372999, 0.023074491379372928], [0.32448210384371534, 0.0946156131068006, -0.18274583511251125]]" pbc="F F F"
C        0.00000000       0.00000000       0.00000000
C        1.27419277       0.00000000       0.00000000
H       -0.52078843       0.95765779       0.00000000
H        1.78974371       0.42972710      -0.85765061
C       -0.87048002      -1.22379842      -0.00000000
H        2.14773347      -0.54403278       1.08578222
H       -0.28391531      -2.13887145      -0.00000000
H       -1.52145135      -1.23484856      -0.87564365
H       -1.52139133      -1.23471640       0.87568993
9
Properties=species:S:1:pos:R:3 REF_energy="_JSON [[-3182.6114900404846, -3176.623919789361, -3174.3506161099003]]" REF_forces="_JSON [[[5.780122508357133, 1.1058450613190747, 0.4364833645430777], [6.409697573356295, -0.9366560070873269, -0.4468760941292967], [1.3414629498409951, -0.34698292174328255, -0.26887702910582073]], [[-2.934417250227705, 2.6884128105990133, 2.799841454731025], [-4.72151760688971, 2.8935430172631524, 0.8574491025371871], [0.17766383542487824, 2.5871140229804004, 1.5930411471062544]], [[0.4058833972733516, -0.12860458484867596, 0.8664358743879331], [-0.05438669171995315, 0.12399916395163592, -0.5606112374125106], [0.11382276848399611, 0.05973293169229752, -2.195166849308521]], [[0.23867677711993548, -0.2830542018274805, 0.8411475945854276], [0.17257607396388247, 0.49352673813225345, 0.014223356120507371], [0.5443829870572107, 1.7356258315449897, -1.2992000796992886]], [[0.5436822683992616, 0.05197275476325131, -1.026988058787673], [0.4895236439390056, 0.012868902042601342, 1.1149957851722156], [0.623665884546758, 0.2547515706225176, 2.7894175095098643]], [[-4.060562598288598, -3.2681896831829675, -3.9497023565627125], [-1.9555844996549283, -2.9644169433482928, -1.0727298948733608], [-2.311377206175823, -4.162106844191931, -0.6025396200953936]], [[0.06004236536715082, -0.16111090935885347, 0.021013766402718147], [0.08792857628155148, 0.07723194745371473, 0.005967297684702737], [0.05292682400329462, -0.0535582414880399, -0.0038885883400062143]], [[-0.18700298660950265, -0.12125787497332786, -0.10306581593052727], [0.01078049233334077, 0.35156125459410387, -0.1763895010313375], [0.16401966419647376, 0.366196975684273, -0.25858612009935095]], [[0.1535755186045281, 0.11598662751323292, 0.11483417663004379], [-0.439017561613536, -0.05165807300210143, 0.26397118593225716], [-0.7065677073807424, -0.4407733251018152, 0.2457996300320099]]]" REF_nacs="_JSON [[[0.28698750069879736, -0.1412038723293081, 0.10419517912002421], [-0.5312973484774139, 0.05903702670642391, 0.03853786585637459], [0.17019880982998778, 0.17649718113300217, -0.20354852136526244]], [[0.2338449797604031, 0.08610233632757702, -0.20028742038265915], [0.606452989269736, 0.008474949541947364, 0.06215899595707817], [-1.0635969682749968, -0.002105307358889097, -0.15663455090049286]], [[-0.04914073499818375, 0.0194470545863227, -0.06691538134994561], [0.019321182313887294, -0.015973702746624175, -0.10485267046800475], [0.22263436092318223, 0.006784225874707292, 0.15205761216614744]], [[-0.07227496896124401, -0.11512896914507988, 0.12219947861707499], [0.004767708190820386, 0.06886117049144339, -0.06901515930115719], [0.1467032455810141, -0.04626529452598539, 0.053585725984203025]], [[-0.015450025337323182, -0.004389689706508208, 0.0438001204619201], [0.01778678141310804, 0.028325253396248973, 0.09615129446668035], [-0.09275980242571351, -0.012192088226592013, 0.005916027154731287]], [[-0.012247237919629802, 0.012946540568699752, 0.034120850178670135], [-0.09058516273691182, -0.1155224390808561, -0.012264045959122779], [0.4240241526817429, 0.21290015799505638, 0.17420226931450564]], [[0.012325419203089343, 0.02792671163256288, 0.009092294705771456], [-0.0010681171740173968, -0.011705050338030962, -0.0008114247391787022], [-0.042751454814094265, -0.08949696902247023, -0.01575104079178473]], [[-0.023337817719046854, 0.03951816620695179, -0.015126826388614569], [0.009239049626378852, -0.00311577468707008, -0.0033690495857570117], [0.01451113732743703, -0.10202227754416435, -0.014905681902193414]], [[0.03276207286383818, 0.034921486306845544, -0.029657320910206585], [-0.008030127248567817, -0.021074813932815725, -0.006439790135634944], [-0.004845452294114205, -0.12121674734307968, 0.004262410516811519]]]" REF_dip_perm="_JSON [[-0.1802421630847755, -0.08623825720536847, -0.03769150230423425], [-0.3794966327892078, -0.13870947531040692, -0.07190824116692149], [-0.15821312055930586, -0.14504899279363676, -0.11287672229499936]]" REF_dip_trans="_JSON [[-0.5488665927929837, 0.027824510748462494, 0.042898982604739413], [-0.07770416357818367, -0.032343416045502824, -0.022797927917157717], [0.9611029001335449, -0.040339665233891285, -0.06844846257428627]]" pbc="F F F"
C        0.00000000       0.00000000       0.00000000
C        1.55464733       0.00000000       0.00000000
H       -0.52078843       0.95765779       0.00000000
H        2.07019827      -0.72555522      -0.62753452
C       -0.87048002      -1.22379842      -0.00000000
H        2.42818803       0.91854999       0.79445618
H       -0.28391531      -2.13887145      -0.00000000
H       -1.52145135      -1.23484856      -0.87564365
H       -1.52139133      -1.23471640       0.87568993
9
Properties=species:S:1:pos:R:3 REF_energy="_JSON [[-3184.1894437575775, -3176.3535616077434, -3170.951621745171]]" REF_forces="_JSON [[[1.2037617165196304, -1.0951050158595796, 0.018612774564253653], [0.22682041163979275, 0.10387395926430781, 0.6592947379057288], [-12.053260330540013, -0.5389455853135507, 0.9928453931452713]], [[2.217453050767627, -3.7571598400352566, 1.442878878853986], [-0.3119637824371533, -0.5924021317181244, -3.189249316936727], [13.886894595892072, -3.2076825889983054, -1.3640456239960137]], [[0.591430007085936, -0.15884595731190412, -0.31833541134975635], [-1.219437905816434, 0.43391506506831923, 1.2417519880965537], [-0.35569700520199327, -0.038844731125614464, 3.3187313994770435]], [[0.4959596666069069, -0.4881053045866759, 0.25876933861253504], [-0.020404278297138364, -0.29157986179452766, 0.29150145583850556], [0.757350619371135, -1.2776907537042814, -2.0977958295413917]], [[-0.07308951519264727, 0.2799557652167471, 0.2885644539578416], [0.8274672593135476, -0.15618215665437143, -0.7185627653692934], [1.0418530889826192, 0.843562207088906, -2.9513233770786966]], [[-4.372921609165784, 5.458829102851128, -1.690193220345097], [0.5765255176614804, -0.2405593271157878, 1.792886830738081], [-2.5717192076529174, 4.486469252908513, 2.136681055979367]], [[0.08771436388795899, -0.08479578121558314, -0.013718626572241481], [0.22023906976292493, 0.11281244471461355, -0.0029093935191065613], [0.11589713755963357, -0.04973422028123251, -0.050745828802963466]], [[-0.035785758057916756, -0.03327454373927107, -0.10339789571493582], [-0.22206511582355462, 0.12905404311593244, -0.16932468373301995], [-0.8138197029785202, -0.58360951038621, -0.29199806210445983]], [[-0.11452192245386905, -0.12149842531855069, 0.11681970799266977], [-0.07718117600698919, 0.5010679651196619, 0.09461114697897509], [-0.007499195430414529, 0.3664759298091302, 0.30765087292227405]]]" REF_nacs="_JSON [[[-0.26987302255971773, 0.020997434959935977, -0.0371453633771963], [0.49193997141936446, 0.010171787867071595, -0.0023908217592015844], [-0.1608072932738812, 0.1839768235277944, -0.0180658497751776]], [[-0.3397436753731411, -0.06534805122854626, 0.2421240041621549], [-0.580460450711189, 0.13572380343390436, -0.07755994815216818], [-0.5090373754264054, 0.12311790231064573, -0.07546576012947157]], [[0.06528604754172339, -0.01095598244041314, 0.010662963435735097], [-0.0658339285633813, 0.03512953980175832, -0.02139143380853085], [0.07367000122337813, -0.031224832156624537, -0.03209869347021357]], [[0.06827183339938984, -0.040863825340075384, -0.1378120430144694], [-0.016816349623042025, 0.023926108694808823, 0.03638730962662364], [0.012806883354987987, 0.013992473739313883, 0.03210797912750891]], [[-0.03363308474441838, 0.02110718856424221, 0.021025789677911667], [0.003563100428644702, -0.0405845208937172, 0.028583001905293743], [-0.044063741795975775, -0.01435585324579029, 0.05988444675276961]], [[-0.02442986944737914, 0.06878088140339814, -0.05883721980460223], [0.16556803561124075, -0.21413335453513352, 0.03953061617852347], [0.20617185868909363, -0.24744847401383058, 0.039652411021786516]], [[-0.007239965748599055, -0.018949519253865038, 0.0022240669363088775], [0.006253182503722238, 0.010234873644171518, 0.0006294243555920835], [-0.005437896923171389, -0.024339330299570885, 0.0001449525128276305]], [[-0.039593854695307566, -0.048683021965521364, -0.027299034114982544], [0.009285810842967004, 0.020835218500216867, 0.0015550270275247527], [-0.0013000814210778458, -0.05009357844603187, -0.0027184560127623838]], [[0.009853211045001416, -0.037324431829210955, -0.009033537037258918], [-0.0010910380718152145, 0.02111343886978348, -0.005471573758008005], [-0.0065024690390427815, -0.03825706787900331, 0.0010550702112809072]]]" REF_dip_perm="_JSON [[-0.1401356065012156, -0.027579503481230176, -0.03491418988300974], [-0.3740627606607251, 0.16747776844120169, -0.0740692983582491], [-0.22387136780680006, 0.025370561592984894, -0.053897349295847115]]" REF_dip_trans="_JSON [[0.5856656130579979, 0.11275098708054083, -0.04257311448470839], [0.06130460304066148, -0.054673006626419274, 0.011092947286589477], [0.7615154335460469, 0.1537115341893019, -0.057018215775727736]]" pbc="F F F"
C        0.00000000       0.00000000       0.00000000
C        1.36990789       0.00000000       0.00000000
H       -0.52078843       0.95765779       0.00000000
H        1.88545883       0.93238809      -0.22557128
C       -0.87048002      -1.22379842      -0.00000000
H        2.24344859      -1.18039957       0.28557234
H       -0.28391531      -2.13887145      -0.00000000
H       -1.52145135      -1.23484856      -0.87564365
H       -1.52139133      -1.23471640       0.87568993
9
Properties=species:S:1:pos:R:3 REF_energy="_JSON [[-3177.376642238022, -3175.130595387601, -3174.3027031177303]]" REF_forces="_JSON [[[-32.602161485899906, 0.736787753260262, 1.4048513788249302], [-30.172376267956068, 0.08353044456460557, 0.8038587963626935], [-30.65746708128711, -1.2925328030687222, 0.7003725893233252]], [[34.872085818270406, 0.2566400563077769, 1.2302444033625608], [30.16028269459976, 0.6012371644493703, 1.1557583687302584], [36.54145553259325, 0.735774896562366, 2.8999707952307956]], [[-1.0569938438280262, 0.2854789432221879, 2.0410671706748102], [-0.47585991178915504, 0.23225416951830244, -0.6122439863877721], [-2.3152486281119358, 0.9213367828794855, -2.188734329773372]], [[1.69523331585382, -2.0053469465994267, 0.7755464792729213], [2.39259259423516, 0.6659396449435645, 0.13825689340681535], [0.9411564250636781, 2.174387847616606, 0.11353973463893961]], [[-0.9402739132592959, -0.32443437066828196, -2.0842373289909917], [-1.174193444832417, -0.5084032061560679, 0.7819553372300214], [-1.612655027129958, -0.5713917729156816, 2.1388139960589214]], [[-1.9776295886964763, 1.0896026231955622, -3.4293019665805713], [-0.7873124503816247, -0.9791977932199171, -2.2876547782366825], [-2.65520504409375, -2.3885890558076897, -3.6744632662886767]], [[0.1541560833651207, -0.020493771472378783, 0.0024574943664136747], [0.11240463469389667, 0.0333988553215409, 0.021922388576315316], [0.269670405850246, 0.15904637895467494, 0.029233794664690352]], [[-0.3546426033075694, -0.27383523732316717, -0.07337587374162588], [0.06438371301547181, 0.06658299954972995, -0.15712464185669114], [0.026423601940018138, 0.43294449448952077, -0.16699594448711047]], [[0.2102262175002897, 0.25560095007752054, 0.13274824281156114], [-0.11992156158329387, -0.19534227897140624, 0.15527162217536075], [-0.538130184826572, -0.170976768711625, 0.14826263063106287]]]" REF_nacs="_JSON [[[0.24875643476088452, 0.12377483017220557, -0.033658896115746045], [0.3349647042540213, 0.20383462759041843, 0.018557776716127482], [-0.2092307832702018, 0.3223553765109476, 0.1149855003086859]], [[-0.9808850233488184, 0.01450372857209089, -0.16837980031428082], [-0.07384133410012331, -0.03926027030236458, 0.18086555808336371], [-3.693586586355739, -0.08882614598437386, -1.314447436188054]], [[0.22098293986579606, -0.09121128823686458, 0.5499932315090217], [-0.08580166370916029, 0.006195459935188129, 0.6779125202680912], [1.15979613467169, -0.3448942905619904, -0.9913236037701868]], [[0.20388854291473407, -0.15628009978224278, -0.010060048458038264], [-0.07662068827495067, -0.8271928341325538, 0.0939032270190672], [1.1177599664861644, 1.2020113362251836, -0.3111561233254421]], [[0.06147707988039582, -0.0007152130173038092, -0.5238027687207759], [0.009100558765262418, -0.025964855512946118, -0.7226256185032249], [0.16079794660982133, 0.031652974266462554, 1.1962523026046166]], [[0.2315869939367376, 0.20586439351100963, 0.15671275108461852], [-0.11251603484287263, 0.6272782462062071, -0.26061687913743203], [1.3017340778975321, -0.7539952079013446, 1.3482555152982685]], [[-0.020879591052141357, -0.011553983446952258, -0.008376126628979666], [0.00641811378318585, 0.009643378753932026, 0.00038993658590172223], [-0.09863331911965686, -0.07985281011956126, -0.00020708001160045378]], [[-0.0029324013032518757, -0.07708388067683969, 0.02712940840115757], [-0.1130659868049392, -0.08942525336240871, -0.0006472463160695637], [0.29725693654035723, 0.04117158336248941, -0.013071887533187648]], [[0.05037872545781347, 0.034600347561372875, 0.03215296676016081], [0.10655374004529092, 0.11860903589626913, 0.0038236410684215666], [-0.030589609734938353, -0.3116602501760348, -0.019979525456590094]]]" REF_dip_perm="_JSON [[-0.22212253539763321, -0.06182747149408111, -0.14971462782809264], [-0.2946366220777304, -0.0693391230801216, -0.3356925448262666], [-0.19349581441424718, -0.06775684613849446, -0.03845765745491687]]" REF_dip_trans="_JSON [[-0.02992533273833775, 0.001002166797668238, -0.09080844607786742], [0.02293657366926847, 0.005386901446097937, 0.048511398740068455], [-0.07020527640810555, -0.0036063286138787766, -0.1926253593169679]]" pbc="F F F"
C        0.00000000       0.00000000       0.00000000
C        1.08888991       0.00000000       0.00000000
H       -0.52078843       0.95765779       0.00000000
H        1.60444085      -0.14754468      -0.94787158
C       -0.87048002      -1.22379842      -0.00000000
H        1.96243061       0.18679097       1.20000160
H       -0.28391531      -2.13887145      -0.00000000
H       -1.52145135      -1.23484856      -0.87564365
H       -1.52139133      -1.23471640       0.87568993
9
Properties=species:S:1:pos:R:3 REF_energy="_JSON [[-3182.865037027816, -3175.607272202852, -3169.9605036089165]]" REF_forces="_JSON [[[-14.701351753276603, -1.2742858322222284, 0.2679788182905395], [-14.863503569243363, -0.2410807587155786, 0.7882266493138885], [-20.120963305212925, -0.3341144566441241, 1.7776802039523585]], [[17.59708992777057, -2.133933223041469, 1.3785969070576187], [16.776079715847843, -1.7899212310669812, -1.0294346929130331], [21.00954196048128, -0.8298097339153386, -2.4937126346395933]], [[-0.028015105325170722, -0.08262621282852396, -0.9606103042662427], [-1.5192381542573121, 0.6736317120981365, 1.5706083461143463], [-1.8983688465115856, 0.8927609736419234, 4.706548770590767]], [[0.9341331987230778, -0.01842862605963322, 1.1655054605664212], [0.9284521387831014, -0.778103051312002, -0.5227638518929404], [1.8849799407006629, -2.342412193544898, -2.8806741889234124]], [[-0.5628371870060658, 0.09073540917902488, 1.0374028224198777], [-0.555653026723201, -0.5021452013520837, -1.4446833604888287], [-0.7442373169456531, -0.4769303969531073, -4.471966088180811]], [[-3.248676608242916, 3.515392221336768, -2.8520565667742845], [-0.7348415230153915, 2.192351786352947, 0.5729479011087903], [0.09905053750632482, 2.8767382821324174, 3.2750613564601623]], [[0.1389837592775158, -0.026749794537282205, -0.008382726536159783], [0.2136093955973078, 0.11850543933445751, -0.009071992327653626], [0.16794038020984633, 0.09351096310661071, -0.04240162579084272]], [[0.07470831285672257, 0.09923495718188577, -0.09852104701272638], [-0.28041445669725557, -0.11577736891794328, -0.10952164084010632], [-0.7590097240013097, -0.6388912092770888, -0.14536743778280795]], [[-0.20403454477850877, -0.16933889900889296, 0.07008663625461442], [0.035509479714739195, 0.44253867357743426, 0.1836926419253271], [0.3610663737752046, 0.7591477714543994, 0.27483164431546103]]]" REF_nacs="_JSON [[[0.04106820463500111, -0.0445865579148251, -0.012605645368538733], [0.2493608060496485, -0.006881739484139504, -0.01866054554901555], [0.1337421234563939, -0.0643981701310273, 0.03290393564038445]], [[0.49092341937451, -0.10487258953808937, -0.09142662662023485], [-0.21273109234900053, -0.017479042504934515, 0.05722433688416375], [0.3663017369628522, -0.1417097258287295, -0.10970705202912036]], [[-0.12241212093274086, 0.049787340850418804, 0.08149336699132978], [-0.020283184409400218, 0.015418126701197913, -0.04639419277993556], [-0.16664585863692713, 0.06783104324591277, 0.02886941792715834]], [[-0.12993002168380266, 0.09193495795398367, 0.14068790160534383], [-0.008115051315232207, 0.02742503892225826, 0.016935256680430014], [-0.12336672822849619, 0.09027161667381074, 0.14292672783323232]], [[-0.01901884515053226, -0.005360169829690579, -0.09411352009607335], [-0.010721441828562212, -0.018181944707493528, 0.03708601055978484], [0.02518343493183095, 0.005741150790572714, -0.05302320615068048]], [[-0.1900228227793943, 0.1454905908919776, -0.1484215628858059], [0.00033187184923155326, -0.016443533475512258, -0.045853977847688], [-0.1643036202471107, 0.12357982824948358, -0.13216701806818928]], [[0.0044537749634604796, 0.009264768505991523, -0.00801069355471775], [0.003195567025705714, 0.004724367667006289, -8.148104795213994e-05], [0.003483675058793368, 0.006303286926695648, -0.00535871255891267]], [[0.017173691077259252, 0.02141121026979937, 0.01893110281723766], [0.004944436522719758, 0.008074649786623748, -0.0006663565976756269], [0.006735484002415007, 0.042422314526316715, 0.008626789357029853]], [[-0.024224322781177837, 0.019737422301052854, 0.017252734491802677], [-0.005954024635718205, 0.003419034451148846, 0.0003714989719712355], [-0.02464157785170825, 0.021794818364556337, 0.0070163896569056345]]]" REF_dip_perm="_JSON [[-0.1281894155919306, 0.009609417699703027, -0.052889688717231924], [-0.3528893968497407, 0.13817025198424715, -0.15800909011156972], [-0.4324404520333902, 0.13321106293825255, -0.21702177420422988]]" REF_dip_trans="_JSON [[-0.08536999822053656, -0.19109708600766973, 0.14301650715672115], [0.04193193861089579, -0.024045114622033372, 0.0196577082213688], [-0.10267045438347432, -0.2301405812481895, 0.17224101818238163]]" pbc="F F F"
C        0.00000000       0.00000000       0.00000000
C        1.17989782       0.00000000       0.00000000
H       -0.52078843       0.95765779       0.00000000
H        1.69544876       0.83684698      -0.46895319
C       -0.87048002      -1.22379842      -0.00000000
H        2.05343852      -1.05944490       0.59369285
H       -0.28391531      -2.13887145      -0.00000000
H       -1.52145135      -1.23484856      -0.87564365
H       -1.52139133      -1.23471640       0.87568993
9
Properties=species:S:1:pos:R:3 REF_energy="_JSON [[-3182.9327838550316, -3177.7021687836655, -3175.3775038851977]]" REF_forces="_JSON [[[1.5455137223724584, 1.0584769251040158, 0.5283002150413829], [2.937535977943692, -0.5962499399707842, -0.018225694741490026], [-1.5524237808959904, -0.5049411780433091, 0.04523967435567234]], [[1.1339543349639034, 1.9531612298877146, 2.590703591155529], [-0.8122551805040003, 2.302131123931461, 1.5753888765402748], [3.278808505429402, 1.8597035057712181, 1.7614123429701751]], [[0.05972985928801195, -0.12078080035373498, 1.37765777882549], [-0.4483145014617535, 0.23532162841410137, -0.7148081569181687], [-0.39920996507623835, 0.22167220977183122, -2.9497215137819772]], [[0.5198577777393849, -0.8578075217780373, 1.1904800956786068], [0.662503473218114, 0.6863222491001295, -0.0011190103772584104], [1.0334632215095687, 2.577350348521008, -1.4030902154954044]], [[0.22665203365861125, 0.015344491714656173, -1.4554921204372793], [-0.09921971580352758, -0.15351485572590107, 0.9834759365032291], [-0.07922813132255267, 0.0059096391293080195, 3.415319312404609]], [[-3.4969981081808164, -1.9385502638783334, -4.286276311948287], [-1.9807157644048996, -2.7291557816997654, -1.902164623007909], [-1.9074789067107518, -4.137510467047637, -0.8278361154161802]], [[0.08406935370468169, -0.12254913413025209, 0.017456509369862868], [0.10889248580661118, 0.06323751099148134, 0.019881620874974314], [0.08995987566522078, 0.002264889978741751, 0.008870267193813312]], [[-0.25397355129570043, -0.16084091272969187, -0.0815781283393071], [-0.008578563092584547, 0.27261496667147816, -0.16498052506475308], [0.2623593353980358, 0.47941575757032145, -0.23990006934702632]], [[0.18119457774955672, 0.17354598616294356, 0.11874837065408901], [-0.35984821170142195, -0.08070690171295995, 0.22255157619123525], [-0.7262501539958696, -0.5038647056523856, 0.18970631711647737]]]" REF_nacs="_JSON [[[0.15780690853862636, -0.10640269105166845, 0.08708823762179], [0.5176979323050129, -0.021479705397933063, -0.017514478389244345], [-0.13926899297258777, -0.21959074604864162, 0.1628954324835889]], [[0.3489971745604937, 0.10222886981923382, -0.07850809137048496], [-0.5261244457522922, 0.004994464538470724, -0.010007097330913583], [1.0372036302496754, 0.07146073746749997, 0.13854068935914993]], [[-0.07920838920989785, 0.027356125093669265, -0.11115606980698418], [-0.02175531123282418, 0.0164660668133174, 0.1359153437509001], [-0.24662551681356304, 0.024068492800931835, -0.14148398490146752]], [[-0.09812710758684468, -0.15357529392199454, 0.10857713339531014], [-0.0012273929480749262, -0.1045650441809129, 0.06969295405802575], [-0.18377201740873492, -0.023963886587996436, 0.014738789167514931]], [[-0.015733787955117328, -0.0057954872687410435, 0.0794872943584887], [-0.01784726370915187, -0.028086467607880153, -0.1470223254075807], [0.07641045230799762, 0.0106921057309873, 0.01919086012198712]], [[-0.09808548056212128, -0.010444152803363749, -0.07137946661894022], [0.039726906267277526, 0.1068752041166948, -0.04058927300410839], [-0.4021606540359217, -0.17128178832099814, -0.22702615636373744]], [[0.01559922897424778, 0.027291044894388376, 0.009830047663683748], [0.0012378845170318289, 0.009355750822895874, 0.0016852397365630645], [0.04105591726830183, 0.07725682578633747, 0.011552440211285741]], [[-0.028255235865269283, 0.03860042638979123, -0.018510208537039118], [-0.01731866238225109, -0.00799989519052559, 0.0027082572748573074], [-0.028941857426226257, 0.09256642193990279, 0.00928466610018121]], [[0.026589115798191048, 0.031639774017488576, -0.027824392738529616], [0.01767271234521214, 0.026137269720367458, 0.005905687518184901], [-0.010468477588168209, 0.10811556259259558, -0.0016844189563199655]]]" REF_dip_perm="_JSON [[-0.17086925414897886, -0.08116456127544035, -0.050580813548462826], [-0.28585082116501115, -0.12590760568663667, -0.10162798240603682], [-0.23584254203621607, -0.13407090553942627, -0.14801159817249918]]" REF_dip_trans="_JSON [[-0.3729545056100993, 0.03467561151009594, 0.07684607574321667], [0.048812357589196984, 0.022479814677476614, 0.02636956933530808], [-0.6007688121987516, 0.052456696314180186, 0.1192023653164218]]" pbc="F F F"
C        0.00000000       0.00000000       0.00000000
C        1.39465737       0.00000000       0.00000000
H       -0.52078843       0.95765779       0.00000000
H        1.91020831      -0.59358001      -0.75358657
C       -0.87048002      -1.22379842      -0.00000000
H        2.26819807       0.75146991       0.95403757
H       -0.28391531      -2.13887145      -0.00000000
H       -1.52145135      -1.23484856      -0.87564365
H       -1.52139133      -1.23471640       0.87568993
9
Properties=species:S:1:pos:R:3 REF_energy="_JSON [[-3181.98592394969, -3177.8496313662395, -3176.865716900207]]" REF_forces="_JSON [[[2.496564677357847, -0.4665327988940385, 0.2644464901909985], [5.530328169366818, -0.3363124207130193, 0.14789472320114602], [3.5301517399601656, 0.37810087504506246, 0.2567280261149723]], [[0.05900679898441935, -1.244576268203726, 3.2142219335834907], [-2.950990777217373, -1.6158023875559084, 2.6439907392924242], [-2.107134313878715, -1.414289013357474, 2.3308099722226943]], [[0.3318030293648082, -0.01923955184521114, -1.2678889888532607], [-0.49323556024543386, 0.18296272892739038, 0.5978824673205069], [-0.17907313775973083, 0.16022195180746626, 2.313506802432625]], [[0.43883452813019463, 1.0862350832765637, 0.905430552365612], [0.4407060474555099, -0.4390615552470426, 0.23542110476420863], [0.8929610374068869, -2.0306572771124536, -0.36730098571927455]], [[0.2250038457900868, 0.1350621744942765, 1.457766514833378], [0.15054726869097698, -0.16516460001354596, -0.412655266621448], [0.1560167361117295, -0.08924930329587323, -2.1375403655788388]], [[-3.4516353061102576, 0.6444764484967909, -4.530897819530665], [-2.493826892942003, 1.9071784448410323, -3.195128041291472], [-2.0429352249361603, 3.062819602675428, -2.474174274870873]], [[0.07260116090914591, -0.0944451746430249, -0.00747075590059815], [0.15068476293618618, 0.12542565068883768, -0.01223019546230489], [0.07235718609411461, -0.03439387863387311, -0.0016944164376873213]], [[0.12162264449699065, 0.16621903948140931, -0.13556319320768706], [-0.24194316562762647, 0.11493514675252244, -0.17779681458116933], [-0.4668070867025926, -0.28069242313079323, -0.15946893588270455]], [[-0.2938013789209817, -0.2071989521604317, 0.0999552665182824], [-0.09226985241871095, 0.2258389923196182, 0.1726212833794833], [0.14446306370423026, 0.24813946600038447, 0.23913417771942683]]]" REF_nacs="_JSON [[[-0.2117352343489716, 0.05243773711057841, -0.007441924915995015], [-0.5891334748738977, 0.08708864996757464, 0.0620667344416556], [-0.4917989340238547, -0.6057580908965574, 0.5758984140736026]], [[-0.17174403808461072, 0.15820514378360423, 0.08692184114348686], [0.6279070935953518, -0.04207837740255912, -0.03789987224068529], [2.4054753944317895, -0.17289563592012783, 0.2833036310565826]], [[0.09378241991428034, -0.005226249079915773, -0.05673622753881423], [-0.0014677659557865278, -0.019566440476013577, 0.32769643234808665], [-0.6399806066574458, -0.020028849054790947, 0.19347348044411947]], [[0.07435448519896101, -0.23476255376961946, -0.0909583896299858], [-0.0033488348672844944, -0.26710859880190835, -0.09571718260905532], [-0.46531157573779336, -0.2463111627000804, -0.1270223485854513]], [[-0.005989771699893237, 0.020490394485311588, 0.06723600319273211], [0.03492536374744, 0.02462578701300396, -0.3466936165343588], [0.15710084421122553, -0.024833927656327658, -0.47389475060011305]], [[0.08198248357728463, 0.05622350105072151, 0.057491532594273684], [-0.044734358301597166, 0.24687419103965413, 0.069180675719923], [-0.9241970850611398, 0.3853440686003695, -0.44357311676588496]], [[-0.013519653223937618, -0.02762682862097511, 0.008484946660088097], [-0.0022667061279786366, -0.010713860079962617, 0.0013782443416961968], [0.11136629990657496, 0.2008956052289833, -0.002717056480622364]], [[-0.032381504586280224, -0.028573800004415752, -0.028470173326251416], [-0.04209653700300102, -0.046278092319103285, 0.009758396565986854], [-0.10245648278430361, 0.19029709609664533, 0.016427410460077296]], [[0.033488197609058745, -0.04317044868814631, -0.020631870872595215], [0.04259763854371525, 0.034826319232248285, 0.007885835588859035], [0.015232905406523443, 0.31571145467932926, -0.028748933516198415]]]" REF_dip_perm="_JSON [[-0.19307526185870943, -0.014173453898959673, -0.085397152094293], [-0.4324196325999477, -0.030102818814456637, -0.06521062942848128], [-0.08280721457405064, 0.00807794017567548, -0.15507563193952673]]" REF_dip_trans="_JSON [[0.3071090731430575, 0.03271703923372398, -0.06402398387036984], [-0.07065867120869897, 0.0007754811768562377, -0.011052664200612515], [-0.7089111547350239, -0.07156629426399243, 0.13550540604744601]]" pbc="F F F"
C        0.00000000       0.00000000       0.00000000
C        1.46375069       0.00000000       0.00000000
H       -0.52078843       0.95765779       0.00000000
H        1.97930163       0.35692631      -0.89041202
C       -0.87048002      -1.22379842      -0.00000000
H        2.33729139      -0.45186728       1.12725803
H       -0.28391531      -2.13887145      -0.00000000
H       -1.52145135      -1.23484856      -0.87564365
H       -1.52139133      -1.23471640       0.87568993
9
Properties=species:S:1:pos:R:3 REF_energy="_JSON [[-3183.7302388290645, -3176.4513217774024, -3166.9944576342104]]" REF_forces="_JSON [[[-8.097604205733164, 2.9404531479165135, -0.6861795395769748], [0.4165236081901501, -7.708791758964512, 2.3061078040725813], [-27.906896694387346, 2.922499526057961, -3.144382700832995]], [[10.880758612628748, 3.2962790649370537, 1.6957170691943364], [-0.012771052613550807, -3.984075109929895, -5.849149144101256], [27.809512397926134, -1.5671386486857437, 8.470670728802512]], [[0.15850932050483457, -0.9085633176732173, 0.022577002658546137], [-2.0315030185154304, 4.043643468651485, -0.41997453671683943], [0.18080703871797948, -0.8968464994319519, 1.2374205099944053]], [[0.8913455806518884, 0.6529170032038792, -0.5970300083996727], [-0.2956962405667164, -0.057776594738338016, 1.7423864991769298], [1.0031916426074767, 0.9432615524129446, -1.9148070677775375]], [[0.06988491588693936, 0.19047725537272553, 0.25409664729209314], [-0.7548825645798727, -0.5851914398678374, -0.3903455981543193], [1.8955317949874337, 1.412844592284365, 0.012428987114162831]], [[-4.03533527426693, -5.684155108120242, -0.5136644972635765], [3.198576204351945, 6.228759103590598, 2.009772153379965], [-2.085956233352375, -2.108641805769862, -3.5047842299235894]], [[0.12589138033517502, -0.17702814982778298, 0.0155565199511088], [0.04310722108366009, 0.27669127757292017, -0.04636981197725427], [0.13506969965999285, -0.16132291866711868, 0.07781821489142408]], [[-0.045643099692995515, -0.12043771327295273, -0.16135186159221526], [-0.04058956123318011, 0.8552045394457615, 0.1365013166777909], [-1.0858811736305465, -0.35462731970563305, -0.9603419177183874]], [[0.05219276968933573, -0.18994218253982426, -0.02972133226342663], [-0.5227645961192158, 0.9315365142393678, 0.5110713176427615], [0.054621527469049865, -0.1900284784953648, -0.27402252455014564]]]" REF_nacs="_JSON [[[-0.21950890426477143, -0.08185100407895199, 0.11580878967245346], [0.5911503515653445, -0.27864935915851896, 0.11156289344154173], [-0.3961781409546728, 0.36310969308555596, -0.11865919525033318]], [[-0.05415657398821577, 0.17373066254142425, -0.1901185254593945], [-0.578848272080076, -0.15090820614753087, -0.311655130067886], [-0.21178669749142626, -0.18576423962367158, 0.34639947029523005]], [[-0.05875115949425274, 0.06843174328025005, 0.19444476565309954], [-0.06651012396171342, 0.14671461499187552, -0.06644204065255313], [0.10321452908526352, -0.16080131353772076, -0.05659876746040856]], [[-0.01689925547133786, -0.021277753715189147, 0.12073782066222266], [-0.01232931152259457, -0.009388029581082096, 0.06244915362397221], [0.0043380544856206045, -0.032306814735176125, -0.3120179204614867]], [[-0.003336056297970115, 0.029723799521057602, -0.2474113876808381], [-0.02983184752225852, -0.036552838657205225, 0.04338223804922156], [-0.06273099464535327, -0.004674948783998675, 0.09794453656795431]], [[-0.17381760729252643, -0.2754097189979528, 0.08575687065636092], [0.15887723241362203, 0.26542201084410105, 0.12784093044198583], [0.013314578785535762, -0.00017599649799967827, 0.15091558864901225]], [[0.001126251498159522, -0.009777124204893017, 0.0065753901499182], [-0.002598113261107705, 0.012221582208619112, -0.0026764737843544203], [0.0010084195215106422, -0.016232020053660888, 0.008963753239564639]], [[-0.08254227017732788, -0.06286398143715939, -0.03295445189888775], [0.01897761680947813, 0.04175689810497742, 0.013969893466974512], [-0.01683132648784152, -0.0376903900232975, -0.03294651765102601]], [[0.03546258667515998, 0.02810462588674247, -0.008841034578230062], [-0.02400593839038942, 0.02387869154108018, 0.01735016298586], [0.033256719430847924, -0.06608046382622394, -0.04307939917238058]]]" REF_dip_perm="_JSON [[-0.131152020970793, -0.03576154082411797, 0.035680345033692364], [-0.5297921228103452, -0.7307621138304363, -0.027444177163854167], [-0.38609639319046846, -0.10743868627982812, -0.11692193821286982]]" REF_dip_trans="_JSON [[0.5211772957649151, 0.15422438628291982, 0.005052031180323452], [-0.011160351710044536, 0.040947335935110706, 0.004436023456196525], [0.5037097471351469, 0.09033238185475066, -0.0011478146385044878]]" pbc="F F F"
C        0.00000000       0.00000000       0.00000000
C        1.24933201       0.00000000       0.00000000
H       -0.52078843       0.95765779       0.00000000
H        1.76488295      -0.95923669      -0.00974335
C       -0.87048002      -1.22379842      -0.00000000
H        2.12287271       1.21438979       0.01233504
H       -0.28391531      -2.13887145      -0.00000000
H       -1.52145135      -1.23484856      -0.87564365
H       -1.52139133      -1.23471640       0.87568993
9
Properties=species:S:1:pos:R:3 REF_energy="_JSON [[-3183.5362145717504, -3175.279294183442, -3166.999221803676]]" REF_forces="_JSON [[[-10.771680887482589, -1.138655754566486, 0.24839210529279057], [-13.084664768345226, -1.7313756285034247, -0.04338731985058149], [-22.086542074769184, -0.620385838102892, 2.3023431043350477]], [[13.99001996416865, -3.0952549533858527, 0.1457323900967235], [13.071270584032007, 1.7961206228693647, -0.5531499372174005], [22.541540768489686, -0.2637724577518062, -4.681554290451551]], [[0.2753807128610566, -0.3198219284575023, 0.39347343792090833], [-2.70685437113802, 1.9169451172887637, -0.6806240648629218], [-1.3664737355353886, 0.3356378142412795, 5.8736487142634]], [[0.9842125887639475, -0.6758971875838894, -0.18818136332971833], [-0.12455618833255817, -0.1449216286907022, 0.8201165897143881], [1.7562257645562485, -1.3183464733788313, -3.6678137132930426]], [[-0.6526360143400545, 0.12057601115997889, -0.3421890719707313], [0.9672928017836582, -0.23296965571375253, 0.6194833429138717], [-0.22781120119888965, 0.023408498506381947, -5.345560099240205]], [[-3.7948310369858853, 5.327399469392416, -0.2496406202638233], [1.8923970756199746, -2.867040761993344, -0.22206320054532622], [-0.14363245956641857, 1.868435255962189, 5.483349688405177]], [[0.07666812768584454, -0.026004759595541604, -0.02473962826715007], [0.47110929262696727, 0.14497968104911627, 0.07359776455715623], [0.17235504692254758, 0.08412224437108816, -0.06965653991668481]], [[-0.09203736095422271, -0.1543011649303657, -0.0868333353068237], [-0.13496408956734787, 0.6183933776024102, -0.09269059401704557], [-0.960561000847318, -1.0024443380987627, -0.2115015758210393]], [[-0.015096093711491319, -0.03803973203367268, 0.10398608582724532], [-0.3510303366801098, 0.4998688760914407, 0.07871741930756808], [0.31489889194615844, 0.8933452942529209, 0.3167447117191272]]]" REF_nacs="_JSON [[[0.1414012417216283, 0.0010074434081452468, 0.0062180399761970345], [0.2790876120020757, -0.058097266211597186, -0.04353115490583871], [-0.6968749690630105, 0.0586597547539542, 0.040930023158980276]], [[-0.6378273234037076, 0.07558019850012186, 0.14636364986410516], [-0.30999564723171413, 0.08010800243107978, 0.10326519325530806], [0.42784894641466353, -0.21892207187480492, 0.09536959944565375]], [[0.05915427006179365, -0.01895300145767373, 0.04949872396474951], [-0.0668213436487837, 0.07209521174288486, -0.09957360153302881], [0.11871481002305487, -0.09005325820988051, -0.007172575548957592]], [[0.1002215447581663, -0.02526985324807075, -0.10826152287294477], [-0.01905134641328425, 0.023546274070218635, 0.04788445748379068], [0.0270334791973517, -0.007682284802863245, -0.026438115288199587]], [[-0.03696141499935085, -0.01897058076373906, -0.010629317645984439], [0.022757213034657043, -0.015163284762210275, 0.08266327721498105], [0.03305397373307745, 0.054243808232457155, 0.031088745528933658]], [[0.1725169866347954, -0.19534559644684268, 0.011687286368021247], [0.08913295067807318, -0.1404161544575045, -0.09214377247624657], [-0.058457193192670995, 0.07313959294073338, -0.04284981034658997]], [[0.0013067331811324565, -0.007739382256037269, 0.0035377267000594077], [0.010484436018593854, 0.0034342036310155053, 0.002429122040687695], [0.0043205899202757875, -0.008384333894672689, -0.002480684280057144]], [[-0.026377444084013203, -0.03961605649887953, -0.017678793806922184], [0.008066087397526036, 0.029195401557145916, 0.001247790164635725], [-0.031757687787687054, -0.05603826143694817, -0.022155186736448822]], [[0.028305405073819692, 0.0013834110236724988, -0.016859132799795454], [-0.01347272829798795, 0.005512859189233778, -0.0023016353288850314], [0.0007962193638206335, -0.006516213145660073, -0.009805700611807078]]]" REF_dip_perm="_JSON [[-0.08644436959644887, -0.0388282433701927, -0.030966825302318837], [-0.5563993587498123, 0.302943576021273, -0.09270893711928585], [-0.41491048907483663, 0.1522650084247943, -0.1513198061465065]]" REF_dip_trans="_JSON [[0.19433616807163237, 0.21500900497951939, -0.08402801275220481], [0.05779674393379531, -0.04227642260309952, 0.007668085127193954], [0.2192557515796098, 0.2435066842271667, -0.0950879471597601]]" pbc="F F F"
C        0.00000000       0.00000000       0.00000000
C        1.20635099       0.00000000       0.00000000
H       -0.52078843       0.95765779       0.00000000
H        1.72190193       0.95246804      -0.11416914
C       -0.87048002      -1.22379842      -0.00000000
H        2.07989169      -1.20582070       0.14453768
H       -0.28391531      -2.13887145      -0.00000000
H       -1.52145135      -1.23484856      -0.87564365
H       -1.52139133      -1.23471640       0.87568993
9
Properties=species:S:1:pos:R:3 REF_energy="_JSON [[-3183.091336165866, -3177.3963343017467, -3174.830812173706]]" REF_forces="_JSON [[[3.505440041480891, -0.78491868654598, 0.16786055251414422], [4.171935523021981, -0.05367570186828618, 0.14469768112097395], [-0.9995066791676537, 0.19571241219593927, 0.6118321321405799]], [[-0.711098572817548, -2.32390989694826, 2.6630681787615513], [-2.37794580413098, -2.705869979650525, 0.8942781610220595], [2.578574977137844, -2.4566819604072685, 1.023042574046449]], [[0.42226904805558857, -0.024651843745256, -1.1564332557748256], [-0.49209419819795674, 0.20128472216821622, 1.0745114415448607], [-0.44203083074229244, 0.1390184712580186, 3.1217158895330055]], [[0.3783257120161945, 0.5335695910080989, 1.1321880290861488], [0.44890816574197595, -0.6144537034464008, 0.003161835521947957], [0.832751848217698, -2.233302028706266, -1.4684468188201147]], [[0.13603221230165216, 0.13826941989763483, 1.2748076320894477], [0.28159806016659095, -0.07310495165453382, -0.7261571533657918], [0.3968370628917989, 0.1294932095325587, -2.9093172561281535]], [[-3.6802567655889336, 2.571001633259448, -4.0455762862454065], [-1.858903726539451, 2.9028229086460557, -1.3430916176760894], [-2.0187579633524018, 4.233555983019928, -0.4309261386934504]], [[0.08543300030108951, -0.0788933727295202, -0.005894370205529339], [0.14557451961942983, 0.07656597784556915, -0.03351602605066583], [0.10443281838384491, -0.010629140963639802, -0.02214696295526494]], [[0.11540440416755757, 0.14514365478841557, -0.12196840833522507], [-0.2784180884577755, 0.011475000361151731, -0.18538171365541947], [-0.6394939517062832, -0.3900131133400285, -0.1836854703774095]], [[-0.2515490799179855, -0.1756104989845187, 0.09194792811095835], [-0.04065445122595925, 0.25495572759776847, 0.17149739153826435], [0.18719271833946188, 0.39284616741032286, 0.25793205125438323]]]" REF_nacs="_JSON [[[0.19226869227752266, -0.040341279085117865, 0.033243027874980506], [0.5097408719623547, -0.02220051874168265, -0.032323549730371895], [-0.09907125248672888, -0.278395179509088, 0.18871408551928898]], [[0.32439812000878687, -0.11103031257564973, -0.16865834276657019], [-0.540186845879624, 0.017188633016522934, -0.013085190911929806], [0.9137424375922735, -0.12772260850940167, 0.09999709380057509]], [[-0.0940418641917641, 0.007471960278532292, 0.08169339927173677], [-0.021538916808026696, 0.017081490228908255, -0.1043907799077547], [-0.21778728715940462, 0.0037433501161081846, 0.04062145681171578]], [[-0.0814827814617008, 0.13133379974798895, 0.12183852655158077], [-0.002942161992155384, 0.07849186962272081, 0.06386731815575916], [-0.13481892999671932, 0.009961089620954024, -0.005323542533549957]], [[0.012661541828875097, -0.018066407511716436, -0.09491559904668188], [-0.01969302032420418, -0.02627471549542399, 0.11271405458661567], [0.07688822472213694, 0.0020033694319391755, -0.12554199211631176]], [[-0.07510293259526592, 0.006879034602311572, -0.03236336848120859], [0.05908473529039411, -0.09634526113729894, -0.018089004759625295], [-0.36304641341618904, 0.1844769304011358, -0.20381583935849626]], [[0.01192599334619192, 0.023870004086761615, -0.007480969826856435], [0.00356334388797953, 0.009916268163564432, -0.00196365646928886], [0.03411100947986065, 0.06600362744938022, -0.005526108323437045]], [[0.02812154618751517, 0.02838203416288778, 0.026804883770504787], [0.015173557710170576, 0.020972271622898064, -0.0028975804659697175], [-0.018140856130144888, 0.08476539340804697, 0.0045191410594390725]], [[-0.019099077015237022, 0.0488141965292259, 0.01562284921595296], [-0.013271565250479806, -0.001428216161559539, -0.0030178221453788946], [-0.003483897953223543, 0.10377164782936774, -0.008868926024625995]]]" REF_dip_perm="_JSON [[-0.16717796859963024, -0.006437160626075003, -0.05634155078199223], [-0.305421088600926, 0.032738559088272404, -0.09751406235780621], [-0.23811186028144446, 0.044001872580644655, -0.13249487442783184]]" REF_dip_trans="_JSON [[-0.44455861329002705, -0.07677796851950826, 0.07473417659262813], [0.058526033739951557, -0.020185383256585015, 0.02110805965723423], [-0.7116569282781091, -0.11918137761907363, 0.11582924636926381]]" pbc="F F F"
C        0.00000000       0.00000000       0.00000000
C        1.44136911       0.00000000       0.00000000
H       -0.52078843       0.95765779       0.00000000
H        1.95692005       0.67173790      -0.68483439
C       -0.87048002      -1.22379842      -0.00000000
H        2.31490981      -0.85041748       0.86699759
H       -0.28391531      -2.13887145      -0.00000000
H       -1.52145135      -1.23484856      -0.87564365
H       -1.52139133      -1.23471640       0.87568993
9
Properties=species:S:1:pos:R:3 REF_energy="_JSON [[-3181.976721603164, -3174.283283167866, -3167.697021879241]]" REF_forces="_JSON [[[-22.88679107235454, 1.6628275225376288, 0.4369816868643893], [-22.74864967804002, -1.3736565223065285, 0.40683380457112656], [-24.99716164869485, -1.1749883782633763, 1.1309674683119615]], [[25.714617524777665, 2.4425844736506144, 0.8831351753127511], [24.954773960882108, 0.5041102597618453, -0.9072602178647233], [25.358932510358294, -1.9807072707796338, -3.2212339088366186]], [[-0.47193854509650485, -0.2128011931030258, 0.7363446539679956], [-1.3322476754567234, 1.2978291816237086, -1.0989356344714294], [-1.959044163375295, 1.7802817447132893, -4.27949140366787]], [[1.1384780609991465, 0.19154477179867627, 0.9682547671101014], [1.0144513347219781, 0.7070958010031458, -0.6680642178341382], [2.284289400551472, 2.2390030599489417, -2.9418814190489377]], [[-0.5156970487289979, -0.020202334447069883, -0.7732949150385476], [-0.9266606047165167, -0.2717468728858446, 1.4126718397638787], [-1.6537288885702106, -0.6089150268106135, 4.866162058856177]], [[-3.0943811925492635, -3.9208742931603675, -2.2767659193939296], [-0.7435275599202454, -1.2550222941055564, 0.8315428783617203], [1.2574532803278127, -0.5305199548202929, 4.465745474055085]], [[0.13762758783210108, -0.09426297450502247, 0.010736874479643197], [0.14534489451571617, 0.07047916350778892, 0.03639467709032154], [0.17587456865255208, 0.13715212453364387, 0.05485991254696321]], [[-0.12780891164481334, -0.1162064646766906, -0.06132779994222037], [0.0270237793401852, 0.4224067853245378, -0.1801696850938897], [0.438184865439988, 0.868128506949455, -0.2609082576160072]], [[0.1058935967644579, 0.06739049190656587, 0.07593547663970193], [-0.3905084513249575, -0.10149550192513845, 0.16698655547686544], [-0.9047999246879693, -0.729434805472338, 0.18578007539894004]]]" REF_nacs="_JSON [[[-0.010189958785517487, -0.06035904789552933, 0.030370469563144036], [0.12087732122109848, -0.034430323610237235, -0.028754429679716684], [0.16046565810619898, -0.145118321524968, 0.03800760832319809]], [[0.46498107043330444, 0.07574974237789828, -0.0470597767446137], [-0.06309831590315478, 0.049103418663259464, 0.08776974545344159], [0.2019295531634399, -0.01818933557748576, -0.1665943087912582]], [[-0.12124778194777854, 0.10706304538402825, -0.07921557026796146], [-0.010986276038092184, 0.01810024465499341, 0.03751185261028735], [-0.12672262390343034, 0.12523576309743198, -0.005506825853047612]], [[-0.14463879702765184, -0.09850309553186976, 0.1092307988934389], [-0.00931481844050758, -0.018487492543255823, 0.0035291061769611443], [-0.15327294329407534, -0.11747222320151982, 0.16670848989542783]], [[-0.06110836607167453, 0.018007676250087434, 0.07036382774581558], [0.004353935321166613, -0.0038613467322536127, -0.042232546902262386], [-0.02746600934546772, 0.025904168164283124, 0.0039012846610783653]], [[-0.2315961306868347, -0.2767895330652631, -0.15959562434189886], [-0.03576286293740886, -0.018534888393110273, -0.06007899493413367], [-0.1297748833062202, -0.09792723629025765, -0.10412990757784688]], [[0.01417669581690558, 0.009817181994757253, 0.00852557597474292], [-2.2533275126974974e-05, 0.0022900940159853458, 0.0010208945916621705], [0.010145650744348618, 0.008353681538929314, 0.0057778781780400265]], [[-0.031695101902093625, 0.010457491031700584, -0.02109136304408446], [-0.0067379573958705865, -1.173444450207018e-05, -0.0003947803957073068], [-0.040601833952116556, 0.008119902327101927, -0.01676242652258332]], [[0.013868893017684222, 0.012521111183997064, -0.018127994593137506], [0.002501142689742899, 0.009234654821391724, 0.003424475875341116], [0.012409569974085795, 0.03643813138268763, -0.013555001931349807]]]" REF_dip_perm="_JSON [[-0.1428858536589649, -0.06754240597403709, -0.03359631974610186], [-0.3777686198134834, -0.44180919708249833, -0.15944563101909964], [-0.48990208833458687, -0.607240415216306, -0.2491877988728346]]" REF_dip_trans="_JSON [[0.09561859759967815, 0.19462303609583345, 0.14327060482380366], [0.03328784057115179, 0.05256981524558371, 0.016809043472334934], [0.10588135352755675, 0.21755504375954057, 0.16309716513206346]]" pbc="F F F"
C        0.00000000       0.00000000       0.00000000
C        1.12701709       0.00000000       0.00000000
H       -0.52078843       0.95765779       0.00000000
H        1.64256803      -0.88190187      -0.37746397
C       -0.87048002      -1.22379842      -0.00000000
H        2.00055779       1.11648422       0.47786787
H       -0.28391531      -2.13887145      -0.00000000
H       -1.52145135      -1.23484856      -0.87564365
H       -1.52139133      -1.23471640       0.87568993
9
Properties=species:S:1:pos:R:3 REF_energy="_JSON [[-3177.5719731860936, -3175.6387217622496, -3174.995694941385]]" REF_forces="_JSON [[[-30.26024324130696, -0.47365973528494404, 1.1266791545698849], [-27.259280529208926, 0.32450625371497216, 0.8537653576755271], [-27.549447086243998, -0.527997809436929, 0.9334880849913045]], [[32.52046107876452, -0.028288691493097783, 1.3418604368790927], [26.2424796990646, 0.26601941447515975, 0.8893442629868792], [34.3976729099774, -0.5442672779397476, 3.3208787532452355]], [[-0.8989772775174227, 0.3374250962558471, -1.2472087942864394], [-0.15106687976391078, 0.11559504148374165, 0.7091402624164986], [-2.63465133405194, 0.8981025895033072, 0.9928777010800961]], [[1.6642144684835065, 1.2660753713375552, 0.6273587131918514], [2.624616509026847, -0.6206875105462768, 0.16455014649219982], [0.5811993543208923, -1.0382527199931109, 0.3326222106887444]], [[-1.0335454728728501, -0.253949102624027, 1.3438657211826461], [-1.0356635563974828, -0.5018367755650491, -0.5281851903544149], [-1.4464606428810594, -0.6115503881944021, -1.2151849059245519]], [[-1.9593095367899476, -0.7844938441431896, -3.175468143367106], [-0.5159449691373087, 0.6082818791262692, -2.1501831088258343], [-3.0955522185138475, 1.2493941901153887, -4.406371911600269]], [[0.1560106308457792, -0.01067905278895939, 0.0112826010764271], [0.07670067659551191, 0.006596267999621283, 0.011138324697461845], [0.2922118089444197, 0.18797113004807134, 0.001997750449832952]], [[0.07423703060411761, 0.16745060002244733, -0.1204503150195982], [-0.07356781144035544, -0.1633622410811059, -0.1320293633024872], [-0.43094422915958175, 0.025019144270451876, -0.13474987653118525]], [[-0.26284768021068927, -0.21988064128313167, 0.09208062577411193], [0.09172686126031285, -0.03511232960905254, 0.1824593082146275], [-0.11402856239203078, 0.36158114162723676, 0.17444219360174104]]]" REF_nacs="_JSON [[[0.26009255654609376, -0.08933202333077142, -0.0503924906032547], [0.2429832272845481, -0.35791738495488207, -0.15694893163280677], [-0.11658491183108854, 0.694649716938218, 0.27160503115619417]], [[-0.696423280079193, 0.08809383576542906, 0.021051241217999436], [-0.015405437036899096, 0.08085016848212029, 0.18735252872212682], [-3.1895772406388683, 0.2752182256605772, -1.1813209774112752]], [[0.16978858931459445, -0.04297877774410674, -0.9583456305874346], [-0.004352701742088567, 0.02119800187690886, -0.925200965863019], [0.9280930858598293, -0.2964276360881015, 1.070215048718632]], [[0.11362712588871401, 0.5855937791275254, 0.01591874797401582], [-0.06137553329476519, 1.1449442183350382, 0.09123277307266218], [0.9794687915629041, -1.1368896474802228, -0.22677671223520748]], [[-0.006751633884401864, 1.922566354911879e-05, 0.9853735279260172], [-0.0539978187468442, 0.006830298398510599, 0.955066643941286], [0.1848344387502431, 0.00022585945232977652, -0.9718612078153265]], [[0.14225272315290272, -0.5498413020938446, 0.05510232923853512], [-0.0924931211212631, -0.8896855809712019, -0.15834996565361134], [1.0652411503547161, 0.7654273442859066, 1.018836144198531]], [[-0.008348240541314372, -0.0022932904823378137, 0.0110960215977116], [0.006594190123467759, 0.011725099482716227, -2.5369593013450598e-05], [-0.09077638410633507, -0.08282478571401532, -0.0013224811674579329]], [[0.09955500445854706, 0.10449998081011748, -0.03758287293723085], [0.13867773619010668, 0.13885896167142042, -0.0016363122400166077], [-0.021275075286052353, -0.24483543151728643, 0.01446033069469322]], [[-0.07252179678754311, -0.13573786061160137, -0.03237697791846823], [-0.16138796940406772, -0.1317896889767113, 0.00264354264944872], [0.260900239903925, 0.014753113363018369, 0.008674841601884514]]]" REF_dip_perm="_JSON [[-0.2251829921136752, -0.029946673063638168, -0.16152757436334592], [-0.28443509969092373, 0.004615876588528378, -0.39569415200744373], [-0.20240653192762115, -0.07556413367941792, 0.0106533040925081]]" REF_dip_trans="_JSON [[-0.005485103559866042, 0.011459884797014645, -0.05171582350681508], [0.016429151915466046, 0.0006099844386124929, 0.027855379242686315], [-0.030797656974882837, 0.0194171842672436, -0.12698832636063592]]" pbc="F F F"
C        0.00000000       0.00000000       0.00000000
C        1.10226962       0.00000000       0.00000000
H       -0.52078843       0.95765779       0.00000000
H        1.61782056       0.07048043      -0.95669351
C       -0.87048002      -1.22379842      -0.00000000
H        1.97581032      -0.08922795       1.21117013
H       -0.28391531      -2.13887145      -0.00000000
H       -1.52145135      -1.23484856      -0.87564365
H       -1.52139133      -1.23471640       0.87568993
9
Properties=species:S:1:pos:R:3 REF_energy="_JSON [[-3184.100053266032, -3176.554215102921, -3171.2415552536663]]" REF_forces="_JSON [[[0.30575254687060066, 1.631291220523757, 0.18062304263932413], [-0.20941643622076367, -1.9245742460381436, 0.23473227089197796], [-11.003704681680533, 0.05227292569410718, 0.2312199562285511]], [[2.839202283583013, 3.5720429170583046, 1.5287450154856912], [0.9328995996339455, 0.5873711580827747, -2.194573789820061], [12.638969946764384, 2.1276728799996394, -0.4896779446657851]], [[0.11001557730571943, -0.32455885739965795, 0.3767547242226084], [-0.5425245709333355, 0.7267699382372037, -0.6651502489084566], [-0.49600649242163314, 0.06954522522700152, -3.272267474278166]], [[0.5751103824216771, 0.33863904235391207, 0.4502775610801246], [0.18914691861307215, 0.3836696120636624, 0.1026217742620559], [0.9967711518114529, 1.5763716401309191, -2.4537920185390423]], [[0.16131498118534737, 0.05963302225606514, -0.4019373650252886], [0.18511361992885825, 0.08206673878916022, 0.9723338315922798], [0.5490386410088418, 0.5240067490512714, 3.786919650242697]], [[-4.079423980564863, -5.0519124150967265, -2.111279161480371], [-0.11484528510394088, -0.4062744205225858, 1.3556219269434147], [-2.023315090099029, -4.15016264601891, 2.1465656353941878]], [[0.09514161589704984, -0.15324245696149869, 0.016140784107171156], [0.07942907068307137, 0.08382525369347443, -0.006773034634030941], [0.09719124468277719, -0.041948850186508665, 0.027333232111162932]], [[-0.09506068380108139, -0.0753579693204805, -0.10486199256185644], [0.0026324304720082604, 0.4163708455628328, -0.1122229010977314], [0.20411784146073322, 0.5358672987055793, -0.27649627174070207]], [[0.08794727710130544, 0.0034654965827834684, 0.06553739153270914], [-0.5224353470700034, 0.05077512013126331, 0.31341017077089445], [-0.9630625615263878, -0.693625222601662, 0.3001952352474958]]]" REF_nacs="_JSON [[[0.21375353600101743, -0.10526526553997027, 0.09474131462544608], [-0.46058087648834034, 0.11196734779980491, 0.011661325043500863], [-0.17876399216185124, 0.07153698966189474, -0.04955799245516028]], [[0.3791839542505572, -0.02979052269714143, -0.18697143988568557], [0.5100982949908209, 0.10633884137008752, 0.05686497837248279], [-0.4230197058652282, -0.047647053699471545, -0.03591982343345857]], [[-0.041007956394281654, 0.04241086311905441, -0.025147375508264], [0.02663164855968548, -0.048298504067630796, -0.04650208535308297], [0.0938895167513148, -0.044525723676603846, 0.06808382629422843]], [[-0.08304223607989612, -0.062314840021380415, 0.13418863679008064], [0.013574318853036548, 0.024639925395006517, -0.040220743387178536], [0.03138126052493578, 0.008100231313973586, -0.011627891973803116]], [[-0.004159673976161794, 0.006192517724763248, 0.002968033476227615], [0.013954970561655637, 0.022359340692704593, 0.048520892656986725], [-0.04256262145518123, -0.008048636722913196, -0.022561088422140912]], [[-0.03138343289263804, -0.007815428468709716, 0.017740633640753106], [-0.11345870068281043, -0.17319234678291837, -0.02221487406893135], [0.18004049115609944, 0.19509858569387256, 0.04660768138390213]], [[0.010699803533407798, 0.02090888946355609, 0.009214107319218389], [0.0006038953459405687, -0.010274103026054218, -0.00029947100256965705], [-0.012095764324348153, -0.030115850625660624, -0.0078013886899491675]], [[-0.025749062969223142, 0.028547687291545946, -0.016204733807620105], [0.004967177947492147, -0.010678203202948384, -0.0026084031252070266], [0.012147918778003162, -0.043280516478816734, 0.005790918655638121]], [[0.03879942579356127, 0.041432366068356055, -0.02949904281273758], [-0.0012517796379257077, -0.022077434415498795, -0.005213926470071933], [-0.014336449518362271, -0.05033886698492094, 0.006189498069906745]]]" REF_dip_perm="_JSON [[-0.14055199517006486, -0.05914176458000344, -0.02845600162915785], [-0.3668384172561906, -0.3171007907621475, -0.09057910907812193], [-0.2800005603676792, -0.20404085745285447, -0.07773143670077828]]" REF_dip_trans="_JSON [[-0.4943069973096236, 0.06263421846251908, 0.042294615239339216], [-0.05699850392463423, -0.06741980504903823, -0.01634162828030079], [0.6355439042618386, -0.0851071617209988, -0.05568034307267649]]" pbc="F F F"
C        0.00000000       0.00000000       0.00000000
C        1.35035918       0.00000000       0.00000000
H       -0.52078843       0.95765779       0.00000000
H        1.86591012      -0.90998662      -0.30356929
C       -0.87048002      -1.22379842      -0.00000000
H        2.22389988       1.15203939       0.38431750
H       -0.28391531      -2.13887145      -0.00000000
H       -1.52145135      -1.23484856      -0.87564365
H       -1.52139133      -1.23471640       0.87568993
9
Properties=species:S:1:pos:R:3 REF_energy="_JSON [[-3182.832828542862, -3176.5681650199663, -3173.9866611006855]]" REF_forces="_JSON [[[5.980789499591813, -0.8027439606950889, 0.18755313348661953], [5.8180252084879776, 0.040188125597438305, -0.1842037450745111], [0.16658572879249134, 0.0989208882754955, 0.34387898652464055]], [[-2.9980764995302183, -2.9134236491939904, 2.704508189478213], [-4.475552690262133, -3.211700245743329, 0.034016243147625885], [1.31249508723248, -3.076193682266998, 0.7736229085171274]], [[0.6713290742642134, -0.020656677283042237, -0.8782524370798549], [-0.31447810588988273, 0.14249957962189985, 1.176297877272549], [-0.06906094625506407, 0.052656155602827985, 2.6576735005171703]], [[0.2150627091797705, 0.11549892936266193, 0.8113391708100605], [0.09367279930399323, -0.41993567815470195, 0.08571677740105753], [0.48008864799840917, -1.6012571379605585, -1.3379444250198946]], [[0.3055120819728276, 0.14936811565077626, 0.8514883065646724], [0.7691640032442928, 0.09114830449009062, -0.4801004724188446], [0.8885052172201888, 0.3756674929857562, -2.2921669119522847]], [[-4.114188267117559, 3.6227143179457144, -3.668873816288252], [-1.7109432583723567, 2.943814372631242, -0.5204640271660044], [-2.342457512698442, 4.252969528848628, -0.15070958532201414]], [[0.0637471293832359, -0.09946047523083974, 0.002066471914954292], [0.1494605529465184, 0.06961721242188333, -0.05562016206882438], [0.09041381026821278, -0.05104829436574978, -0.029253870670972126]], [[0.0648015551256903, 0.07787136281068742, -0.12373588813523229], [-0.25316511071294634, 0.09763616896073218, -0.2110873715076205], [-0.6001646124302992, -0.3265511073835532, -0.2287633653492929]], [[-0.18897728286721896, -0.1291679633690309, 0.11390686924880845], [-0.07618339874267162, 0.24673216017503619, 0.15544488041535665], [0.07359457987215981, 0.27483615626354096, 0.26366276275510125]]]" REF_nacs="_JSON [[[0.2808558447655444, -0.011167812539704341, 0.048886379228552844], [0.507923939705101, -0.0011310306511813526, -0.04471003448752459], [-0.10407596156449178, -0.33053226591745194, 0.2019503771997741]], [[0.25765176006923907, -0.07442369353081883, -0.25705233588276283], [-0.5919848821291975, 0.02251687901945807, -0.06497372109384443], [0.9444862284260632, -0.0653367143416771, 0.13292301508653184]], [[-0.08542236537295787, 0.0008174072351167129, 0.05744380222657042], [-0.03134083956045961, 0.01678344130977522, -0.06580593037616399], [-0.1865901319653957, -0.010515097329766611, 0.019874247688125648]], [[-0.06600364326343953, 0.09856948715396713, 0.12839374996904046], [-0.008241658585237946, 0.05800439173416168, 0.06442547602904945], [-0.10883924540116958, -0.03634097136752633, -0.04932415705577232]], [[0.021179781992869774, -0.019540890395915653, -0.06368681804561623], [-0.009611728884719624, -0.024889018919817138, 0.09560041243979395], [0.07140051930201766, 0.005541669428358203, -0.12342182174494552]], [[-0.01014368011158335, -0.021853247895565153, 0.04674218921403915], [0.10331083983223596, -0.11212018057666567, 0.02658857243385702], [-0.38551753875456835, 0.21767500092106173, -0.17602840663101127]], [[0.010480820688021582, 0.02286934525020422, -0.006233630305257596], [0.004733245705718433, 0.010600964399518811, -0.0033569487702986758], [0.03303318836599658, 0.0718821917232463, -0.004081148157305699]], [[0.03448205650240247, 0.032861565333952486, 0.027772804472690253], [0.013997344273942487, 0.022692840287236376, -0.0023763934805558643], [-0.016791556977348646, 0.08621386720482101, 0.005388928548668111]], [[-0.013198800078157323, 0.050340356917600505, 0.011492404339442602], [-0.009519241381365971, 0.0037570234880656243, -0.005090410480646922], [0.009921403633841325, 0.10833114591691947, -0.01101280933960375]]]" REF_dip_perm="_JSON [[-0.17574100157451508, -0.014378525318367929, -0.04614211033852981], [-0.3591560463159219, 0.03693992075696135, -0.07202691193754353], [-0.19140762523996818, 0.05922504231377329, -0.0965542864761087]]" REF_dip_trans="_JSON [[-0.5727148686800733, -0.07651024930184865, 0.048268221650162646], [0.0763819529330335, -0.03041776171377348, 0.01571163889521318], [-0.9639128946229041, -0.12188504135645103, 0.0774835432489731]]" pbc="F F F"
C        0.00000000       0.00000000       0.00000000
C        1.54603189       0.00000000       0.00000000
H       -0.52078843       0.95765779       0.00000000
H        2.06158283       0.77442695      -0.56612088
C       -0.87048002      -1.22379842      -0.00000000
H        2.41957259      -0.98042140       0.71670676
H       -0.28391531      -2.13887145      -0.00000000
H       -1.52145135      -1.23484856      -0.87564365
H       -1.52139133      -1.23471640       0.87568993
9
Properties=species:S:1:pos:R:3 REF_energy="_JSON [[-3182.4791330425205, -3177.8492234675628, -3175.678518958538]]" REF_forces="_JSON [[[-4.036907079156251, 1.075557588339433, 0.6920522689297204], [-2.2267067060573544, -0.4523786800305822, 0.17387545040168986], [-5.890758527868575, -0.6733816511020803, 0.27219018864249156]], [[6.645912554317157, 1.4940635051803524, 2.395028331202424], [4.575148907353596, 1.9362802329029667, 1.824546225740289], [7.837708057117202, 1.4887299314965843, 1.708934852032112]], [[-0.20919003775384404, -0.07238863242479272, 1.7184856676821443], [-0.6966781905374491, 0.3172009198510489, -0.690355181848765], [-0.7445692770510065, 0.3731082149076239, -3.2723357006692564]], [[0.7788163607404941, -1.2966920190515412, 1.297500663926126], [0.9576195873653685, 0.6864239662550161, 0.0657070198888256], [1.324432038911401, 2.9972477786775724, -1.2708546129419183]], [[-0.03348060770410185, -0.04128415022150347, -1.793590786121585], [-0.4916552590575313, -0.26968281141240996, 0.8796937365019266], [-0.5407132938271162, -0.17349907637662962, 3.6478807880440787]], [[-3.152962576741681, -1.069575221620484, -4.375403719982443], [-1.9145610022551138, -2.408553434257376, -2.3179017547862535], [-1.6907377481757013, -4.062366131572802, -1.0411651723520543]], [[0.10125031172067799, -0.0990437373226442, 0.015199124807113646], [0.12446649851271026, 0.0601606744568902, 0.024151746513407894], [0.11893448079419905, 0.03725024345606411, 0.018388627486569064]], [[-0.30404520946568064, -0.20815308267461008, -0.07237428152409761], [-0.019776497131441653, 0.22624172389312383, -0.15976728903614518], [0.30186489387513, 0.5317905625700518, -0.22531275183517588]], [[0.21060628404437182, 0.21751574979411914, 0.12310273108127413], [-0.30785733819596356, -0.09569259166105612, 0.20005004662569406], [-0.7161606237751759, -0.5188798720579073, 0.16227378159308203]]]" REF_nacs="_JSON [[[0.0759864141393807, -0.09045993819845599, 0.0738134100782444], [0.48932137087620703, -0.0016914515319745478, -0.01513426024961629], [-0.09873108960868675, -0.2659413507014112, 0.13714486775899168]], [[0.4586387551613279, 0.10166539290566061, -0.0004587942370162217], [-0.45841714199912265, 0.014183932612504184, 0.024401137486671873], [1.2015616708025239, 0.1322566336622731, 0.20213836948945907]], [[-0.1111514788822191, 0.03641400442622101, -0.13465539885918187], [-0.023020120751107757, 0.014198771633698282, 0.16768734739565405], [-0.3200082927030364, 0.058067858375761026, -0.1138798168085955]], [[-0.12624885231142666, -0.17504902932295696, 0.0966628322690214], [-0.0059994748318400355, -0.14488318678590373, 0.07248243319929296], [-0.2647891851041128, -0.08673059313970329, 0.057839052557470606]], [[-0.021597709977602443, -0.005846887381548167, 0.101258156158731], [-0.016284723875400572, -0.026724405960269114, -0.18326067096459234], [0.0476094561807239, 0.011560617810254957, -0.0036619074376717507]], [[-0.1505029036872056, -0.009451588304277022, -0.13372656554475837], [0.011467367060908682, 0.12046915735696485, -0.07563673866494099], [-0.4587433613742013, -0.1461837495377433, -0.31722138643695846]], [[0.017522395592013917, 0.02565166806265208, 0.009509294531752999], [0.0014904234934085482, 0.008754419985206142, 0.0016665529638698042], [0.04426721451298181, 0.07127001593478643, 0.009998268856827478]], [[-0.03191754055874076, 0.037040431129125126, -0.019759939052290884], [-0.023229650672149257, -0.014674683214481685, 0.002278669816918216], [-0.04815229716391179, 0.08427836586736169, 0.006954766610207696]], [[0.02005754475140328, 0.02941062015552027, -0.026388299340658287], [0.023590025910251073, 0.030786240991559993, 0.00579468509339612], [-0.01937561698227656, 0.10904713031006369, -0.0008924532141004261]]]" REF_dip_perm="_JSON [[-0.17188524250097104, -0.07886817776673673, -0.06615999559345757], [-0.2480010911666142, -0.11766519198676573, -0.12372364711852234], [-0.2717352452910215, -0.12394016922632396, -0.1628516903302865]]" REF_dip_trans="_JSON [[-0.24210796249502714, 0.03386761929412138, 0.09942488725279622], [0.034283274763589014, 0.018052957321998693, 0.02696595004074013], [-0.379556789840294, 0.05239036649088662, 0.1546045874084569]]" pbc="F F F"
C        0.00000000       0.00000000       0.00000000
C        1.29724561       0.00000000       0.00000000
H       -0.52078843       0.95765779       0.00000000
H        1.81279655      -0.50020699      -0.81854928
C       -0.87048002      -1.22379842      -0.00000000
H        2.17078631       0.63326003       1.03628010
H       -0.28391531      -2.13887145      -0.00000000
H       -1.52145135      -1.23484856      -0.87564365
H       -1.52139133      -1.23471640       0.87568993
9
Properties=species:S:1:pos:R:3 REF_energy="_JSON [[-3183.4252481722265, -3177.3867392949205, -3173.8290475826693]]" REF_forces="_JSON [[[-1.862854720084505, -0.9678131830451104, 0.21476323316220827], [-1.547974068587007, -0.03720132005861567, 0.4382258780417347], [-7.3691008918234555, 0.11644339841794428, 1.0537300921268655]], [[4.670943494066629, -2.1937055899404676, 2.200722400366006], [3.4389726767420443, -2.4587233534010866, 0.29810844062052333], [8.923937852151312, -2.133050075136224, 0.07708816373733683]], [[0.20218055609905397, -0.029047144013846404, -1.2463354539821423], [-0.8545736618229084, 0.32381896013258793, 1.2513341759832073], [-0.9876397145069997, 0.31828726943568303, 3.8157722143457837]], [[0.613270416238216, 0.5006018837837993, 1.2967496732083805], [0.7273081190649139, -0.7500673184435166, -0.15107970370887377], [1.2514949944564127, -2.5735842803989257, -2.031565912249116]], [[-0.16355440458286452, 0.1154630354302525, 1.365679085717004], [-0.13096869576881423, -0.22563477479463542, -1.018616116144722], [-0.04042607425872936, -0.0451298390329043, -3.645445492915007]], [[-3.4347743518022433, 2.668810311990695, -3.7910988310346423], [-1.5005535489575275, 2.830292467819368, -0.8061954656989448], [-1.4632805554932613, 4.249615322866418, 0.664206926404449]], [[0.11178712543933303, -0.055328435757070846, -0.0062531884749869125], [0.15956620764431675, 0.08315783398200384, -0.027371548986283877], [0.12891642096742945, 0.029287864398132184, -0.03156438450617746]], [[0.12217789264920187, 0.15495415696848044, -0.11252624461567544], [-0.29050680564878106, -0.06878544397583165, -0.16002527129389366], [-0.7190123657357657, -0.5020846861818383, -0.16517360374089574]], [[-0.2591760080209694, -0.1939350354184964, 0.07829932565431473], [-0.0012702226674518693, 0.3031429487391692, 0.1756196111880467], [0.27511033424341824, 0.5402150256318434, 0.2629519967966925]]]" REF_nacs="_JSON [[[-0.1209440303951381, 0.054363043918674574, -0.017971926647065598], [0.42171350519590894, -0.015999148548608306, -0.02232816091314319], [-0.01956845607703079, 0.17170973021264896, -0.10403955642783203]], [[-0.42872137981820163, 0.10988112278524731, 0.12143048991819243], [-0.4137498555010292, 0.009650082179291824, 0.012996092689163916], [-0.6679749838005083, 0.1764205919510453, -0.03470259939017923]], [[0.10677949908178817, -0.02134435592295797, -0.09219967521210282], [-0.02184129519644219, 0.01597656636457765, -0.0784741378640763], [0.18778401969446068, -0.0315506373302744, -0.03692977388587421]], [[0.10442828568587702, -0.12693467448476117, -0.13058490420108335], [-0.005070138456640579, 0.05639626302627104, 0.046050758972400734], [0.1203011475725683, -0.07273721188598989, -0.06486547303510534]], [[-0.0017173037060947702, 0.013483637087431298, 0.1065814882041112], [-0.018929401855861335, -0.025026549067597416, 0.07685972693207521], [-0.05313750778016874, -0.007200887208285375, 0.08480845337300676]], [[0.124546232190049, -0.04120918894355062, 0.09284256002223518], [0.03326911031533993, -0.06510468085953494, -0.030948823614131038], [0.26415224605232546, -0.15067368753991917, 0.1868752062118865]], [[-0.010950150838408544, -0.01959023148874121, 0.007718781946081546], [0.0029905934515672555, 0.00796530950573087, -0.00115342743940696], [-0.019969899023192152, -0.03450569819382049, 0.006063244561939398]], [[-0.02280396423673194, -0.025881326904380372, -0.024104429388506984], [0.010805436521073707, 0.014894963503408085, -0.0017139924324649555], [0.007129697392815638, -0.06084931015303333, -0.0045602825681142906]], [[0.021687318569144156, -0.0411715665995062, -0.016377645180707612], [-0.009864300121167145, 0.0009548964718871114, -0.001147433437887867], [0.0166026687577761, -0.061783380882895325, 0.0015856941658047732]]]" REF_dip_perm="_JSON [[-0.1485154284618068, 0.0017126065949769715, -0.05747620990460643], [-0.2858716405984536, 0.06502950035753186, -0.1278750421469494], [-0.31635129115821886, 0.05692033103169268, -0.1606052734618448]]" REF_dip_trans="_JSON [[0.32059992541600746, 0.10502983648601331, -0.10408826512513054], [0.04536904053333621, -0.02084768610718761, 0.02318305626462006], [0.4438546255630167, 0.14494018855705637, -0.1436077462705399]]" pbc="F F F"
C        0.00000000       0.00000000       0.00000000
C        1.31677539       0.00000000       0.00000000
H       -0.52078843       0.95765779       0.00000000
H        1.83232633       0.71345526      -0.64125778
C       -0.87048002      -1.22379842      -0.00000000
H        2.19031609      -0.90323149       0.81182977
H       -0.28391531      -2.13887145      -0.00000000
H       -1.52145135      -1.23484856      -0.87564365
H       -1.52139133      -1.23471640       0.87568993
9
Properties=species:S:1:pos:R:3 REF_energy="_JSON [[-3181.8613670955297, -3177.3561613162174, -3176.2987720262113]]" REF_forces="_JSON [[[4.055265443006548, 0.8092464181257497, 0.5174752169517565], [6.92579278611629, -0.6798492147846008, -0.15789417173871478], [4.779510344019141, -0.33407826509858646, -0.3561395729327791]], [[-1.4719977192136446, 1.3808707775459776, 3.2777625045274354], [-4.387735324781567, 1.8092359781270346, 2.706604360461619], [-3.4862370768127215, 1.6150495594376397, 2.7038970120148833]], [[0.31400497665246574, -0.10071042484150151, 1.1588395320262117], [-0.29065773258213706, 0.1325116331837254, -0.4308480456064358], [0.162266479792256, 0.15363111364711474, -1.841973295565627]], [[0.31931982245428525, -0.8815213500777402, 0.8319942588715293], [0.2877416899133766, 0.5122870288927825, 0.15703422865714067], [0.7656541326618294, 1.8859194500745775, -0.4609016352196043]], [[0.5026703588305964, 0.07383516186658509, -1.2228267556583954], [0.301258103794736, -0.12742117352130822, 0.6970709216675882], [0.22337296502208223, -0.011113694927423692, 2.390545277326098]], [[-3.6730642642507956, -1.131501926873816, -4.614612578208279], [-2.5904991756743394, -2.1563103822222303, -3.0393750488408777], [-2.0975387508340173, -3.1501239388969475, -2.3797761019052204]], [[0.05842459290721616, -0.14165803557861087, 0.016955370608554118], [0.12778787722183493, 0.13052327961630478, 0.014502128267949879], [0.03871545302757931, -0.05921117436765385, -0.009605115947072607]], [[-0.23884108808344554, -0.13967358718621278, -0.10132846879324692], [-0.058602496856458526, 0.31387546466784, -0.16588249483747558], [0.15857878691106297, 0.28617041328716647, -0.24171593596153884]], [[0.13421787769480858, 0.13111296701980227, 0.1357409196751052], [-0.3150857271526143, 0.06514738603985275, 0.2187881219687703], [-0.5443223337881513, -0.3862434631549474, 0.19566936819034367]]]" REF_nacs="_JSON [[[-0.26588188851813715, 0.11830729751670423, -0.0930080500558392], [-0.5628229099988797, -0.024430095766190887, 0.025297194319516898], [-0.48273686451961545, -0.5216041520928936, 0.45338652718437555]], [[-0.11209692436185023, -0.15186191715967928, 0.08583753538570371], [0.6313326959375417, 0.018804520856115548, 0.014155307197876579], [2.1435697134159595, -0.0557688282104935, 0.23228373747265282]], [[0.060195596085827176, -0.014540962239451142, 0.058455232991427075], [0.019560379570615773, -0.01018617893606182, -0.27657077193066576], [-0.529460884683855, -0.024863311091743806, -0.43673072325212614]], [[0.07188625537905113, 0.21839756641323513, -0.09420726060483664], [-0.006950510715402249, 0.20883688061534844, -0.0903091326126949], [-0.4006624271150642, 0.26509800838677616, -0.13852784158196477]], [[0.017222953809218032, 0.01086259160626614, -0.02295961128925606], [0.011415040069773017, 0.03220004500994306, 0.29212167992347926], [0.14059417968150995, 0.0011271913532878942, 0.14838360824319158]], [[0.0488146624769532, -0.04728207894360118, 0.034507117372180235], [-0.0530995460983072, -0.2083548819357053, 0.054464108467080795], [-0.8256351292674206, -0.3517275974218136, -0.3025381251470704]], [[-0.01401683085950777, -0.02817557628250308, -0.009926216393828319], [-0.0007509931599746201, -0.007743928982285488, -0.0016509486753377685], [0.10339330032500908, 0.20087442488829543, 0.01810240387468336]], [[0.03627608066937756, -0.03267132360614314, 0.019483121575281585], [0.031909283637388756, 0.025197208644528506, -0.00777412867370752], [-0.013406552330708978, 0.23792247926568966, 0.033873899897810415]], [[-0.03692835600760523, -0.034068516486425914, 0.02930002004011311], [-0.03534882629449477, -0.04138361481940391, -0.011088874673629286], [-0.052018436557139835, 0.23218801045691262, -0.011450301464480677]]]" REF_dip_perm="_JSON [[-0.19342502834054282, -0.08195361780290968, -0.06388234957485217], [-0.5255865972549678, -0.08509943419606578, -0.05494664874134723], [-0.01005245524335863, -0.0822513357011369, -0.15227958202820402]]" REF_dip_trans="_JSON [[0.36181986037642505, -0.011374671655386154, -0.05364026332392846], [-0.08835596265361066, -0.008600892837210296, -0.02065681215192584], [-0.8269747709117803, 0.019483678400061044, 0.10327489805622829]]" pbc="F F F"
C        0.00000000       0.00000000       0.00000000
C        1.53270402       0.00000000       0.00000000
H       -0.52078843       0.95765779       0.00000000
H        2.04825496      -0.41461782      -0.86505608
C       -0.87048002      -1.22379842      -0.00000000
H        2.40624472       0.52490449       1.09515751
H       -0.28391531      -2.13887145      -0.00000000
H       -1.52145135      -1.23484856      -0.87564365
H       -1.52139133      -1.23471640       0.87568993
9
Properties=species:S:1:pos:R:3 REF_energy="_JSON [[-3181.3674393499946, -3178.330556423077, -3177.9051480360063]]" REF_forces="_JSON [[[-3.986698154205546, -0.3091896982834683, 0.4998249713406541], [0.22658894470510957, -0.33430399915314674, 0.3399060937427375], [-0.4840983940329265, 0.27487805308494834, 0.4906704143760918]], [[6.342289575010748, -0.493766895723366, 2.7623674278882397], [2.730909640182277, -0.6307484777941847, 2.8578243961996708], [2.2468597527742893, -0.5124809302655587, 2.4086569642373976]], [[-0.048759845387480426, 0.024496143266272172, -1.184814440920214], [-0.794038880478168, 0.2721848931319293, 0.294123806302638], [-0.501860025105864, 0.23411513711742624, 1.769457360761395]], [[0.8305513132679896, 1.1858950547566542, 0.6989310830142749], [0.7699977330340481, -0.23041475529670125, 0.35323176830944947], [1.2083113880352285, -1.6832971383788513, 0.09966490957747852]], [[-0.09391765284958221, 0.07965211116266593, 1.3756729014833877], [-0.35893880061828487, -0.30356085851171494, -0.22891749630037], [-0.3465708610700957, -0.2940576682746127, -1.7064564723952989]], [[-2.9421803284103065, -0.343515693125253, -4.117781596534079], [-2.40074388531236, 0.8610132863812635, -3.6349768244801206], [-1.9574173723364547, 1.9562038926759968, -3.1374244460502356]], [[0.09502185910231169, -0.08230886465283561, -0.0018570857018393172], [0.1535334483896681, 0.11549684648709066, 0.0022018372877825577], [0.09523476091862125, 0.009050715640500329, 0.003864480557860898]], [[0.08912247277327222, 0.15675778903758972, -0.12955234935314497], [-0.20339507360116016, 0.09639134555686653, -0.1586095938120289], [-0.36878795598467834, -0.20657381207970135, -0.13863173724641342]], [[-0.2854292392997422, -0.21801994643759331, 0.09720908878207186], [-0.12391312629774281, 0.1539417191997317, 0.17521601275005474], [0.1083287067979833, 0.2221617504807379, 0.2101985261810103]]]" REF_nacs="_JSON [[[-0.09497567243083693, 0.0823680742057771, 0.02432097503489225], [-0.5378694176609043, 0.1868548236846928, 0.09352406263458168], [-0.8064033713488032, -1.3141988753360911, 1.035703473008943]], [[-0.23246881711305653, 0.13737622089365778, -0.004671750669428479], [0.5273193129157294, -0.06252773001163352, -0.0866810752165728], [6.67347751956969, -0.5949773501567145, 1.3594829792044665]], [[0.08957869585803147, -0.011843649634623896, -0.06046119977746469], [-0.020015324343108685, -0.02006207972305624, 0.7030862232059806], [-1.915254564075956, 0.16607448985662054, 0.14288843606178378]], [[0.0777726568812789, -0.31578726490850606, -0.05426894946882205], [0.001889156016991329, -0.6529111917616555, -0.09611998347501909], [-1.5568093440561201, -0.35140426773955896, -0.07977062343017728]], [[0.000983883753103802, 0.011630176333687873, 0.06747249814396983], [0.048502893500804715, 0.01699774624921616, -0.7356135181964655], [0.2158690554747797, -0.08289121749603204, -0.7697740364561462]], [[0.10758541273287756, 0.12417615857133317, 0.08741269726864566], [-0.0170293522835185, 0.5534290195172066, 0.09236821666196036], [-2.514565260865835, 0.6106485278927152, -1.667743754263891]], [[-0.01146163743361965, -0.022239288321622492, 0.0087487058269084], [-0.0019071087640012382, -0.01140083248965293, 0.0006282402962890263], [0.2790863163072492, 0.445069994794867, 0.0008206551093800352]], [[-0.032321785222499566, -0.023262699117432763, -0.029929238048208205], [-0.09320612706461423, -0.09433993458368505, 0.015291539741721776], [-0.2747365818839368, 0.45384521861046584, 0.02900433389993111]], [[0.04608252684244636, -0.029209728364404153, -0.026403369748063024], [0.09789230520661725, 0.08926092845382687, 0.012131931420914212], [-0.08673742973779666, 0.6810715653076987, -0.05406876963001582]]]" REF_dip_perm="_JSON [[-0.20691393926791432, -0.023205340514968788, -0.11670333416172397], [-0.3250538143371682, -0.037131459544632005, -0.08121452791570226], [-0.15957679344978717, -0.0252852019158708, -0.16793787792028012]]" REF_dip_trans="_JSON [[0.13135076962015796, 0.013353584815801818, -0.05429618800161213], [-0.033284199038177295, -0.006105335234697183, -0.00520614424253823], [-0.466752198607278, -0.04869846632365464, 0.1842523015581393]]" pbc="F F F"
C        0.00000000       0.00000000       0.00000000
C        1.33087987       0.00000000       0.00000000
H       -0.52078843       0.95765779       0.00000000
H        1.84643081       0.15418089      -0.94681477
C       -0.87048002      -1.22379842      -0.00000000
H        2.20442057      -0.19519239       1.19866369
H       -0.28391531      -2.13887145      -0.00000000
H       -1.52145135      -1.23484856      -0.87564365
H       -1.52139133      -1.23471640       0.87568993
9
Properties=species:S:1:pos:R:3 REF_energy="_JSON [[-3181.877023438593, -3173.601331547749, -3165.9011433281476]]" REF_forces="_JSON [[[-24.32463843643794, 1.7604642749200174, 0.3355706312003291], [-26.339065678719553, -1.773322807942352, 0.10383056835939883], [-23.662528282635147, -1.2713748903927948, 1.2672951675177468]], [[26.998546641971704, 2.3766650896232697, 0.22013353838373398], [28.565691235559605, -0.4941055008573031, -0.11563417750841977], [22.443882210710235, -5.46566567690565, -4.254728653918796]], [[-0.4767733236330544, -0.23946982238686468, 0.358097647220013], [-1.320864103036119, 1.6637954236818742, -0.9274957477993678], [-1.9897297382986936, 2.4026487950357294, -4.002288459732648]], [[1.2091386553841, 0.4928821215998637, 0.6138582580095251], [0.7793509390331553, 0.4798902799049178, -0.9383015001874307], [2.4555681267723704, 1.6752660090340692, -2.7492683294283147]], [[-0.6222084336152383, -0.03619814186221136, -0.36780259495952966], [-0.618940900724354, -0.09511210076031718, 1.2486344890957994], [-1.9468853189390978, -0.8712690522196205, 4.66294451785766]], [[-2.9321922064239527, -4.192312079118863, -1.179580098247152], [-0.770429991388237, -0.31259778506471, 0.7320159484785375], [2.9078145752251676, 3.0553371856445377, 5.131257603716505]], [[0.13782674597231673, -0.09364215840117163, 0.002929839314457817], [0.14176489821371419, 0.05963555561008169, 0.04301476561125755], [0.16252367558669165, 0.1893820468054921, 0.04899547043312608]], [[-0.04788026731344472, -0.07856698280879494, -0.053530364916535386], [-0.09845687640885684, 0.4606452138861729, -0.24310286715653168], [0.45636326223902773, 0.9234120671163845, -0.2744299597314004]], [[0.0581806240932882, 0.010177698433489164, 0.07032314399588897], [-0.33904952252538834, 0.011171721542194786, 0.09703852110700674], [-0.8270085106632412, -0.637736484117743, 0.17022264328565287]]]" REF_nacs="_JSON [[[0.07175174264159943, 0.06119568553969596, -0.03832804444387878], [-0.03351604419675287, -0.04712639832100762, -0.03059430030962893], [-0.19959666948459323, 0.1269589265554016, -0.006665284753485601]], [[-0.40397008372108095, -0.09545061723075246, 0.09026508057674447], [0.12757627642675134, 0.11045892353880152, 0.11227566216715222], [0.08597920016584783, 0.20333593920578671, 0.13607992251330106]], [[0.12249123813158526, -0.12405114843362444, 0.061834295461513124], [-0.011003852970777907, 0.016217999732912543, 0.023350196422929664], [0.08555539005160115, -0.1340883260742285, -0.07563730807161173]], [[0.13171137913595676, 0.09267584133036805, -0.06412895146854332], [-0.010984593171695688, -0.007194879226190657, -0.01218534818154011], [0.15659871325204444, 0.13650896699227225, -0.15546555685533683]], [[0.07496400620689166, -0.03050956344357451, -0.04941358167459194], [0.021966920068781773, 0.007074408472388876, -0.02994635755225024], [0.04519188512197125, -0.027886891926096787, 0.06040609780468655]], [[0.2777869746711584, 0.432687872678309, 0.0804413395236268], [-0.0710996387063566, -0.07336172660406887, -0.0613461586556156], [0.06325317191343399, 0.019014565551960003, 0.09518780102496704]], [[-0.015815938844591444, -0.006775544285510008, -0.007857181421408167], [-0.00010662669439907679, 0.0002804999194774839, 0.0011268302885307528], [-0.008897617481625592, -0.006727826675049052, -0.005229540559615313]], [[0.03203161062080879, -0.00200395332484938, 0.02042475863371758], [-0.00803707525461247, 0.0020356761753184947, -0.0013117038036604418], [0.05044724893218335, 0.0090361234264531, 0.023747464959524053]], [[-0.007885475202247779, -0.0025677837760374788, 0.012645438342211717], [-0.0014043872451210847, 0.00699977100570928, 0.003640194282486407], [-0.028143479651241875, -0.038492481557780914, 0.021236206157316286]]]" REF_dip_perm="_JSON [[-0.14935236968619378, -0.0747938146420468, -0.026115897310225053], [-0.43048342528979866, -0.5991208361737456, -0.1353513006961377], [-0.6055124022405816, -0.896234970831129, -0.25170695031937257]]" REF_dip_trans="_JSON [[-0.24236723339852012, -0.29663610686005454, -0.12787928985898642], [0.026574825321716275, 0.05485553519248185, 0.00917761624971925], [-0.2569071567367928, -0.3047590299599306, -0.13764915743269282]]" pbc="F F F"
C        0.00000000       0.00000000       0.00000000
C        1.11554702       0.00000000       0.00000000
H       -0.52078843       0.95765779       0.00000000
H        1.63109796      -0.93360776      -0.22046885
C       -0.87048002      -1.22379842      -0.00000000
H        1.98908772       1.18194366       0.27911268
H       -0.28391531      -2.13887145      -0.00000000
H       -1.52145135      -1.23484856      -0.87564365
H       -1.52139133      -1.23471640       0.87568993
9
Properties=species:S:1:pos:R:3 REF_energy="_JSON [[-3181.451384571083, -3176.0966161904116, -3172.558654365711]]" REF_forces="_JSON [[[-18.657703452555236, -1.1624291134767546, 0.4621341758324121], [-17.6638842205836, -0.20954222148590648, 0.6995308241337016], [-21.015143233259227, 0.10186751291854411, 1.5775661697601484]], [[21.36175705936053, -1.366782194201202, 1.8885832936355142], [20.100463225070445, -1.8805781655588472, 0.7446759289410114], [22.919222769932333, -1.4615125084531875, -0.5209719140366049]], [[-0.24992995736859863, 0.036663153237380924, -1.7492352936685105], [-1.2896778292131152, 0.5232850883761616, 1.1699275002675449], [-1.8285468497251194, 0.7819071659094733, 4.2507333471481]], [[1.1006791552214292, 1.0877947440913922, 1.5994804752058873], [1.2674104685338474, -0.8151679040658256, -0.15228496273027858], [1.843595723150645, -3.173863360711962, -2.0042436717515337]], [[-0.6781154655623984, -0.017164012977509267, 1.8663492839233833], [-0.9262501462173961, -0.5128794521868107, -1.0662996350484872], [-1.007153885013186, -0.59115253504618, -4.181438644855326]], [[-2.873830868929296, 1.4896156620301966, -4.021917926428244], [-1.4319632095608215, 2.62065980984982, -1.4262285939334318], [-0.7499736712887979, 4.113649067720453, 0.7854093395021676]], [[0.1477542095908441, -0.015920120038906027, 0.0006014324630686578], [0.18178394815551452, 0.11094514944957183, -0.016784412309669556], [0.16719105478949536, 0.09348240451648776, -0.03537098992012065]], [[0.17256234984005048, 0.21824648006875683, -0.11402111196021514], [-0.2605131472824647, -0.11318207391555075, -0.13498434132113257], [-0.7092191098652421, -0.5392708439789997, -0.12092918255619763]], [[-0.32317302959764305, -0.2700245987305917, 0.06802567099731129], [0.022630911099833506, 0.2764597695371377, 0.18244769199953872], [0.38002720127659606, 0.674893097121651, 0.24924554671087748]]]" REF_nacs="_JSON [[[0.013022399806558838, -0.08229633444292686, -0.018781795605516384], [0.2845937896170648, -0.023039734090306064, -0.032469449199442446], [0.05377408630230761, -0.1043166891333632, 0.041496651158231056]], [[0.5869099796349772, -0.14964614458399908, -0.001199537340741455], [-0.2221394452237685, -0.013863211001075218, 0.08777679449489488], [0.82854142945663, -0.31301450278641546, 0.09145182744130911]], [[-0.1606119631974774, 0.058327630020618956, 0.11237828956130744], [-0.011800799736639762, 0.007637925842097835, -0.09266506215925441], [-0.2809796403201569, 0.08673292395561764, 0.008090990681222357]], [[-0.15937199346252046, 0.15705836426493863, 0.13191216465621525], [-0.01348315308003074, 0.07387604348205991, 0.039038750294710246], [-0.2350813858512925, 0.1626182526971436, 0.14218567492851453]], [[-0.03123939041271476, -0.003957490464390037, -0.12135159374123268], [-0.016440568683741844, -0.01654816013699669, 0.08537113429712882], [0.0025952241678589027, 0.00610313875660265, -0.05097132193411574]], [[-0.21220573654396166, 0.06151579347935177, -0.20791502617799612], [-0.020753985674327412, -0.041929952488369004, -0.08646831179640334], [-0.3160583566155434, 0.12711458473633258, -0.29278612456092]], [[0.011724868484021858, 0.012545394556886115, -0.00890515082563255], [0.0027387494075703117, 0.0064358574047887075, -0.0004292032247364121], [0.021264828914856735, 0.01928667194994089, -0.008354844629139272]], [[0.010425322102939212, 0.01842015927746529, 0.019301188956088632], [0.010763489330049232, 0.01393501202876174, -0.0021874618509941483], [-0.009026709760877513, 0.051414710107799744, 0.005729468040929276]], [[-0.033502501595951216, 0.028083827826054116, 0.016809792340973673], [-0.01297466861811076, -0.004501214994397736, 0.000476577426150703], [-0.045776169696509626, 0.04065100914412109, 0.003638072909760352]]]" REF_dip_perm="_JSON [[-0.1551859749367718, 0.018825139913009086, -0.08537841460419478], [-0.27196425905888866, 0.06078233593526949, -0.173017819680241], [-0.34483227610750766, 0.033036276986499614, -0.21085922190526096]]" REF_dip_trans="_JSON [[-0.04207703519195647, -0.11407527368788807, 0.15746608354065708], [0.03134007938519165, -0.012018254650494173, 0.024629342561153938], [-0.051724408613290654, -0.14993307502404177, 0.20776744345750817]]" pbc="F F F"
C        0.00000000       0.00000000       0.00000000
C        1.15681726       0.00000000       0.00000000
H       -0.52078843       0.95765779       0.00000000
H        1.67236820       0.60799175      -0.74200808
C       -0.87048002      -1.22379842      -0.00000000
H        2.03035796      -0.76971511       0.93937924
H       -0.28391531      -2.13887145      -0.00000000
H       -1.52145135      -1.23484856      -0.87564365
H       -1.52139133      -1.23471640       0.87568993
9
Properties=species:S:1:pos:R:3 REF_energy="_JSON [[-3183.657976544452, -3176.788695616293, -3173.021402216684]]" REF_forces="_JSON [[[3.8297410834642642, 1.3583110801670297, 0.29933795505736516], [3.459193209541847, -1.2395619622895215, -0.0954544342265003], [-4.52353372852287, -0.17273305188125307, 0.015072946342734426]], [[-0.8315730829351057, 3.193448480854374, 2.0998147486879195], [-2.204984724105391, 2.2851616690554226, -0.8420263985244983], [6.175145557289424, 2.4595129025369196, 0.5474156204563093]], [[0.24499628042797905, -0.21234348173922032, 0.6994827935085159], [-0.27562894895841134, 0.29783703119702026, -0.7760880063551223], [-0.22190960142542304, 0.05451856595384851, -2.774092601597957]], [[0.39742808846573974, 0.04532288138672252, 0.7568003841252143], [0.26485911701773523, 0.5158942638887477, -0.05584810518872348], [0.7612876250644414, 1.7260221571698793, -1.965191103150758]], [[0.34368755498153614, 0.05293203741853398, -0.7916070793815217], [0.2997161385752386, 0.0591465713647475, 1.2224444346607555], [0.5792640988151766, 0.40700081857907994, 3.2992080279183256]], [[-4.049410074582162, -4.254565025486976, -3.0699113798936395], [-1.1528040540549285, -2.288586363946232, 0.40526951091804453], [-2.1950438174040365, -4.316966817420636, 0.8600602701052285]], [[0.07907886947901566, -0.1571570585439839, 0.017636747441923416], [0.08388410248128181, 0.06771880488417574, 0.004354379526461209], [0.07723380596301416, -0.0476754138271649, 0.013536123865727988]], [[-0.14804548716437746, -0.10302327995567433, -0.09971248297083596], [0.03151392861865161, 0.37249942299568156, -0.15092310027441652], [0.18409409232987678, 0.4489059780235652, -0.2653661331119672]], [[0.13409676786122537, 0.0770743658993613, 0.08815831342494485], [-0.5057487691164436, -0.07010943715159272, 0.2882717194643913], [-0.8365380321129473, -0.5585851391330059, 0.26935684917209535]]]" REF_nacs="_JSON [[[-0.2547696638112106, 0.12117124286081664, -0.10045233675390336], [0.49009671351288786, -0.08675771934538455, -0.018909370644698244], [-0.0019693428785332867, 0.0871805765966452, -0.09063534513895764]], [[-0.3282721757163477, -0.017746665929723883, 0.19932177424965483], [-0.5448565137513792, -0.0473663559127431, -0.07266633566294933], [-0.6786538661290611, -0.05806863649170646, -0.10567619712902812]], [[0.04683226395356944, -0.03163417597077083, 0.057373806035159354], [-0.022787830429838396, 0.02834951341751089, 0.05572041909479007], [0.12295406475928251, -0.019084318559541662, 0.08919453236533872]], [[0.07767237063015398, 0.08290445972483688, -0.13288268343849155], [-0.008731356185657414, -0.03492587743180579, 0.047971020069840054], [0.06196287353358393, -0.00029896613578290457, 0.0010161489673096435]], [[0.008496080155338002, 0.0006112371830647211, -0.03442875317181583], [-0.01776123799374698, -0.024977552950035446, -0.052944009159139695], [-0.0702122661984074, -0.011077734130930087, -0.006675900067882048]], [[0.022029552946479368, -0.005616307502617686, -0.023976412997125503], [0.10107463578441306, 0.12754814879273316, 0.031927284101641085], [0.27170093693896763, 0.21354224332116473, 0.12201913032370762]], [[-0.011678379490302367, -0.024929997519341097, -0.00912969098790971], [0.0004114500971501541, 0.011425139747944466, 0.0007098245166957827], [-0.02065597360303614, -0.04689993724396311, -0.010629832742728287]], [[0.02200726636114015, -0.036722989584589194, 0.014897518082385288], [-0.004621979890917841, 0.008680697834248277, 0.0026833260437548892], [0.013067968345999067, -0.05929204135051017, -0.0020123790769216005]], [[-0.03453483431885311, -0.03823624293672612, 0.02914894802634154], [0.0017939138908749652, 0.018616722431193222, 0.005506320220891353], [-0.01120974436204557, -0.07153029725138177, 0.0033113606302014754]]]" REF_dip_perm="_JSON [[-0.16008478762578324, -0.07437118014316481, -0.030729483761074764], [-0.3225971211909576, -0.20777794575577652, -0.08547418399803011], [-0.24531538425253652, -0.1819472746837132, -0.09426623074078205]]" REF_dip_trans="_JSON [[0.5456449248926662, -0.045262893723352744, -0.044186720318013746], [0.060577579171320874, 0.050242416931157524, 0.020644041835809628], [0.7908286600727039, -0.06290412847383044, -0.06279484861725411]]" pbc="F F F"
C        0.00000000       0.00000000       0.00000000
C        1.43844083       0.00000000       0.00000000
H       -0.52078843       0.95765779       0.00000000
H        1.95399177      -0.84503678      -0.45402951
C       -0.87048002      -1.22379842      -0.00000000
H        2.31198153       1.06981317       0.57479953
H       -0.28391531      -2.13887145      -0.00000000
H       -1.52145135      -1.23484856      -0.87564365
H       -1.52139133      -1.23471640       0.87568993
9
Properties=species:S:1:pos:R:3 REF_energy="_JSON [[-3183.8402745991866, -3175.631265026137, -3171.38319732077]]" REF_forces="_JSON [[[4.003892039097162, -1.1139974949597726, -0.40320213193616333], [4.352426155436578, -0.09310116510189008, 0.9747801122774362], [-9.685704390837557, -0.972128061118961, 0.17664451110997267]], [[0.774327744410446, -6.223080319516697, 2.7519719775215976], [-6.075452119130985, 1.8511827493259039, -6.447938293667493], [12.570422602598674, -4.787894999093306, -0.5189169415275606]], [[1.0488990596601417, -0.11593854418790579, -0.7930098903460664], [-0.7646137063026921, 0.12720617110857727, 2.056880052791475], [0.6722637731675354, -0.26570555602009316, 0.5633607336903194]], [[0.4369614454615458, -0.7078854273047531, -0.497863857990032], [-0.4559804283089613, 0.12677598473797028, 1.122778778468783], [0.26777271041249845, -0.7440051712628551, -0.2540108583656119]], [[0.16205314428281828, 0.5686337513184768, 0.28729293522149496], [1.2584419314421036, -0.20497843148954317, -0.778966734739749], [1.7717378670110804, 1.4541369781492668, -0.46068409321431975]], [[-6.212798508468578, 8.216614073103608, -1.4074200230917915], [1.7137696529939421, -2.848614495651781, 3.232467824021276], [-4.611394151188411, 6.07103583843175, 0.5012682675544089]], [[0.04429867690086686, -0.20409011188914636, 0.022256246459235934], [0.20109206766752885, 0.20755468187819764, -0.06309968358488334], [0.05496318636415686, -0.19950467352956172, -0.0086076585852402]], [[-0.13282841218288546, -0.12051331293920912, -0.13925847890222934], [-0.12126996752364512, 0.19371107663471474, -0.17279639617493384], [-0.582436036850727, -0.35304224303253584, -0.3675935302807739]], [[-0.12480518916118906, -0.2997426136224316, 0.1792332230641062], [-0.10841358626857588, 0.64026342855906, 0.07589434060852485], [-0.45762556067639615, -0.2028921125224341, 0.3685395696185031]]]" REF_nacs="_JSON [[[-0.6683083998309153, 0.002907573834222888, -0.09169998473273211], [0.6820515766824373, 0.047886059648218925, 0.06952369523195902], [0.33366315665717344, 0.2824815717170742, 0.04314718368240545]], [[0.07934175469929489, -0.3614329480993564, 0.4498318106758515], [-1.0317098587908888, 0.454562150275049, -0.4087101738344427], [-1.3533398781074648, 0.4630810722834697, -0.5538548494034783]], [[0.09284944482525156, -0.017130939870382913, -0.06742179440446522], [-0.09768982379680155, 0.024961250133919827, 0.11976990396739269], [-0.029883377349583563, 0.01935925289654888, 0.2230645778302641]], [[0.049890816678606974, -0.02065582830776914, -0.06677474773331953], [-0.04543535918082182, 0.051092012638488386, 0.07585951064260965], [0.000688011453554241, 0.08922327931457809, 0.11126802910851774]], [[-0.024618604891932547, 0.06860926560256454, 0.03740986835166386], [0.009514648241514292, -0.08292441947458168, -0.04576602689593857], [-0.09140572307813727, -0.09154019141410563, -0.07306880688101836]], [[-0.3236989573137441, 0.4730717088898003, -0.29243536691644545], [0.4297881809090715, -0.6045993680163816, 0.2000771306562527], [0.5572408358118289, -0.683727162772931, 0.23861399481692078]], [[-0.011473711996905571, -0.03549537263037698, 0.0018085503077114316], [0.009635116113667262, 0.025263424599043755, -0.0035133022132472894], [-0.007176077512397032, -0.027765474644182393, -0.009958114474094972]], [[-0.03914994811249401, -0.06417465660806743, -0.02305851894764772], [0.01379374208293549, 0.02584145503463561, 0.005457022292950799], [0.004439334530604881, -0.05711200595318551, 0.002757012948901754]], [[-0.02538514897505017, -0.07434261852168268, 0.016431131490462228], [0.013375151020645598, 0.05736872375991485, -0.013385646768881848], [0.007730812247491743, -0.013019699370014003, -0.005812467990139166]]]" REF_dip_perm="_JSON [[-0.1523420403285314, -0.013989618301662728, -0.030648287970649158], [-0.31887044260475683, 0.08066905875950973, 0.00031139626599891275], [0.23232405778443987, -0.14079141865465317, 9.349382976006668e-05]]" REF_dip_trans="_JSON [[0.8247452150293721, 0.0467358821431785, 0.0018281010791815194], [0.06586397324896832, -0.0400861873391578, -0.013041436091214146], [1.2453581541916423, 0.06731583601494713, 0.0017808233182517804]]" pbc="F F F"
C        0.00000000       0.00000000       0.00000000
C        1.49129021       0.00000000       0.00000000
H       -0.52078843       0.95765779       0.00000000
H        2.00684115       0.95914816      -0.01627166
C       -0.87048002      -1.22379842      -0.00000000
H        2.36483091      -1.21427771       0.02059986
H       -0.28391531      -2.13887145      -0.00000000
H       -1.52145135      -1.23484856      -0.87564365
H       -1.52139133      -1.23471640       0.87568993
9
Properties=species:S:1:pos:R:3 REF_energy="_JSON [[-3181.0842964428816, -3177.4229595545157, -3175.8702528334907]]" REF_forces="_JSON [[[-12.651420179545307, 1.0299503235448788, 0.9389478632379981], [-10.29215002445725, -0.28651655963899925, 0.36801903343114334], [-12.612050307188616, -0.8933024993802807, 0.49505461957095054]], [[15.13954188529649, 0.9070570268521356, 2.1162102987087765], [12.645518708142436, 1.3883402122207378, 2.0464487823462783], [15.155190306826956, 1.147608655905939, 1.884882093535296]], [[-0.52342297192512, 0.028042083317272804, 2.0711881396975653], [-0.87269048902417, 0.3711527840607547, -0.531167355472421], [-1.0992869690736553, 0.5201979985192937, -3.2629229759539036]], [[1.1090092016421444, -1.8363998476200782, 1.201434692644441], [1.2905250565988464, 0.5563730071547167, 0.18759823424323874], [1.466237348748935, 3.165520101792406, -0.7789025996148812]], [[-0.3453298915353027, -0.12989579321050487, -2.1423335070101865], [-0.8435888018472659, -0.38511852331192703, 0.6640028533592439], [-0.9596429697403768, -0.3459080009348972, 3.5047100500117296]], [[-2.728606654080367, 0.07424635344629892, -4.258591381683709], [-1.7910702326932575, -1.7664218491906594, -2.7836134464400355], [-1.7315714324136688, -3.739325959495266, -1.8075147907690465]], [[0.11964491604003245, -0.0711811856386664, 0.010609997625250958], [0.13782674299784944, 0.05831374134659082, 0.024042543759242856], [0.1563748764286624, 0.0754883284782432, 0.025691312122707102]], [[-0.35751865691604173, -0.2639617960119809, -0.0685964316725267], [-0.039640131631185335, 0.1567630757115973, -0.15607159949987995], [0.2866235127179061, 0.535479418729907, -0.2031165809444292]], [[0.23810235102308142, 0.26214283531948396, 0.13113032845211406], [-0.23473082808430423, -0.09288588835201775, 0.18074095427335504], [-0.6618743663066181, -0.4657580436159954, 0.14211887204143384]]]" REF_nacs="_JSON [[[0.023657842116628823, 0.0772000036990534, -0.061773268834576775], [-0.4830075831911666, -0.03806994812770961, 0.013003774029948715], [-0.04064914278756759, -0.39021096538368877, 0.1069252796224256]], [[-0.6345730816995834, -0.08195660049921631, -0.09650287999663913], [0.4023557865409118, -0.0166514382045841, -0.07068081459678062], [1.950695299170986, 0.2014498345940168, 0.485147832532606]], [[0.15886086753083437, -0.049660784375755725, 0.1701391501541955], [0.029833233819654845, -0.009413725482945825, -0.2741381661526006], [-0.5706766015914726, 0.1345631793132001, -0.007653010973389439]], [[0.16497805826918752, 0.19024484888429744, -0.0729852007440514], [0.018405203323841005, 0.273663698196406, -0.08584832663616179], [-0.5099014296958151, -0.21828361792238882, 0.11852446992855385]], [[0.02988229817745974, 0.005669505312947604, -0.1329416826832892], [0.01128473217096168, 0.027090676200047733, 0.29695066687935406], [-0.004672644085300577, 0.0033258905349248806, -0.14349951014642368]], [[0.20524494149055184, -0.008224179498068519, 0.19034483938580943], [0.021459900688957343, -0.20761342986194173, 0.1322485315175142], [-0.7296307990090449, -0.08256975544289535, -0.6014535479227416]], [[-0.01987117528911253, -0.023219802349278836, -0.008851196371590363], [-0.0022883393435457473, -0.009316359599871739, -0.0014735287960187095], [0.06500787676230214, 0.08475382488490936, 0.00907845670431454]], [[0.036644461653720206, -0.03699014001441698, 0.02141146308371696], [0.040583233706024686, 0.030440543402177066, -0.0021875900472998954], [-0.0982890372605963, 0.08633425471076615, 0.009258973289944043]], [[-0.010790000780824146, -0.02619174620507885, 0.026395547532919273], [-0.04060916920309414, -0.04810795894758006, -0.006354403226760703], [-0.03461070714840792, 0.15282739028117673, 0.0027640746409861847]]]" REF_dip_perm="_JSON [[-0.18571975602348742, -0.07458562030762218, -0.09527805520608573], [-0.2195825645176528, -0.09922750173012088, -0.1573158029779357], [-0.2827279061486418, -0.09591512986942509, -0.15663917139105568]]" REF_dip_trans="_JSON [[0.11075242551737922, -0.021205236384321424, -0.11319567321178], [-0.022442865249173043, -0.012658059796578254, -0.029710124198624156], [-0.18220314059928078, 0.037447033161305064, 0.1941763729585356]]" pbc="F F F"
C        0.00000000       0.00000000       0.00000000
C        1.20935800       0.00000000       0.00000000
H       -0.52078843       0.95765779       0.00000000
H        1.72490894      -0.35223446      -0.89227846
C       -0.87048002      -1.22379842      -0.00000000
H        2.08289870       0.44592741       1.12962093
H       -0.28391531      -2.13887145      -0.00000000
H       -1.52145135      -1.23484856      -0.87564365
H       -1.52139133      -1.23471640       0.87568993
9
Properties=species:S:1:pos:R:3 REF_energy="_JSON [[-3181.0292668569246, -3177.744322485984, -3176.6548809043793]]" REF_forces="_JSON [[[-10.840275897761577, -0.7349944779468301, 0.541374050652611], [-8.001655704925911, -0.1438568040699969, 0.44145861365907907], [-9.906955865613563, 0.2888569613876941, 1.0364548779123985]], [[13.275455673498305, -0.6651097430624401, 2.3733414898758833], [10.252069499913082, -0.9267082446963628, 2.173702120593466], [12.574924067069405, -1.0091974668503483, 1.8674938075810126]], [[-0.2624520287227932, 0.10738908633483245, -1.9451502285911126], [-0.8270152377599548, 0.33345769837869677, 0.5407498289800925], [-1.2211178918814267, 0.39722085283556247, 2.9724838000515796]], [[1.0717412439451766, 1.8251336312185913, 1.081900785663648], [1.2412987957052608, -0.4296464731511342, 0.2724830558781042], [1.314272673148069, -2.8323678412001794, -0.45663885287553097]], [[-0.4780556951459599, -0.022188148480416663, 2.1229554910544417], [-0.7196210826725914, -0.3911559505826978, -0.4404875136488151], [-0.6494672452524834, -0.40778355676687567, -3.036033993540872]], [[-2.7005069421216916, -0.41749560829437227, -4.123787306290305], [-1.8288729762023617, 1.404927086219872, -3.018323288359938], [-1.9515573272577116, 3.335921341040912, -2.4737606831429497]], [[0.12288589841521298, -0.0408531581566924, 0.0017676881663508887], [0.1388949410751936, 0.07177709163319183, -0.0013785678576576968], [0.15525091681293382, 0.07541931796587632, -0.006669087768139628]], [[0.18921432085263534, 0.25832626539854053, -0.13266270725270185], [-0.19694407788656326, -0.02885794215034467, -0.14930132946525723], [-0.5707839588110721, -0.3313637718964308, -0.11765259280305572]], [[-0.3780065729587321, -0.31020784700897214, 0.08026073672151542], [-0.05815415724665712, 0.11006353842137787, 0.18109708022123333], [0.2554346317884616, 0.4832941634850258, 0.2143227245852563]]]" REF_nacs="_JSON [[[-0.038678543117307236, -0.09818880593267389, -0.0033545306203867273], [0.5549471645019368, -0.12518353778508842, -0.07668986337715243], [-0.07621479132650359, -0.4916122828633432, 0.2177177123956657]], [[0.6120825318785623, -0.14277883660062632, 0.04447581642950082], [-0.4653347545900155, 0.025525645899132712, 0.11455212445580054], [2.7753813818916084, -0.49435116113650374, 0.7291431539574637]], [[-0.15896244392951112, 0.033688454528105365, 0.16764269153801814], [-0.006116153815235903, 0.015521810751905877, -0.4040351491724717], [-0.8450652262738307, 0.15817301347506849, -0.210277511579119]], [[-0.14718610689934344, 0.19236363943613607, 0.06614551788646422], [-0.02063516403334272, 0.401992232113256, 0.10412730471844174], [-0.7253628145764338, 0.28128928724902486, 0.10453456679508838]], [[-0.010644740382225185, -0.0061801600844506544, -0.18600404982574487], [-0.039396120988810054, -0.023497720507463876, 0.41051628189226824], [0.009852928534730914, -0.018278859586249332, 0.021580099463049916]], [[-0.19810100400924768, -0.014075535465374394, -0.15930172123855207], [-0.019333387903001608, -0.319079649987585, -0.14051224597622905], [-1.0331632543883005, 0.0924228340536364, -0.8510992151377329]], [[0.01691482901405169, 0.02340507349677919, -0.008754525559336196], [0.003933504619565624, 0.013332288885861292, -0.0003763662845583169], [0.09982723045785115, 0.13112723976990479, -0.006753295539651668]], [[0.006461805074847589, 0.016378400783338562, 0.02759906507033421], [0.05462159232495859, 0.059295919558190954, -0.006624046784018495], [-0.06982136236910248, 0.1893991297389734, -0.0005681254853691497]], [[-0.0342353446394464, 0.04830615335730237, 0.02262317321501964], [-0.06004452815177779, -0.04497277011088988, -0.0025620705965567546], [-0.1111695596120045, 0.17877756403728148, -0.019008204905055514]]]" REF_dip_perm="_JSON [[-0.19116195592534713, -0.0055548330367834395, -0.11723422971450677], [-0.20481325843356984, 0.0009115580738447814, -0.16441106589512694], [-0.28524705759517976, -0.03587812965139576, -0.14346255196532112]]" REF_dip_trans="_JSON [[-0.12024834122423997, -0.036449352823279886, 0.10364964706896491], [0.022087483857754445, -0.0009590081415619836, 0.023506177372833333], [-0.23013072532264278, -0.07116428944984851, 0.2061887300348535]]" pbc="F F F"
C        0.00000000       0.00000000       0.00000000
C        1.22984311       0.00000000       0.00000000
H       -0.52078843       0.95765779       0.00000000
H        1.74539405       0.27602153      -0.91871762
C       -0.87048002      -1.22379842      -0.00000000
H        2.10338381      -0.34944215       1.16309281
H       -0.28391531      -2.13887145      -0.00000000
H       -1.52145135      -1.23484856      -0.87564365
H       -1.52139133      -1.23471640       0.87568993
9
Properties=species:S:1:pos:R:3 REF_energy="_JSON [[-3183.792420655724, -3175.9453655107886, -3171.3894793413474]]" REF_forces="_JSON [[[4.143899018554889, 2.004298915435693, -0.07046625303707543], [4.560327027895848, -2.3532148611504407, 0.39062763035973164], [-9.51580674899605, 0.9274679804217132, 0.10958977400655287]], [[-0.23654829310326603, 5.1084440879221775, 1.628626824114237], [-5.364682176537158, -0.9847657196033016, -4.121389732359662], [11.907003974274499, 3.5598297967421773, -0.7540631944148481]], [[0.361150696071635, -0.4136152588328267, 0.11319691580944773], [-0.006539072083969668, 0.5778562371616731, -0.5066923354649189], [0.24074296480777113, -0.3951580296046925, -1.3133438365534182]], [[0.4354558525407454, 0.570215294359403, -0.18182141216387163], [-0.3517790944126332, -0.06735425466946769, 0.7887607965222077], [0.3377831701439838, 0.7828961606899393, -0.8353641458639333]], [[0.5713412724234465, 0.17791565703679785, -0.15707993127573158], [0.5261762179641432, 0.11770068171087612, 0.8808708498405813], [1.7946639411198617, 1.1352988416935124, 1.6120295522886137]], [[-5.3154229809218565, -6.996777973512667, -1.2047283580473238], [1.0428765059014145, 1.8896472205893784, 2.195677728775595], [-3.923914633464731, -5.416458754658346, 1.1090353554743386]], [[0.0748564933069218, -0.23511681760252318, 0.01697300530618759], [0.05903968098291744, 0.15538561179077176, -0.03967172347327463], [0.058092895657745634, -0.20389751486736477, 0.007436779746253062]], [[-0.12104494340898893, -0.1372649395781093, -0.18695233140216644], [0.12747181560420978, 0.5145247884628791, 0.007465116333323112], [-0.1695705360256163, 0.07125110576078961, -0.3097403992018009]], [[0.08631288453615055, -0.07809896522623973, 0.042251540696943694], [-0.5928909053150176, 0.15022029570459228, 0.40435166946673323], [-0.7289950275183031, -0.4612295861772142, 0.3744201145185103]]]" REF_nacs="_JSON [[[0.5391116129881665, -0.1724267820628821, 0.11615979413071328], [0.6381949415359052, -0.21725051421523278, 0.01928428504152669], [-0.15969347926441435, 0.01577252584986672, 0.03176909630699738]], [[0.07528287649702359, -0.22353408347758266, -0.31208269770642794], [-0.8418032183430928, -0.29929506874681, -0.1954939764004849], [1.0197323870929815, 0.25893475761689533, 0.2762686747359743]], [[-0.0241001824515958, 0.03891530585151702, 0.014925960917657204], [-0.021796092151687648, 0.06284366416354732, 0.007778849913591392], [-0.06962192465968572, -0.018493914480237857, -0.012935210036951774]], [[-0.0477536358185562, -0.020180412809256948, 0.09117201005254547], [-0.03666900233192281, -0.03766285248057873, 0.056381013222649295], [-0.016062352524134578, 0.061881508799773256, -0.1012306427374189]], [[-0.014608748963690512, -0.02382057107979798, -0.031843309324913166], [-0.03801285459112041, -0.03834000914459718, -0.010875948968706159], [0.1251941084229833, 0.034779313409699926, -0.07740514646713148]], [[0.20162374962723778, 0.29565328105934596, 0.19159090570328635], [0.30522214718643725, 0.44452118172336763, 0.09829745778146634], [-0.38440776624619016, -0.4619209731711593, -0.0783776361955124]], [[0.006214455486542295, 0.029882847980557063, 0.005099300897424199], [-1.8967928175894616e-05, 0.02297920023343991, -0.001580876998171124], [0.013682398310091416, 0.03274009711866312, 0.009274069977079167]], [[-1.91887590930794e-05, 0.04569970347901703, 0.0022335302263860792], [0.013105020456487138, 0.032398786835939955, 0.01560424694566116], [-0.018907678712093957, 0.03490065460781951, -0.005202498175627325]], [[0.03932287125749094, 0.059391725461606336, -0.025870527708234132], [-0.011400131663897669, 0.030065970075318565, 0.011057216242150595], [0.029743888402842915, 0.062002362661889035, -0.006382966628888631]]]" REF_dip_perm="_JSON [[-0.17307611409387988, -0.06796295852957483, -0.0337691210436743], [-0.3324447132092424, -0.26288698607797495, -0.014761811088043664], [0.000371356234313205, -0.00017029880167265539, -0.00042615298313376646]]" REF_dip_trans="_JSON [[-0.7681249627414314, -0.01178965099513185, -0.003982011412721164], [0.05938923924772192, 0.07212734328877131, -0.0070300656366892], [-1.1007071879681969, -0.014300439799461181, -0.005973409239394775]]" pbc="F F F"
C        0.00000000       0.00000000       0.00000000
C        1.47703869       0.00000000       0.00000000
H       -0.52078843       0.95765779       0.00000000
H        1.99258963      -0.95461900      -0.09451201
C       -0.87048002      -1.22379842      -0.00000000
H        2.35057939       1.20854381       0.11965183
H       -0.28391531      -2.13887145      -0.00000000
H       -1.52145135      -1.23484856      -0.87564365
H       -1.52139133      -1.23471640       0.87568993
9
Properties=species:S:1:pos:R:3 REF_energy="_JSON [[-3183.907860607111, -3176.675798841044, -3172.398440255532]]" REF_forces="_JSON [[[3.179355052683193, -1.0079645453748984, 0.07445640088618838], [2.1350161670763104, 0.15736794141768154, 0.3850224221703076], [-6.83074298186044, -0.219126301624094, 0.8232755348385088]], [[-0.023556360298574452, -3.279921003372441, 1.9154175750886548], [-1.3332892417226012, -2.283198721480631, -1.8124633132513228], [8.437450035406025, -2.9731935991587912, -0.5162506742589579]], [[0.5491278052238242, -0.08000033822302688, -0.6489507954682404], [-0.7759010323029512, 0.24573282706201863, 1.384667367018199], [-0.41212880611817093, 0.05515171845995216, 3.2492147804524056]], [[0.3957308547213469, -0.23076871808128102, 0.6641297995739682], [0.1721548998090577, -0.4654463717549503, -0.008275105954630059], [0.739659249935887, -1.5716534397911759, -2.0027354802105752]], [[0.03878251095081723, 0.21042663140609164, 0.6534036350913831], [0.6608502739112416, -0.021287982316705548, -0.861553771908241], [0.8238568487418765, 0.5444578072632283, -2.9237944019751225]], [[-4.10007227022647, 4.559279794731598, -2.648401103359606], [-0.7089119795657466, 1.881268787569832, 0.990746228273248], [-2.2124952161000904, 4.307113257949171, 1.3774553769183677]], [[0.09096029632528056, -0.08257470185675674, -0.005913557745268426], [0.16844291755389162, 0.07621034101957838, -0.03422850460907551], [0.11221305310225978, -0.035379328111590266, -0.04190631871418132]], [[0.02805731937043931, 0.0431411897490644, -0.10790914093875141], [-0.27360507350730356, 0.0266017610850312, -0.18425837997029848], [-0.7383978468108331, -0.48912878529265613, -0.24788965185864859]], [[-0.1583852087530089, -0.13161830897753413, 0.10376718687120566], [-0.044756931253771864, 0.3827514174002339, 0.14034305823245766], [0.08058566370187481, 0.38175867030489513, 0.28263083480804063]]]" REF_nacs="_JSON [[[-0.2489009787868914, 0.025167446295578676, -0.04073171090162289], [-0.4726377128195873, -0.009720356433356784, 0.012552577488545812], [0.06137149497258399, -0.21182143174994322, 0.0713828785542121]], [[-0.3473580835992147, 0.00894271139183808, 0.23786861900140957], [0.5380078648423144, -0.06509610951491342, 0.07035315083963423], [0.6052596699480515, -0.11008808220614, 0.07875791591726322]], [[0.07659190591975669, -0.009252306448698346, -0.03767071945357151], [0.04484616533802766, -0.02223603133621346, 0.02990513056218815], [-0.1024052174239305, 0.018677161412912525, 0.026857957272293675]], [[0.07274578615369175, -0.06735311733058051, -0.13880119962618206], [0.01039464779711441, -0.029173483331189735, -0.03957079733993468], [-0.03964438993546049, -0.0012717985655142738, -0.003312275825136371]], [[-0.025516771428825694, 0.019070573959658096, 0.057511701360066766], [0.004535988632224379, 0.03196419294955611, -0.04048796276676885], [0.055682153331075256, 0.011444845870496888, -0.06967591476964353]], [[0.0177312951527897, 0.019167551879398104, -0.03079423624039543], [-0.11576608452838194, 0.1341141038274956, -0.03759480100502628], [-0.2449768125057218, 0.2231672858602057, -0.11077086395307355]], [[-0.008385754629659594, -0.019834805841697375, 0.004491222246493673], [-0.004196201535007392, -0.009356963867294867, 0.0012571419077872451], [0.012056147307991245, 0.0339073814170418, -0.0027096285962005242]], [[-0.03472768228802371, -0.03819634554007216, -0.02702520801466899], [-0.00898144916989492, -0.01675941290384713, -0.00014238675692883823], [-0.0022971954323846005, 0.0583294292649337, 0.002752607178600977]], [[0.011322533211079101, -0.043928215623510056, -0.011379885870414302], [0.0032734396877242694, -0.01385020000775628, 0.0037424356711157508], [0.003274106158740858, 0.053703513455645314, -0.0029258366500609177]]]" REF_dip_perm="_JSON [[-0.15012060678022066, -0.016135893695246196, -0.03821198814029581], [-0.33379797638300246, 0.1075636028804829, -0.08648184457664529], [-0.26026373746422465, 0.06362002471347715, -0.08326732405312907]]" REF_dip_trans="_JSON [[0.5547568061142767, 0.10832276550621409, -0.0539896912071396], [-0.06248538631369358, 0.04210856007759228, -0.0164317795449051], [-0.7745326161227578, -0.1514898133046734, 0.07548355184898853]]" pbc="F F F"
C        0.00000000       0.00000000       0.00000000
C        1.41419270       0.00000000       0.00000000
H       -0.52078843       0.95765779       0.00000000
H        1.92974364       0.88041491      -0.38091933
C       -0.87048002      -1.22379842      -0.00000000
H        2.28773340      -1.11460174       0.48224234
H       -0.28391531      -2.13887145      -0.00000000
H       -1.52145135      -1.23484856      -0.87564365
H       -1.52139133      -1.23471640       0.87568993
9
Properties=species:S:1:pos:R:3 REF_energy="_JSON [[-3181.867652653588, -3176.101994792973, -3172.1404477440656]]" REF_forces="_JSON [[[-17.07892921913216, 1.3609842990891654, 0.7300344214490012], [-16.08740953431795, -0.6162260952266189, 0.40070330374023], [-19.797180377863647, -0.9653628321784808, 0.7295885275572079]], [[19.806805702453925, 1.8344656464671092, 1.7156157246879569], [18.526941907779403, 1.9403140438206277, 0.5953579684901212], [21.5602990067986, 1.053627783174471, -0.2212606404906917]], [[-0.47679981216746525, -0.07930533670005124, 1.5932905091966376], [-1.1338448273983306, 0.619934727809546, -1.0142387300025093], [-1.514884659741392, 0.9119447657502799, -4.064255876657068]], [[1.0629137594617248, -0.8914225758479043, 1.50005226390177], [1.248863922683355, 0.8693203167767448, -0.24774045824051716], [1.9140681283161676, 3.1528327385263006, -2.2356225767730553]], [[-0.3940428434115665, -0.08374802804109248, -1.6673631009196828], [-0.990573009277943, -0.3716714939978548, 1.2250020331705251], [-1.2577746722345906, -0.42306327660724635, 4.466869203049894]], [[-2.9858101408136304, -2.0516138993596797, -3.9261775789851123], [-1.405622810617963, -2.6267713051783663, -1.0304417774877601], [-0.6283200229418118, -3.853897218147263, 1.3522020195216289]], [[0.12901895628890772, -0.08273076490199195, 0.013957651720716292], [0.15211349834135154, 0.06634722707069514, 0.035940209775159986], [0.1627317097922511, 0.08327564988387376, 0.044744172248863096]], [[-0.2685732011877583, -0.20640553814706677, -0.06230537078960545], [0.03638766508131184, 0.28654683883032916, -0.15619057662577557], [0.3877429484187269, 0.6999807324453672, -0.23590708164258825]], [[0.20541679850862551, 0.19977619744269537, 0.10289547973893376], [-0.34685681227482523, -0.1677942599058461, 0.1916080271807918], [-0.8266820605454278, -0.6593383428451246, 0.16364225318482048]]]" REF_nacs="_JSON [[[0.030080770915056645, -0.0703677504341341, 0.038746813374487446], [0.2771145097913106, -0.014407879695994136, -0.024079539250274905], [0.0502892778674139, -0.17791481735780856, 0.04593169092706302]], [[0.5462568584516894, 0.085492589787706, 0.015788107627281295], [-0.22368815828373148, 0.023676762868695283, 0.06240423053083357], [0.7071751472088784, 0.1688486524832972, 0.045040434113856775]], [[-0.13789940269240683, 0.07367463122436056, -0.11892453332476158], [-0.015485881674542394, 0.012646690154041887, 0.07601077237031484], [-0.2150742804146125, 0.09365593613886553, -0.0610939289828956]], [[-0.15670234840825245, -0.147933135515192, 0.12606697282467352], [-0.011125152902106066, -0.05817289013917272, 0.03498945836997535], [-0.2017901771197486, -0.143038063296428, 0.14077456975556127]], [[-0.04399487189847609, 0.001214594592711864, 0.09890456977981106], [-0.008883587797652411, -0.013446350625254939, -0.0830033767085039], [-0.008225364537423807, 0.018839697529214994, 0.014964897689982862]], [[-0.19936321385441336, -0.08674256898031071, -0.19929042069494046], [-0.016814732110401888, 0.03338052079377112, -0.0725230866621928], [-0.27558725322188116, -0.12859890180413297, -0.23576345541147334]], [[0.015752077365068843, 0.015731737874141193, 0.008674835164458558], [0.0010886469541247933, 0.005264318338453409, 0.0012152689449530893], [0.02040641825813289, 0.021545611454734225, 0.0073543309512973274]], [[-0.032802121429451235, 0.023997152050239123, -0.01925934507320504], [-0.011120454701569592, -0.005253061562961901, 0.00035147038144009554], [-0.045551603683004475, 0.02942527712426319, -0.006852567747759149]], [[0.01403155649440302, 0.022207836357631894, -0.021355460867150938], [0.009303892299900638, 0.01540161350592318, 0.003857410764859116], [-0.0039451797117397505, 0.05243808722344609, -0.005694993031729538]]]" REF_dip_perm="_JSON [[-0.15650592701702393, -0.07690906907980101, -0.05716391840296949], [-0.2797715465998121, -0.20219833759319653, -0.1592270269679538], [-0.35028696766943285, -0.24631471705777475, -0.20812979418095412]]" REF_dip_trans="_JSON [[-0.059316919244240214, 0.08041323021488095, 0.1395117738996378], [0.03016888580865167, 0.031236793783467987, 0.025747424473189864], [-0.07391049956413245, 0.10442660621660317, 0.179505530120015]]" pbc="F F F"
C        0.00000000       0.00000000       0.00000000
C        1.16656339       0.00000000       0.00000000
H       -0.52078843       0.95765779       0.00000000
H        1.68211433      -0.66587083      -0.69054036
C       -0.87048002      -1.22379842      -0.00000000
H        2.04010409       0.84298979       0.87422132
H       -0.28391531      -2.13887145      -0.00000000
H       -1.52145135      -1.23484856      -0.87564365
H       -1.52139133      -1.23471640       0.87568993
9
Properties=species:S:1:pos:R:3 REF_energy="_JSON [[-3180.0163088622467, -3171.7782848767347, -3164.6657107557257]]" REF_forces="_JSON [[[-37.641894019628516, -1.5737354802654013, 0.32983538127973644], [-37.14273479050321, -0.8917762964040331, 0.9020376736864193], [-35.45775917587157, -1.261465146726771, 2.489861703553395]], [[40.44262670262007, -1.527755939366113, 0.49329375140052], [39.59077331486613, -1.028662682755011, -0.8909024754471591], [34.672741575524135, 3.8414769637170254, -5.458610551877344]], [[-0.3333860579673628, -0.16474067020433594, -0.6904732362232365], [-2.1543500281515517, 1.2179232174526866, 1.7129588037243806], [-2.968806923292888, 2.007811656295118, 4.6313068201999]], [[1.3118232058298407, -0.4270887982959004, 0.9851066618958343], [1.2516095667457334, -0.6367913004593027, -1.1011440305458924], [2.5213588096028774, -1.7896707066380353, -2.684435600814222]], [[-0.9764599612740913, 0.03097139604145443, 0.7621258634666725], [-1.2326491684859255, -0.9384662324784687, -1.8645523356677005], [-2.0722855304205487, -1.7326308981951384, -4.468554152576505]], [[-2.842817196808422, 3.7390714930821733, -1.8388785405851267], [-0.4338670584106819, 1.6867627824019824, 1.0166561078051026], [3.1475910766664876, -1.6188217914414575, 5.261762319657498]], [[0.16018797104063123, 0.011705345678179145, -0.008462587061228523], [0.29862629859608114, 0.16506900350804762, 0.018468568742975887], [0.22886834779167817, 0.18194956899214867, -0.0028432646127426065]], [[0.03645931747105587, 0.058583989234108555, -0.09084638296428224], [-0.24435061665702976, -0.12081090908088417, -0.03053704357684512], [-0.5051338401073658, -0.527656339825944, -0.048317427153113914]], [[-0.15653996128858003, -0.14701133590436938, 0.05829908879079818], [0.0669424820020355, 0.5467524178161077, 0.23701473127921355], [0.4334256601057198, 0.8990066938222006, 0.2798301536220799]]]" REF_nacs="_JSON [[[-0.07055653504848579, -0.02559840904928665, -0.03921034472522559], [-0.0010699891459958265, -0.011672024431773757, -0.021947793257371253], [0.012450094107166076, 0.09688549643586743, -0.01786187601027646]], [[0.42699303478406175, -0.13428766684292848, -0.07061469921960495], [0.11019655108550924, -0.15542944545657564, 0.1382768454251532], [0.25882041274540035, -0.048112329314568915, -0.17191136889924644]], [[-0.1616128238243284, 0.10927346421129969, 0.07004746183888882], [-0.012923502102536857, 0.015084001604691592, -0.019725265086981133], [-0.17677087550441545, 0.07657966851859253, -0.02698289830020445]], [[-0.15044031124332086, 0.06441228070314027, 0.1103409570416888], [-0.007642348925862168, 0.021204374487297367, -0.02599724378301115], [-0.20181670402153457, 0.0802808379460445, 0.1872546764969612]], [[-0.052457882651171406, 0.0032985577315464464, -0.0714312211911124], [0.003367213186795264, 0.004222583004446268, 0.003913244215931658], [0.00436826600557753, -0.016652493780172903, -0.0020091982242325993]], [[-0.2965575568356669, 0.3531973658627755, -0.17575842060479355], [-0.08005984330931251, 0.10779817664004267, -0.07109566639275477], [-0.1569571303776839, 0.11744711675311335, -0.13442320877847075]], [[-0.008767945889863267, -0.0029875900708573673, -0.008813109621613685], [0.005546741748130685, 0.0028268181612966545, 0.0001407477410982983], [-0.01180773363460487, -0.00977379711457111, -0.0042412055729520995]], [[0.004720041329119477, 0.007615510853195211, 0.008293639786763974], [-0.00396348405364493, 4.1018696665266575e-06, -0.00149058088982347], [0.015132079680915702, 0.036078913030730526, 0.013630144511810275]], [[-0.028089515428494315, -0.010251358181156066, 0.016605154280199236], [-0.004418243545786566, 0.006179892190183837, 0.002231857164415446], [-0.03726598417650413, -0.014539424608428081, 0.016465558267881777]]]" REF_dip_perm="_JSON [[-0.15067023982310165, 0.031056348866121426, -0.05265651106267634], [-0.3851386992521152, 0.2067057449334897, -0.16290373891389268], [-0.5786761525332473, 0.32763542408403357, -0.2977803565275422]]" REF_dip_trans="_JSON [[0.3137169819978233, -0.342860552723242, 0.17979342845224505], [0.026359782414469585, -0.01776383997714639, 0.011800712386364267], [0.35142012322335153, -0.38656339562246045, 0.20214890177846054]]" pbc="F F F"
C        0.00000000       0.00000000       0.00000000
C        1.05900042       0.00000000       0.00000000
H       -0.52078843       0.95765779       0.00000000
H        1.57455136       0.90495009      -0.31826921
C       -0.87048002      -1.22379842      -0.00000000
H        1.93254112      -1.14566317       0.40292754
H       -0.28391531      -2.13887145      -0.00000000
H       -1.52145135      -1.23484856      -0.87564365
H       -1.52139133      -1.23471640       0.87568993
9
Properties=species:S:1:pos:R:3 REF_energy="_JSON [[-3181.321037133977, -3178.375062005489, -3178.1179712793555]]" REF_forces="_JSON [[[-2.414309759586254, 0.34665553505493596, 0.6400862693561223], [2.4140363867207717, -0.7453942227233478, 0.4525883618549873], [2.6142415744951966, 0.1636520553904763, -0.09171181874740998]], [[4.728108697489957, 0.04062476096595974, 2.8601520761040833], [1.7128105007728045, 0.19012226698222906, 3.311972136368012], [-2.072597728237661, 0.319651361349729, 2.5348628792238133]], [[-0.027581890736916043, -0.0388499003804662, 0.44623662930483904], [-1.057330012792136, 0.26068419906528556, -0.16366908783997036], [0.10064228738584163, 0.20788055334613306, -0.32643466443836255]], [[0.7476517701344294, -0.3768181297830226, 0.5020411813604264], [0.3594909714263532, 0.1802405771536597, 0.36295933512015366], [1.4081233291767732, 0.48522495595595866, 0.3439319380398923]], [[0.11518808373541047, 0.09313747468912392, -0.35269968572100957], [-0.18924726946033368, -0.29394944178549604, 0.10723702990410773], [-0.3572694044404721, -0.2361561247060886, 0.6778206948722179]], [[-3.0504519260074576, 0.10755283886431552, -4.115732860056306], [-3.0398900696904345, -0.34847168919335836, -4.113892709226926], [-1.5099226340129552, -0.5798175933283944, -3.137193551839032]], [[0.081880334956724, -0.11293569172340163, 0.004022016396449122], [0.2076024331649867, 0.22469823119368545, 0.012821967903469325], [0.020717706060192746, -0.10107122339005387, 0.0021023900284700575]], [[-0.14395113212921173, -0.058511817945562365, -0.10814326654030791], [-0.18343514143417813, 0.2882310724838168, -0.14480650144821447], [-0.01442568420553923, -0.019645636326761917, -0.1905802573997406]], [[-0.03653417785912502, -0.0008550697419491347, 0.12403763979627264], [-0.22403779870354107, 0.24383900682334927, 0.1747894673646758], [-0.18950944622392063, -0.2397183482903229, 0.18720239025963448]]]" REF_nacs="_JSON [[[0.0958068927533042, 0.05246780923551241, 0.08859711097499286], [0.1763593294097466, 0.1903240358872739, 0.04268163418690922], [-0.8818065854428314, -1.8534021353420542, 1.3245936467499964]], [[0.0001631162950320257, 0.1141494683750117, 0.013656614607582513], [-0.20553860451134295, -0.08610174683644915, -0.04487797143552488], [7.4798300474607435, -0.3100468889095069, 1.4269911457537046]], [[-0.03378796798226279, 0.00391083909518159, 0.2083518792361327], [-0.03004457974591844, -0.007929221053532897, 0.8210330885886199], [-2.1180902543266433, 0.14903777466217294, -1.0455651739612717]], [[-0.02719165649158025, -0.5760447015649319, 0.01960791931535685], [0.009678940159926002, -0.6715435975008544, 0.029676030203732755], [-1.6751136814959435, 0.7228615172321856, -0.08778435969861337]], [[-0.0003262984826729414, -0.010352021329230172, -0.2499960170680838], [0.023671491025582032, -0.02083397127420066, -0.8676567688430958], [0.25861091663468183, -0.10808708856355614, 0.24801184362905712]], [[-0.025331528035121245, 0.34953660553511906, -0.04565211443527596], [0.01228260235352553, 0.6077579980153983, -0.02829219483582786], [-3.0077537875036313, -0.6004499891493977, -1.8888972238761002]], [[0.005209962202505638, 0.006385988962098059, 0.009779537696504002], [-0.0015116459018415566, -0.0017765555958058094, -0.00031628342003242805], [0.3419090922186229, 0.5843847757770347, 0.015846808836893746]], [[-0.0795923476378553, -0.027331000725604297, -0.02248281367504331], [-0.09669470016264069, -0.10308206867779261, 0.02366852859109883], [-0.1452736316839061, 0.7027881507499617, 0.06284710215124724]], [[0.08102609078461363, 0.04781493002304686, -0.02454878321292254], [0.10487345680967917, 0.11028700059529237, 0.025248270649180046], [-0.2507849147499722, 0.7091416287579897, -0.05630061310227513]]]" REF_dip_perm="_JSON [[-0.21231658224623337, -0.0511242007613111, -0.11394684117394192], [-0.6397187313865477, -0.0625020211376169, 0.01605095040680095], [0.10747407931668031, -0.01652771543263334, -0.22405874270778225]]" REF_dip_trans="_JSON [[-0.04556358893639497, -0.0037092387802468638, 0.019452943099741122], [0.023824666804593424, -0.004758142022309067, 0.004837823785682748], [-0.400010719365601, -0.011405508081471016, 0.12336421654579866]]" pbc="F F F"
C        0.00000000       0.00000000       0.00000000
C        1.37292449       0.00000000       0.00000000
H       -0.52078843       0.95765779       0.00000000
H        1.88847543      -0.05056918      -0.95795235
C       -0.87048002      -1.22379842      -0.00000000
H        2.24646519       0.06402038       1.21276383
H       -0.28391531      -2.13887145      -0.00000000
H       -1.52145135      -1.23484856      -0.87564365
H       -1.52139133      -1.23471640       0.87568993
9
Properties=species:S:1:pos:R:3 REF_energy="_JSON [[-3181.8183399077207, -3176.884658201791, -3175.6362259339235]]" REF_forces="_JSON [[[5.211053836130313, -0.509219128103795, 0.2699310025273027], [7.2994213291660905, -0.3068245297730923, -0.21201226829559416], [4.628638023661851, 0.3555771711193206, -0.0389896597421494]], [[-2.505554312645288, -1.8283338484703606, 3.4072960301973265], [-5.098657838908365, -2.4528923225326125, 2.222610076478277], [-3.417825079511272, -2.2174400788286106, 2.2016479424315514]], [[0.6039246044921535, -0.01677354640894604, -1.0423800254845756], [-0.27104655802168637, 0.13816503765986443, 0.7885898785553178], [0.10028134411370776, 0.1249100169548232, 2.2276973016115567]], [[0.20839438184483774, 0.6606073251303124, 0.8339881513685262], [0.13465912782603684, -0.403448043971902, 0.17062719236181997], [0.5833691509834621, -1.704683249908006, -0.5706765696826342]], [[0.43408232316372375, 0.12674315715633425, 1.1142881122559487], [0.5809812767823654, -0.021692035293266916, -0.32089180660902794], [0.6037250224868688, 0.09012949274057756, -1.8628625103027543]], [[-3.8543314234036874, 1.71282894541375, -4.557481561461567], [-2.46577482808113, 2.516942115888288, -2.5822482338333392], [-2.180785529930098, 3.464066955353925, -2.001117440745557]], [[0.04797705265887966, -0.1097771964292903, -0.0038123180619057334], [0.15688743807481803, 0.12473441658939541, -0.032003872659462806], [0.06462180849252001, -0.060882464470273914, -0.010629355022872475]], [[0.0927545390240587, 0.11616921648503517, -0.13797065321323124], [-0.23808989586583937, 0.1691801324379893, -0.2006823555953743], [-0.46683656576448623, -0.24399651166066982, -0.19607575811165087]], [[-0.23830100126661016, -0.1522449247743322, 0.116141261872359], [-0.09838005097332775, 0.2358352289938201, 0.16601138959689382], [0.08481182546826642, 0.19231866869737393, 0.2510060495643364]]]" REF_nacs="_JSON [[[-0.27684421771759377, 0.015304850082880338, -0.02037636293179343], [-0.5456765481178207, 0.05346544808427347, 0.06906946115001607], [-0.33968083708286295, -0.5511324879816628, 0.5110075797722146]], [[-0.12681172035168242, 0.15829195599504595, 0.17596133646022258], [0.6275434547368531, -0.026674030006525764, -0.005332451765357118], [1.7823660076442553, -0.02885652596967489, 0.1419279019641188]], [[0.08886516061639779, 0.0008050922193614723, -0.04954817150047468], [0.007001337219951456, -0.018488798463880057, 0.20464548814257413], [-0.45958244803370596, -0.05079422916953287, 0.12343394366066135]], [[0.0629387212191042, -0.18189568639609807, -0.10855666134053994], [-0.0009805568843764486, -0.15888359687896553, -0.08832424550077232], [-0.31748819024270547, -0.19680817743178597, -0.14170806278212333]], [[-0.012044155617538044, 0.01986304065990616, 0.05123680363244948], [0.02439460101746789, 0.0212599083617758, -0.235771945420641], [0.11068026059401201, -0.010026097559431884, -0.3772078096654138]], [[0.03659249248286249, 0.029889757344472422, -0.0015067583406351203], [-0.06834476504958217, 0.16417079325987613, 0.036246950837956676], [-0.7090549726357936, 0.2923244469867995, -0.25098801281162053]], [[-0.012543769890644244, -0.025475585626012157, 0.008153181573215427], [-0.003729661991459029, -0.010354510794236396, 0.002589098106433382], [0.08521104828698785, 0.16461904500078625, -0.002711573289230886]], [[-0.035622254066160194, -0.02930286820914857, -0.028262931815150914], [-0.02805010575299189, -0.034706745363771066, 0.0076595207978096165], [-0.06900661801234284, 0.15217676934666438, 0.01710894732265165]], [[0.025647259903583, -0.04551788098791621, -0.016462236755972245], [0.027133374551730007, 0.019339421458416432, 0.00754498818977995], [0.02969211503500437, 0.25478044761660146, -0.02568060372541085]]]" REF_dip_perm="_JSON [[-0.19245276079877982, -0.016342838863664274, -0.06757988095423352], [-0.524649722750057, -0.025643296171081156, -0.056033423167043774], [-0.03433749157665353, 0.033375633751611754, -0.13258023410494593]]" REF_dip_trans="_JSON [[0.42614222346285735, 0.04330262247062855, -0.05226232714344264], [-0.0962688801899428, 0.009967669093667093, -0.011771150695261934], [-0.9323384780001914, -0.08486249716687182, 0.10255080794534305]]" pbc="F F F"
C        0.00000000       0.00000000       0.00000000
C        1.58445405       0.00000000       0.00000000
H       -0.52078843       0.95765779       0.00000000
H        2.10000499       0.50326754      -0.81667113
C       -0.87048002      -1.22379842      -0.00000000
H        2.45799475      -0.63713468       1.03390237
H       -0.28391531      -2.13887145      -0.00000000
H       -1.52145135      -1.23484856      -0.87564365
H       -1.52139133      -1.23471640       0.87568993
9
Properties=species:S:1:pos:R:3 REF_energy="_JSON [[-3183.4938565119237, -3176.923610484543, -3172.51256208738]]" REF_forces="_JSON [[[-5.045156057757555, 1.3611911077671695, 0.4634825362579035], [-4.820515315455718, -0.9124698671976651, 0.20649519418248188], [-11.158078274434834, -0.5803564046645099, 0.3995096913767588]], [[7.873019445701573, 2.4790108811006304, 1.8178003647339807], [6.7527196163187515, 2.0220527299393467, -0.1684702872424552], [12.646522113886958, 1.4362701813151295, -0.024745663796938207]], [[-0.14106176136909063, -0.1714738614386921, 1.0982736428710391], [-0.809400852473437, 0.5296791969741438, -1.0294987297796896], [-0.9957426810378068, 0.5191007080688017, -3.796937092893571]], [[0.736902507383293, -0.29861858154181947, 1.1848693515753002], [0.8240996176270697, 0.7871045532277459, -0.2933509630189037], [1.4954509672739635, 2.5598114557461527, -2.486458915113053]], [[-0.057395020403281295, -0.0031177343727641113, -1.1638583064384604], [-0.4366571500434299, -0.17099497985992582, 1.323346220007104], [-0.47931903549448107, -0.04748930356616136, 4.295494265393987]], [[-3.4349672277932144, -3.2451933776004056, -3.4360572203341313], [-1.2355511347965682, -2.5151684646524495, -0.1324170994478569], [-1.0824052422470758, -3.904741014872228, 1.6287085548443205]], [[0.10612817326699431, -0.1153948365305148, 0.016050668268740156], [0.11710139239367659, 0.05774540569682229, 0.025027451498171253], [0.12377178444961831, 0.03676464700606023, 0.031975753361554164]], [[-0.19644230491480175, -0.13878418474126877, -0.0733321333330702], [0.04005523089592802, 0.3427733335196089, -0.15840991108766186], [0.3390432628617685, 0.6525624596389908, -0.2557192470843263]], [[0.15897224588569914, 0.13238058735704106, 0.09277109639851919], [-0.43185140446860304, -0.14072190764865858, 0.22727812488896007], [-0.8892428952592029, -0.6719227286708677, 0.20817265391216358]]]" REF_nacs="_JSON [[[-0.11070396945835714, 0.08359223435438075, -0.06475775815064713], [0.36990499106558905, -0.04118592910537583, -0.017648155619813945], [-0.07555050913118634, 0.12985126798717958, -0.07114459380479565]], [[-0.44696529793206435, -0.06104515024058714, 0.08086883333476005], [-0.3554594026841412, -0.004772257120890345, 0.005617516302479982], [-0.5234914063082686, -0.08428386541650006, 0.0069374944914266335]], [[0.08698309766278871, -0.052340239352383904, 0.09610572007077807], [-0.019998020787450752, 0.02320910245171774, 0.06160904465044703], [0.14283858383062797, -0.059124078711100786, 0.07708478827649518]], [[0.11670988962580109, 0.11507145761484396, -0.13119596788774598], [-0.00588206615141506, -0.03900262238134521, 0.036943516160894425], [0.10847758031606913, 0.0800930812350421, -0.09552491319359109]], [[0.02556164452121208, -0.002635689908702587, -0.07633756213871425], [-0.013767321465276023, -0.01887495877250379, -0.06632877419971263], [-0.028526715933717674, -0.018640425096559263, -0.025202199700319033]], [[0.13445463864798796, 0.07870417526187466, 0.10646503583740961], [0.026392541049277612, 0.05873009573731294, -0.026285175372040184], [0.21129556718743023, 0.13975717972659585, 0.1412765990274083]], [[-0.014178411130691416, -0.02006494477969896, -0.009566157893651214], [0.00047449289996887316, 0.006621251515842313, 0.0012664722281408487], [-0.017165174813283397, -0.028639142761974712, -0.007836994884428922]], [[0.027662855889166588, -0.0296124008658731, 0.018927916836363686], [-0.008123437127688534, 4.287216356218914e-05, 0.0008267687203235185], [0.02808557706591143, -0.03936208526839532, 0.004498762400518368]], [[-0.0241701929663083, -0.027676124193041236, 0.0251572022285299], [0.006429603861313594, 0.015244191826315265, 0.004005173613865908], [-0.004062352672969606, -0.05476298423196848, 0.005191251746347786]]]" REF_dip_perm="_JSON [[-0.14443481950708412, -0.07210602578462488, -0.03771856756770945], [-0.30585829670321774, -0.22791033789463783, -0.12999029658470357], [-0.3436039295344024, -0.2504161454459399, -0.16434860759479958]]" REF_dip_trans="_JSON [[0.26732521876749094, -0.08058799363455571, -0.09763143213056309], [0.04213405504183143, 0.04064936730764591, 0.024072760215373974], [0.3460603232705863, -0.10428526615872483, -0.12635845519373715]]" pbc="F F F"
C        0.00000000       0.00000000       0.00000000
C        1.27125894       0.00000000       0.00000000
H       -0.52078843       0.95765779       0.00000000
H        1.78680988      -0.77912560      -0.55963671
C       -0.87048002      -1.22379842      -0.00000000
H        2.14479964       0.98636988       0.70849783
H       -0.28391531      -2.13887145      -0.00000000
H       -1.52145135      -1.23484856      -0.87564365
H       -1.52139133      -1.23471640       0.87568993
9
Properties=species:S:1:pos:R:3 REF_energy="_JSON [[-3183.9814570659805, -3176.0559019704137, -3169.7369830254934]]" REF_forces="_JSON [[[-5.53529692329776, -1.1870804038886233, 0.12264685144971395], [-6.633744601635371, -0.23289220999175803, 0.7013618708343069], [-16.393690259608096, -0.5085442837419936, 1.5298570862478889]], [[8.68849424972751, -3.020368324693742, 1.1640784989859467], [7.294308834322915, -0.6708839281029498, -2.3298570170150534], [17.49542276133713, -1.7117008143819392, -2.3735403782873687]], [[0.2962831164283685, -0.16098319413049939, -0.3768031914610148], [-1.6029341797055752, 0.7247513449256989, 1.305691752780818], [-1.1926354115837503, 0.3826827177300784, 4.481440511084212]], [[0.7300904164346393, -0.4494372207986556, 0.48771776349090834], [0.3346875534584087, -0.47644032290456967, -0.14012407415648254], [1.3877807977558017, -1.6519230955442508, -2.902389869893715]], [[-0.35127586722463694, 0.19038945427258747, 0.41141196537660496], [0.32446924981593733, -0.3065881011039741, -1.0564163789584], [0.18777668347184706, 0.24910584690584478, -4.118935120699742]], [[-3.8054346287879235, 4.794983148684974, -1.7869793961803127], [0.33808485965138757, 0.2580224362027148, 1.4888895909716195], [-0.987838347483815, 3.260608971827758, 3.36859491142897]], [[0.10849245564458448, -0.04978960701067464, -0.016814185906727272], [0.2537866040421884, 0.11688866269247271, 0.015794351431444722], [0.1539825711892895, 0.0363293889394238, -0.054433132438318294]], [[-0.00964269892850609, -0.005152272398869268, -0.09737358158982193], [-0.2556417065327289, 0.05969443947535238, -0.11916515956243871], [-0.8559289403643473, -0.7042802730233287, -0.22498950488250993]], [[-0.12171011999742741, -0.11256158003548854, 0.09211527583545773], [-0.05301661341411622, 0.5274476788060414, 0.1338250636737721], [0.20513014528809081, 0.6477215412886982, 0.2943954974396057]]]" REF_nacs="_JSON [[[0.0998090474017958, -0.024391611141583, 0.006908046514278343], [0.3701543936854456, -0.008324374088600803, -0.01382444099079201], [0.28830500936334497, -0.11263884191484566, 0.020066496243843313]], [[0.4681860384974845, -0.026846377082264953, -0.16305125478088803], [-0.3957093972133149, 0.06265856652543488, 0.0024075841819994007], [0.2023010554639217, -0.03774402553259099, -0.08212873939490334]], [[-0.08002579968750612, 0.02324149596749525, 0.02313486133952464], [-0.045723663334475834, 0.03387290677261075, -0.039823592464232574], [-0.11325464608450063, 0.05756733448568442, 0.032148529153159175]], [[-0.09755270941863438, 0.054174131694337324, 0.13579037898528226], [-0.00974408412235915, 0.021534634184145585, 0.025976167594255934], [-0.0432182536165134, 0.030443412005555857, 0.0669060332826981]], [[0.016247355951278387, -0.007709816846330567, -0.051281923730287705], [-0.003302286299663538, -0.028417759558953225, 0.03401893672556595], [0.02809519222335685, -0.0015339986418536323, -0.05121217150887426]], [[-0.10804492200790133, 0.08750317413660938, -0.03926865443548035], [0.07983592854726136, -0.11107127251622617, -0.009686763976547202], [-0.11028999106140996, 0.12479002460787048, -0.039995442247368555]], [[0.0040611476250286705, 0.01308177419175712, -0.005034073369163975], [0.00517011942244199, 0.005950463665057862, 0.0009107395341864809], [0.0005929852389345726, 0.012474287235150818, -0.0010040542043286461]], [[0.0290625407795894, 0.03595159948106988, 0.023673840838921455], [0.007017194555271393, 0.014650780977872946, 0.0012962387149279015], [0.011090444501152328, 0.04852898679864494, 0.00794268616638059]], [[-0.018100859805235413, 0.023595101977617876, 0.01578371925054023], [-0.00463985059606235, 0.010887596324695588, -0.001795042617952831], [-0.0054818088147365615, 0.02510744901299696, 0.0033715094938287387]]]" REF_dip_perm="_JSON [[-0.11407383971794094, -0.018340255308134133, -0.03684206941978178], [-0.41934502839808124, 0.19437231256217485, -0.11599755536802449], [-0.3693367492692861, 0.10610207865282203, -0.12619699581148688]]" REF_dip_trans="_JSON [[-0.3288757436873317, -0.17590399500498038, 0.08691811567523086], [0.058156384407993124, -0.04259281374138428, 0.015959424959869836], [-0.3957694666833107, -0.216221502901135, 0.1065266623812193]]" pbc="F F F"
C        0.00000000       0.00000000       0.00000000
C        1.26205316       0.00000000       0.00000000
H       -0.52078843       0.95765779       0.00000000
H        1.77760410       0.91874154      -0.27594191
C       -0.87048002      -1.22379842      -0.00000000
H        2.13559386      -1.16312309       0.34934135
H       -0.28391531      -2.13887145      -0.00000000
H       -1.52145135      -1.23484856      -0.87564365
H       -1.52139133      -1.23471640       0.87568993
9
Properties=species:S:1:pos:R:3 REF_energy="_JSON [[-3181.0798906473706, -3177.363790844631, -3176.876124166906]]" REF_forces="_JSON [[[3.0895199040248356, 0.3984828820717767, 0.5011471968959768], [7.917219948323922, -1.00154642714513, 0.2100464479839864], [7.699223591978728, 0.2861571105237977, -0.7941963901245368]], [[-0.6108261074030767, 0.2242929852645982, 3.6440795736122342], [-4.097445597439054, 0.3279286468335346, 3.4373161080488757], [-7.588083484946698, 0.43780869044276416, 3.1827511353015234]], [[0.4327366196001367, -0.08120689672566354, 0.39083478932850446], [-0.6584666685471168, 0.10007480520402597, -0.2376119843366651], [0.6361562292097532, 0.2087614150818066, -0.13584668173752987]], [[0.29857921946616794, -0.32667209904203126, 0.4192271304571262], [-0.10705424212808153, 0.3067962641447551, 0.28076982324103633], [0.9807108805863969, 0.42717599040570425, 0.31853174627197595]], [[0.5675723060250816, 0.1473725542181835, -0.3578475981508455], [0.44020880163747694, -0.1717532728375842, 0.2868802311637489], [0.22263893204725532, -0.08702199589925709, 0.8031815565310039]], [[-3.6627615049655224, -0.14857930088126142, -4.619285880965517], [-3.3215452156781238, -0.6292359910663221, -4.015077856935704], [-1.6398413506093616, -0.6998727085004914, -3.345935581318445]], [[0.04282023138058184, -0.15105532116120404, 0.006652859310884418], [0.21772405421623753, 0.29997658866400867, 0.010278319739097892], [-0.03826579056152859, -0.1949150099213195, -0.012432231953512026]], [[-0.13523039751189023, -0.06354224033091392, -0.12406485452251331], [-0.144271373262244, 0.43324066911396203, -0.14977599756564877], [-0.024335204093857705, -0.05077515688953792, -0.23815655058522037]], [[-0.022410270614568427, 0.000907436586117943, 0.1392567840353481], [-0.2463697071211898, 0.3345187170879741, 0.1771749086609155], [-0.24820380361542027, -0.32731833524387105, 0.222102997615455]]]" REF_nacs="_JSON [[[0.17620050506138843, -0.006264584892727824, 0.07604324844666664], [0.15790717006276675, 0.1285161794580649, -0.003255125245779871], [-0.18340957681857867, -0.5365719985480358, 0.5967623195267685]], [[-0.09009956168109706, 0.1503554856525363, -0.01899184625506381], [-0.21854484424063808, -0.1287630126302199, -0.023812875658598225], [1.6480671702273382, -0.0772509795381746, 0.11797976283311985]], [[-0.021207110832037454, 0.004447095806272032, 0.22143948755720472], [-0.01896310304319081, -0.0052280531294671565, 0.47423453803584825], [-0.47673821497240293, -0.02579232571957138, -0.5973364613626598]], [[-0.021226973857647723, -0.48476330002215984, 0.03992942886575642], [0.012061923285060956, -0.2940436314612606, 0.027912450332252616], [-0.3280004455261213, 0.44780893591943594, -0.07469303876025234]], [[-0.007286204344598264, -0.008948329682967835, -0.2627645879505516], [0.016768152359376978, -0.015947384853555405, -0.4994410330138227], [0.07636383861951525, -0.022605315039943036, 0.27661198133532955]], [[-0.004647856500279381, 0.2803444253353036, -0.027858029174833696], [0.019070710129434426, 0.3389774078770788, -0.02081574142020464], [-0.7688005091205603, -0.37971651810348034, -0.32281984857046825]], [[0.005038143210921248, 0.008792036154569955, 0.010212381434089611], [-0.0011288979556069165, -0.002397265767103071, -0.000506869444631911], [0.09573202321276657, 0.18057789959526555, 0.007652726257154589]], [[-0.07386145291810615, -0.02125572970835223, -0.017573160132097466], [-0.04405380370160093, -0.056449901369206024, 0.02175777170050156], [0.011899996094029319, 0.2204313964872915, 0.023653152559682564]], [[0.07593948422837975, 0.04351634423678203, -0.020539674172772457], [0.04982924942533375, 0.05885680362189353, 0.02399843818283216], [-0.07015968609470045, 0.1888112187507107, -0.027823698194774777]]]" REF_dip_perm="_JSON [[-0.20395757971908463, -0.059699725396261435, -0.08977339700389864], [-1.1367410659584567, -0.07444404816021344, 0.03065869768737039], [0.46493958763707427, -0.003960064435090806, -0.19007934538633905]]" REF_dip_trans="_JSON [[-0.08328309105124851, -0.003545141578138986, 0.02045411383772946], [0.06234645718718657, -0.0020106012866373804, 0.0049911585499315455], [-0.34494055783417266, -0.005468982017393051, 0.04460973092736645]]" pbc="F F F"
C        0.00000000       0.00000000       0.00000000
C        1.57712256       0.00000000       0.00000000
H       -0.52078843       0.95765779       0.00000000
H        2.09267350      -0.09422335      -0.95464754
C       -0.87048002      -1.22379842      -0.00000000
H        2.45066326       0.11928638       1.20857994
H       -0.28391531      -2.13887145      -0.00000000
H       -1.52145135      -1.23484856      -0.87564365
H       -1.52139133      -1.23471640       0.87568993
9
Properties=species:S:1:pos:R:3 REF_energy="_JSON [[-3182.199369245324, -3178.1107945484055, -3176.850882341002]]" REF_forces="_JSON [[[0.001444551693756201, -0.6060350928331762, 0.2961682819470217], [2.686397133757602, -0.21686898930011728, 0.24069480357659975], [0.10837146475666047, 0.3441471271430357, 0.5941823519481837]], [[2.5486254904987375, -1.2284847198564435, 2.9269455414403818], [-0.24633017601343946, -1.6010368365465246, 2.3687268006170146], [1.6558657598938626, -1.4056320045734938, 2.00676422930117]], [[0.16919224820344358, 0.0051813811690063945, -1.524207590330805], [-0.6008786291128215, 0.2346157248069387, 0.6426073073195419], [-0.5303899971256473, 0.20280870072458532, 2.7703764808230313]], [[0.6039892879911031, 1.3051781645506106, 1.0746592510338413], [0.6934642667615522, -0.4865782362916932, 0.2277795801885223], [1.0490622195429258, -2.4845272768792723, -0.6089886571232039]], [[0.011956967910984991, 0.10327651463417409, 1.7209800358495162], [-0.12872184653940957, -0.22702951488182999, -0.4883942522402595], [-0.0637073906145819, -0.1621593846760909, -2.694691301567972]], [[-3.2513715426215857, 0.5330244188060702, -4.444556494018207], [-2.231706499219554, 1.9712523764042513, -2.988570436772651], [-1.993275824462812, 3.4588278900063183, -2.1563734083842396]], [[0.091181364084319, -0.0741902520537832, -0.006361432200207197], [0.14132222551757737, 0.09483868045054418, -0.010699223412321499], [0.10131857551566086, 0.007599115758041782, -0.004341629431131904]], [[0.15279151593233198, 0.20370170993010123, -0.13252781412930467], [-0.23932514403814747, 0.04160841593696959, -0.16887971484136544], [-0.5417945170336302, -0.3295347283378802, -0.14221409646871724]], [[-0.3278098836936992, -0.24165212434498753, 0.08890022040768919], [-0.07422133111600686, 0.18919837942275433, 0.17673513556398035], [0.21454970952926888, 0.3684705608348062, 0.2352860309023696]]]" REF_nacs="_JSON [[[0.1312322804370274, -0.067094137075384, 0.012821965077972649], [0.5937577488222271, -0.0808730237585484, -0.055476017729440275], [-0.31463799340316667, -0.4610135820171122, 0.38633670339612786]], [[0.32038251300083226, -0.15151339659804852, -0.05864063541854986], [-0.5910910020826966, 0.02842073683899807, 0.0467510965239533], [2.0003708244501093, -0.2563025652781609, 0.31295574451524977]], [[-0.1107444298052772, 0.011255342118172426, 0.09766392772274747], [-0.005405513939152102, 0.018490831559160585, -0.29284931545400356], [-0.5506177922208102, 0.021972066988994565, 0.07512349747798092]], [[-0.09579415530099722, 0.20895450820273204, 0.08779454303403056], [-0.002103538818238144, 0.25119587832365725, 0.09526446712092264], [-0.41313296121840476, -0.050598969273352716, -0.0417420930554906]], [[0.0036726743115600823, -0.01746138144734189, -0.11330136034593125], [-0.034970610656881146, -0.027224302559873126, 0.3027615673727324], [0.11496325629093397, -0.015158394646032304, -0.2678004568101545]], [[-0.12034807752927587, -0.029956340846008435, -0.08982810852718245], [0.029193898838502284, -0.21945680890691083, -0.0816390694071786], [-0.7629571461295421, 0.2659463863827384, -0.45798577685280284]], [[0.01484178565663544, 0.02770034806617504, -0.008462897907074229], [0.0028129061895603514, 0.011718093992093625, -0.0011066496472226408], [0.08513899497082184, 0.14363471795425173, -0.005221653615667343]], [[0.023628105947553185, 0.025601428133847946, 0.027962345627704336], [0.03845159245306277, 0.042810029100535045, -0.007242469081485819], [-0.07089658577434237, 0.15701877033207243, 0.007639643605324623]], [[-0.03077001123418562, 0.047739148783630544, 0.02075943862893864], [-0.03930204615806979, -0.028594005562048528, -0.004986036071309265], [-0.019649516325636728, 0.22232968652472465, -0.021011590415008802]]]" REF_dip_perm="_JSON [[-0.18613198080564816, -0.00790784540445056, -0.08842637966017129], [-0.2975305233262327, -0.010868368839968738, -0.09804287596724476], [-0.1997353986169532, -0.002476887996649773, -0.15461135857375982]]" REF_dip_trans="_JSON [[-0.2796444224244175, -0.04107774557311625, 0.0818020034154619], [0.04767957730387816, -0.002815731595838225, 0.016972112287327114], [-0.5590024477923514, -0.08004823605484385, 0.15701743281375635]]" pbc="F F F"
C        0.00000000       0.00000000       0.00000000
C        1.38154691       0.00000000       0.00000000
H       -0.52078843       0.95765779       0.00000000
H        1.89709785       0.38101678      -0.88037275
C       -0.87048002      -1.22379842      -0.00000000
H        2.25508761      -0.48236571       1.11454835
H       -0.28391531      -2.13887145      -0.00000000
H       -1.52145135      -1.23484856      -0.87564365
H       -1.52139133      -1.23471640       0.87568993
9
Properties=species:S:1:pos:R:3 REF_energy="_JSON [[-3179.2991625796735, -3173.2961953099957, -3168.748466025629]]" REF_forces="_JSON [[[-36.23308131994721, 1.5199535148033696, 0.875396292607704], [-34.86201866381467, -0.6586227298532324, 0.6196123758493302], [-36.125012319458406, -1.4097503888291578, 1.2092728394814667]], [[38.95697532835618, 1.6556160447154293, 1.273362740302326], [37.57143945811062, 1.6111932051617024, 0.2226438618528845], [37.99236864033216, 0.21281709691065542, -1.731688040086755]], [[-0.7627535945364169, -0.05468876079284031, 1.6344322434212208], [-1.507382213622666, 0.9155896797830093, -1.0591973263392551], [-2.1985034735018583, 1.6237162026454497, -4.203189910313124]], [[1.3879283241300298, -0.8573056451433723, 1.599788764139855], [1.5585524544057856, 0.8958586370413177, -0.3655946696319244], [2.3472674376600637, 3.162513598003821, -2.332883534003156]], [[-0.7470310536175567, -0.12559759407548954, -1.7008399571984985], [-1.469696876552191, -0.5087620191638048, 1.265716762857024], [-2.0538332145136717, -0.7844969338743587, 4.598463307404354]], [[-2.696917449308965, -2.0573075278470987, -3.731889104804743], [-1.2173419264729937, -2.456286232127937, -0.7482126440488884], [0.21304250515275197, -3.0312828868173156, 2.477797560104009]], [[0.15800699891105469, -0.05646672420066533, 0.011470583587774995], [0.18840796015543418, 0.08479220751185826, 0.044263488351113614], [0.20749222072779755, 0.12976333055430153, 0.06374606234106119]], [[-0.2682744754566222, -0.22460387194735715, -0.05752047476084141], [0.05311910785575563, 0.29634785708654715, -0.15221499374473313], [0.4111092669676977, 0.7620196437201553, -0.22969487763597693]], [[0.20514724147159225, 0.20040056448981314, 0.09579891270496513], [-0.31507930006500573, -0.1801106054417314, 0.1729831448550201], [-0.79393106336818, -0.6652996623156481, 0.14817659270811612]]]" REF_nacs="_JSON [[[-0.0132534919321668, -0.06397337081792577, 0.008722662723958339], [0.12565571367319, -0.004259818726720825, -0.03462011882419587], [0.044377514157639616, -0.18937417486599062, 0.003046938054228414]], [[0.5919465775826271, 0.09189334407676486, 0.06143116754986913], [-0.054846448173335005, 0.04691119200022208, 0.1152440282826193], [0.7332554658784708, 0.21737181349120424, 0.03383951356566828]], [[-0.18005181048627544, 0.11725727627600539, -0.10935321003200905], [-0.007808835665191943, 0.003301883963822255, 0.058186364404318985], [-0.2389137509224265, 0.13510705199573106, -0.03090013566264623]], [[-0.1875088921873445, -0.14564729807705373, 0.1327228412212408], [-0.015022347883563016, -0.04552213213434711, 0.016537583617510246], [-0.25709665205010873, -0.17005698203449443, 0.18441957429789477]], [[-0.06868534805543473, 0.004227539730359852, 0.09628243560597687], [0.0008804955376317895, -0.004503244657337067, -0.06358294252475256], [-0.05096609124521674, 0.01673983857568575, 0.011321955497496226]], [[-0.24660818693735911, -0.14610721797494425, -0.26662029701792617], [-0.04905971044505964, -0.007415656488948925, -0.09748322683335049], [-0.28781689198319027, -0.154044111457281, -0.2742895999901191]], [[0.01483733603144166, 0.00751913036671123, 0.007488902457795071], [0.001098867139889334, 0.0032222913927434623, 0.0009392886947597353], [0.016914824092034247, 0.007035064489928035, 0.006696528970167009]], [[-0.03661769958312478, 0.012274921251029242, -0.01926174170765619], [-0.009104027026228576, -0.004658968767733727, -0.00019457137149955618], [-0.05380389172029659, 0.010488099554478826, -0.012627501487760226]], [[0.006767993278703644, 0.015326387005654253, -0.01694073822439873], [0.006474957180964602, 0.011366641859054378, 0.0034404993912319558], [-0.003938011442160457, 0.03856676651455846, -0.008275046245596628]]]" REF_dip_perm="_JSON [[-0.17155837739592436, -0.0784975918514609, -0.06421754245327582], [-0.2949489135793673, -0.25943096012652617, -0.18862823087539943], [-0.3667135006555358, -0.3518067863107326, -0.25897293259079196]]" REF_dip_trans="_JSON [[0.15112691309885848, 0.11019240468392046, 0.1778882698418112], [0.025457847432094748, 0.03648644269521514, 0.0258617298728172], [0.1858884370582667, 0.13717565813151564, 0.2184304208723311]]" pbc="F F F"
C        0.00000000       0.00000000       0.00000000
C        1.06691527       0.00000000       0.00000000
H       -0.52078843       0.95765779       0.00000000
H        1.58246621      -0.69035492      -0.66606310
C       -0.87048002      -1.22379842      -0.00000000
H        1.94045597       0.87398654       0.84323320
H       -0.28391531      -2.13887145      -0.00000000
H       -1.52145135      -1.23484856      -0.87564365
H       -1.52139133      -1.23471640       0.87568993
9
Properties=species:S:1:pos:R:3 REF_energy="_JSON [[-3180.076287927208, -3176.6759944909095, -3175.1723937092174]]" REF_forces="_JSON [[[-19.472554870481073, -0.9319922113427992, 0.648844040910767], [-17.309543654157608, -0.16282723773218993, 0.6107400016242613], [-19.201449337315907, 0.2788152780708608, 1.3050037249841722]], [[21.923804419512837, -0.6085623436949092, 2.0484545259649964], [19.457519017422847, -0.9292420889169966, 1.7960395655578847], [22.230396976291964, -1.1529285220792116, 1.3993431458198922]], [[-0.4463281995670653, 0.16044899738656926, -2.1888720410114724], [-0.9978136033509164, 0.397226605193662, 0.6647897510726236], [-1.6665678395506098, 0.5911127209248939, 3.3854445952101493]], [[1.2899832617294382, 2.0020849098963334, 1.2535752833176887], [1.4983851709703961, -0.5393746837475779, 0.1943984826695107], [1.4986256861696199, -3.16473418817643, -0.7199389030460112]], [[-0.7581082181317843, -0.10397178821731219, 2.337231421754208], [-0.9838467093465613, -0.47815031233879896, -0.5799920784075377], [-0.9871518875954678, -0.5424513258214133, -3.466730203216095]], [[-2.499213652556296, -0.4469832239121991, -4.049906149054531], [-1.5950731481358758, 1.572148614229338, -2.7245667125880106], [-1.7278558910662465, 3.7197780725474217, -1.9907329940012073]], [[0.1427108830056148, -0.01644496000649787, 0.00668908786701325], [0.15332521500646537, 0.08242563841273814, -0.0019052907641660414], [0.18197764800506075, 0.09701079171676082, -0.015673469213760328]], [[0.21647249638620886, 0.287036873841912, -0.13126480986354838], [-0.1982008100838614, -0.06697695670888593, -0.1408405531346837], [-0.6265574965201732, -0.3902375835662183, -0.11172967459636507]], [[-0.3967661199019558, -0.3416162539543685, 0.07524864011437671], [-0.024751478326566503, 0.12477042160794612, 0.1813368339693205], [0.29858214158081786, 0.5636347563804696, 0.21501377805934052]]]" REF_nacs="_JSON [[[-0.07549681193141762, -0.11531874341838559, -0.01794376045693177], [0.4340197931314876, -0.09904348485623125, -0.0723044870500645], [0.07025282800658567, -0.3255774389615835, 0.0466650381330011]], [[0.7646792249348803, -0.14403917678889722, 0.085985244783606], [-0.3195878685624334, 0.013405021904872447, 0.14025218606126885], [2.162004642583706, -0.4993211711135466, 0.6376151094692615]], [[-0.1964355697138876, 0.058284127817053215, 0.16594580858545954], [-0.00883136044401592, 0.009350309299961314, -0.3026347702162534], [-0.6812737156756294, 0.17768658415159297, -0.23489091569315285]], [[-0.18477516308306693, 0.1854821079145609, 0.08229924418114189], [-0.02882514000464816, 0.3092457096447436, 0.0896326728419104], [-0.6107990054032889, 0.3717474669643076, 0.1709875339832509]], [[-0.029365784998569875, -0.0018421308597512255, -0.18192778436951948], [-0.030333993447678606, -0.017884487327271804, 0.3020706879301399], [-0.04875669264100597, -0.009437744315682891, 0.11709642041319565]], [[-0.2406185664779788, -0.0008199215050184729, -0.21036543934299118], [-0.04259287997994449, -0.23361252432790644, -0.15585673405157216], [-0.7949792939435164, 0.0253931194562096, -0.744177270350105]], [[0.017642829928446836, 0.01834875482939909, -0.008955447675735223], [0.004071582466144251, 0.011119404616755967, -9.23630470738313e-05], [0.06822470491316888, 0.07119115990536365, -0.007799110463676017]], [[0.00023941174802261951, 0.015274366363101208, 0.024237729077882193], [0.04025138059010821, 0.04528591117174026, -0.004583014003692843], [-0.03866863780713389, 0.13308493404772295, -0.0016385077728049775]], [[-0.03851150076787818, 0.042058112557999815, 0.020135935991435892], [-0.046627649359368126, -0.0327581339040801, -9.420501558863909e-05], [-0.11564105880719507, 0.0895206260046346, -0.00809196069024146]]]" REF_dip_perm="_JSON [[-0.1873270162852455, 0.003210981219831003, -0.12459598137976154], [-0.22643215812022296, 0.016263933210917337, -0.19516345103298843], [-0.2849555855269853, -0.03627994471683529, -0.14763476642719062]]" REF_dip_trans="_JSON [[-0.04252104096005602, -0.04961529515737395, 0.1305456079730827], [0.02385092309608541, -0.003490087489306974, 0.02851486618259834], [-0.06213266906494157, -0.08215769146507403, 0.22213143177776193]]" pbc="F F F"
C        0.00000000       0.00000000       0.00000000
C        1.15793946       0.00000000       0.00000000
H       -0.52078843       0.95765779       0.00000000
H        1.67349040       0.31762640      -0.90517591
C       -0.87048002      -1.22379842      -0.00000000
H        2.03148016      -0.40211374       1.14594906
H       -0.28391531      -2.13887145      -0.00000000
H       -1.52145135      -1.23484856      -0.87564365
H       -1.52139133      -1.23471640       0.87568993
9
Properties=species:S:1:pos:R:3 REF_energy="_JSON [[-3184.0753845119175, -3176.1783006895485, -3170.477291095623]]" REF_forces="_JSON [[[1.6793058051669891, 2.0602392416302675, -0.08780346042998925], [4.199255963102907, -2.9604767467462825, 0.673499627262189], [-14.907783312935209, 1.2928078554844187, 0.35395822618647044]], [[2.170750689494608, 5.129430653336222, 0.8645069461457431], [-5.6833513862280975, -3.2785611708808213, -3.696389430304438], [17.535080003676477, 3.7427623377174273, -1.6729006455938198]], [[0.26572749855962624, -0.5449909288934532, -0.036974665173153926], [-0.2558813905794408, 1.142287723165348, -0.34529666769525463], [0.13411939220628327, -0.6046879707282192, -1.4963300542046616]], [[0.5030805136843849, 0.5945491805459813, -0.1921748323124282], [-0.30197877436951664, -0.10748577122245095, 0.8333049613762995], [0.44470346996155025, 0.8590866787574146, -0.7530777104829856]], [[0.477285170954717, 0.2216033567687541, 0.1180522573104967], [0.18174959245805578, -0.084158511372932, 0.3057127855436005], [1.9615198201998076, 1.3559605273352056, 1.7479848878950797]], [[-5.125966540446785, -7.0177600778080675, -0.5373259989992932], [2.2106961932284226, 4.21838764700482, 1.7733817331380595], [-4.232342984205522, -5.957339892897568, 1.6982654507596353]], [[0.08889312957301278, -0.21609497159569827, 0.011310942297700783], [0.05497698492543313, 0.19019380250715207, -0.038499750575235483], [0.0775552859241032, -0.21128245854019387, 0.0056086973310910115]], [[-0.08534662520724276, -0.09986380991831845, -0.17793277310676606], [0.10347552364132843, 0.5275206457724699, 0.073596522859419], [-0.18766928592172938, 0.06145752353333416, -0.30331209419498234]], [[0.026270358220233957, -0.1271126440696335, 0.03834158426710055], [-0.5089427061767003, 0.3522923817718762, 0.42069021839476267], [-0.8251823889060723, -0.5387646006608313, 0.41980324230376603]]]" REF_nacs="_JSON [[[-0.5357892962731803, 0.1519100813923694, -0.10977782569107755], [-0.6945775889262192, 0.22674467732212053, -0.023089518634448712], [-0.056276697071610815, -0.006227830665970257, 0.012731857037682547]], [[-0.04368421759413343, 0.25395058071377113, 0.24210852178990144], [0.8744372212780522, 0.3660987203607454, 0.09482066249285265], [0.8705536623521107, 0.2538437388616763, 0.18360134848066834]], [[0.016089734546889587, -0.04276243731435955, -0.051610241107233855], [0.028724195640353858, -0.09161231415704582, -0.023688739500198078], [-0.052929412653172685, -0.005652783146497292, -0.012635403891831489]], [[0.03747118598571658, 0.011598900546671526, -0.07536502147720156], [0.030448024128148586, 0.03173068616546002, -0.04424936283619336], [-0.0029106379649565268, 0.05304989306052766, -0.10753085851242777]], [[0.010937444014276142, 0.02773796825980505, 0.080452989685566], [0.03989530769904317, 0.04387262075161799, 0.05228338988517282], [0.11011098080584839, 0.0324502456960233, -0.050215359981194606]], [[-0.21021527086416852, -0.32514176217633917, -0.16712584760708868], [-0.3075002168567515, -0.4888410257135551, -0.03320682339979064], [-0.29757909319633147, -0.3936467850648703, 0.02305042751615611]], [[-0.004927651390382623, -0.026719805820567696, -0.0059835807547988906], [0.0008105334630111072, -0.02136411752313886, 0.0008176949804867898], [0.00944963149930814, 0.025227364041592558, 0.007158568566713039]], [[0.008217623234193996, -0.03587577722262578, 0.0008920762868371006], [-0.007176348421870019, -0.028237251610553248, -0.015558392058692961], [-0.014989159164827119, 0.0321925588959092, -0.0072015043343628985]], [[-0.05037024075229711, -0.06606185206084236, 0.02870997230765765], [0.0025820749036015176, -0.04054406209799887, -0.010546396736275618], [0.022984020379264187, 0.04789925621776121, -0.0049967264062234845]]]" REF_dip_perm="_JSON [[-0.16699059369864808, -0.05623537167143567, -0.03854509907537521], [-0.35022450936910543, -0.35051598143729995, -0.007232046594908224], [-0.007328856960415676, 0.07244538254973702, 0.003224722045903028]]" REF_dip_trans="_JSON [[0.7423547893103835, 0.03135714587940955, 0.006237428185409523], [-0.04189586978638831, -0.08073592988636373, 0.008701553561216404], [-0.9575572487778319, -0.024171905428766745, -0.009911601974442038]]" pbc="F F F"
C        0.00000000       0.00000000       0.00000000
C        1.40628037       0.00000000       0.00000000
H       -0.52078843       0.95765779       0.00000000
H        1.92183131      -0.95797484      -0.05014136
C       -0.87048002      -1.22379842      -0.00000000
H        2.27982107       1.21279230       0.06347876
H       -0.28391531      -2.13887145      -0.00000000
H       -1.52145135      -1.23484856      -0.87564365
H       -1.52139133      -1.23471640       0.87568993
9
Properties=species:S:1:pos:R:3 REF_energy="_JSON [[-3183.346441821389, -3176.742794906119, -3173.540680633667]]" REF_forces="_JSON [[[5.08877680804654, -0.8811368119481294, 0.12653961207474287], [4.5513105131919644, 0.0951338925530955, 0.07083368491383121], [-2.3023936892120673, -0.0012339709618359464, 0.5603124119469955]], [[-2.063363360506458, -3.0416219536368283, 2.3840111096986907], [-3.354555785400804, -2.965776936311724, -0.5954225705720902], [3.854344739090785, -3.026218561760026, 0.30868483622550513]], [[0.602267656457496, -0.03906086840007576, -0.8288989559402177], [-0.46614765797039, 0.1669386118964548, 1.2665106624022944], [-0.2343159569341088, 0.053390912946087575, 2.9259737556124583]], [[0.28576392693528274, 0.01241151408466625, 0.8236961683905083], [0.17033246124055032, -0.48175214976347425, 0.012895307424214252], [0.5970609317976551, -1.6655007356710487, -1.6328146145816536]], [[0.1943234091836552, 0.1721374056080134, 0.8375660435310724], [0.6828798426756922, 0.052791657492872346, -0.6798081857443871], [0.8273544439478522, 0.4210755403186099, -2.6014824933734237]], [[-4.0611131082872465, 3.926849294896293, -3.3309161448201823], [-1.4077920014514955, 2.7263288737595603, 0.020394524570331904], [-2.2740878645193714, 4.3244725720967985, 0.43381537603167636]], [[0.07797075996109107, -0.09069371542611307, -0.0012479058289060626], [0.15092928151185325, 0.0666581992158353, -0.048909343025311844], [0.10012070389487078, -0.0418207012254509, -0.033307190698665196]], [[0.060288932701701436, 0.0768399513337922, -0.11664146772597686], [-0.2716826057052482, 0.047177364345812205, -0.20077429717850065], [-0.6586997882691779, -0.39223304662254327, -0.23075643857180267]], [[-0.18491502449545053, -0.135724816513216, 0.10589154061957194], [-0.0552740480934383, 0.29250048681234336, 0.154280217209894], [0.09061648020120532, 0.32806799087771127, 0.26957435740910385]]]" REF_nacs="_JSON [[[0.2617601583824233, -0.02101968839821132, 0.04649395740797869], [0.49380356599371356, 0.0034293430773705185, -0.02774068883388243], [-0.04161391797594205, -0.2708663810707861, 0.1373165424329532]], [[0.30349045115522, -0.051172445069378875, -0.24492370952229392], [-0.5639599119130361, 0.03583479237861163, -0.06600394392966916], [0.7819117925640731, -0.09302042272874668, 0.11256168143489302]], [[-0.08229582060081164, 0.004445772351830931, 0.05510859811404332], [-0.03521671204084709, 0.017761013616628463, -0.05000058830034349], [-0.14332962282832692, 0.0029846773174231297, 0.022219446702290074]], [[-0.06939127540898983, 0.0876455268640247, 0.1329857134409539], [-0.00824838155633517, 0.04357598422019887, 0.052778648946840936], [-0.07413944274161226, -0.012805343540355717, -0.021953910191582292]], [[0.02237240881736992, -0.019536308495329238, -0.06734807731099716], [-0.00846851825817926, -0.02762928810733945, 0.06870753413549455], [0.06655224841492267, 0.007942210063857728, -0.09302137445646784]], [[-0.018985556127806717, -0.017248244046040136, 0.034152767344234385], [0.10261001681865996, -0.11232524675841352, 0.03047390186929755], [-0.3166819902686222, 0.21641493830953595, -0.15627697305193208]], [[0.00979761827355581, 0.02191361338451122, -0.00570287963317317], [0.004186844463410706, 0.01004497446236655, -0.002548765128187099], [0.02301138085926761, 0.05296248312621791, -0.0039276151834671015]], [[0.03376373592392842, 0.03410986603224608, 0.027377495703479637], [0.01124873955249552, 0.019076244444977002, -0.0013215264875371276], [-0.009438655924779523, 0.07266591835140815, 0.0035422894554985114]], [[-0.012379256494766198, 0.04881948429691647, 0.011740264761148944], [-0.00653255166661338, 0.008156191017438627, -0.004105815569793118], [0.005258302317730393, 0.08094223507566914, -0.007040910190350195]]]" REF_dip_perm="_JSON [[-0.16519804047925205, -0.013335263508566128, -0.04295257313514454], [-0.32873885405648406, 0.06180665206063866, -0.08082312256698397], [-0.23101243347756473, 0.06256239749460003, -0.0945514569789438]]" REF_dip_trans="_JSON [[-0.5647937420176737, -0.08878118194280481, 0.05269837027621938], [0.06764257119183767, -0.03405972692021414, 0.01723293807221788], [-0.8725580746626612, -0.13316384081240948, 0.07930962373376911]]" pbc="F F F"
C        0.00000000       0.00000000       0.00000000
C        1.48624195       0.00000000       0.00000000
H       -0.52078843       0.95765779       0.00000000
H        2.00179289       0.81634969      -0.50378878
C       -0.87048002      -1.22379842      -0.00000000
H        2.35978265      -1.03349543       0.63779457
H       -0.28391531      -2.13887145      -0.00000000
H       -1.52145135      -1.23484856      -0.87564365
H       -1.52139133      -1.23471640       0.87568993
9
Properties=species:S:1:pos:R:3 REF_energy="_JSON [[-3182.334603031018, -3177.346426170753, -3174.530990319643]]" REF_forces="_JSON [[[-8.826954664425614, 1.1871231715390431, 0.7315353872149982], [-7.439271974131914, -0.4812494438043266, 0.27299322316126395], [-11.323051353142757, -0.7844752789241403, 0.44933457353192596]], [[11.480881113375245, 1.616988237395307, 2.115924897565404], [9.808922005337687, 1.9932073341545489, 1.3831012936467], [13.274885281178257, 1.433675539004646, 1.080483184430471]], [[-0.34060377689100085, -0.06410133458532853, 1.7403127766510396], [-0.8711067488270745, 0.41268406781773903, -0.8233775081433928], [-1.053581011302306, 0.5417481773813609, -3.6492762041132916]], [[0.909478705464286, -1.221677543150253, 1.419534221846352], [1.1069965061198532, 0.7719312601683029, -0.040096981996347106], [1.557972767229308, 3.166628300705153, -1.652237573555933]], [[-0.19741577600383275, -0.07151074612627444, -1.8196303130368081], [-0.7146565192924387, -0.31638511658020096, 1.0129451873978101], [-0.8240831811698116, -0.26050226103408536, 4.02063152300409]], [[-3.0571140902045637, -1.362160867640628, -4.251510671270834], [-1.7084719858967663, -2.5501143208335613, -1.872346729011395], [-1.343457122859684, -4.175260556352203, -0.2105658523453059]], [[0.11345192500012975, -0.09036449285075238, 0.014602455096493232], [0.13500513529059557, 0.05978081249669906, 0.02889531766039963], [0.13843107312848046, 0.05585098961165542, 0.028931970324326345]], [[-0.2998794629452121, -0.21629914698078098, -0.06706420310317193], [0.0030551339153758587, 0.2412710797419356, -0.1578698190919219], [0.340683354847076, 0.6021512219639664, -0.2281978647015592]], [[0.21815602662886313, 0.22200272240034508, 0.11629544903577263], [-0.320471552513789, -0.13112567316188747, 0.1957560163777729], [-0.7677998079103259, -0.5798161323590102, 0.16089624342570888]]]" REF_nacs="_JSON [[[-0.04903631575026655, 0.08097749845315098, -0.05927497341330919], [-0.4015888012943107, 0.008123824526760862, 0.01883724868173838], [-0.0143734779295725, -0.21643384984829125, 0.08505653158781012]], [[-0.5203150868450795, -0.09232071060856133, -0.013890214166185683], [0.3565958789605236, -0.017668586332835808, -0.04078679836735812], [0.961388676055748, 0.1605584553894198, 0.1446903288975297]], [[0.12541684448633722, -0.04993102826117196, 0.13249936988655237], [0.020348061871746755, -0.013652205524400333, -0.12249987780251408], [-0.2684782798882002, 0.0738229460226917, -0.08070308740802477]], [[0.14207712270158418, 0.1655722836354189, -0.10851157288118646], [0.009129217391023266, 0.10375216993675343, -0.05713683704825403], [-0.23213029786389777, -0.12763500157158872, 0.09871218624148875]], [[0.029786709509015002, 0.003316521717727335, -0.10363240015144812], [0.014044612275792942, 0.02112696793588493, 0.13400503164779234], [0.019151963913832448, 0.015150501706876178, -0.001935695154187206]], [[0.17423908339837146, 0.03321161062257505, 0.16494884376682523], [0.0013287776972528947, -0.08027895880284965, 0.075308877886592], [-0.36714965789117393, -0.12648087493422946, -0.28522222654632456]], [[-0.017167371036296026, -0.02188840306379694, -0.009171663939605843], [-0.001405707296201056, -0.00741912722416778, -0.001452360706601447], [0.03183425243781972, 0.04472931127997155, 0.008567759619163163]], [[0.0323364433358392, -0.032618277258499986, 0.01933083174315629], [0.01746427054880033, 0.01004584201332221, -0.001180478892478426], [-0.048402487531498166, 0.05459138091059766, 0.0003874727156468378]], [[-0.01684964474911302, -0.026931024291073646, 0.024288123073868687], [-0.01670383291436918, -0.023559936260829407, -0.004726128989234257], [-0.011562660520454964, 0.07975549813674566, -0.0024537185424674517]]]" REF_dip_perm="_JSON [[-0.1641424952037192, -0.0783581016473964, -0.06396354536527778], [-0.251457117118063, -0.14285254256545699, -0.14036670221242692], [-0.30483814446453705, -0.15758645561268775, -0.17654046781870567]]" REF_dip_trans="_JSON [[0.17325468517560885, -0.04856978841807067, -0.11657609374608935], [-0.03098989641901875, -0.02288624664108184, -0.027109783581634645], [-0.2442255217250599, 0.06952331515330772, 0.16593624478844693]]" pbc="F F F"
C        0.00000000       0.00000000       0.00000000
C        1.23717612       0.00000000       0.00000000
H       -0.52078843       0.95765779       0.00000000
H        1.75272706      -0.56004064      -0.77883531
C       -0.87048002      -1.22379842      -0.00000000
H        2.11071682       0.70900920       0.98600236
H       -0.28391531      -2.13887145      -0.00000000
H       -1.52145135      -1.23484856      -0.87564365
H       -1.52139133      -1.23471640       0.87568993
9
Properties=species:S:1:pos:R:3 REF_energy="_JSON [[-3182.53208612761, -3176.9571555927787, -3173.429873964979]]" REF_forces="_JSON [[[-10.467252545216331, -1.070746051029153, 0.3517922349244458], [-9.667684004385734, -0.13144776394447985, 0.590905752814396], [-14.057176182043188, 0.13911080243995033, 1.3614947483259972]], [[13.203814893239697, -1.6691098438520846, 2.0548293370237802], [11.93169701007139, -2.106518345218828, 0.6712717304400425], [15.770482678141029, -1.6840383414749982, -0.21159915966606402]], [[-0.06770087775971298, 0.008323444818179282, -1.5711199484251352], [-1.1110280419356526, 0.43871048503907417, 1.1969657581987607], [-1.4789917910749437, 0.5719266870565126, 4.123131677316047]], [[0.8948650370728025, 0.8849490455883412, 1.5060393221881325], [1.057437116130259, -0.80601400468356, -0.14767622343249356], [1.627274191751188, -3.0030370982388956, -2.024710512926685]], [[-0.46066469478918504, 0.04165336933588041, 1.697440392610907], [-0.6265835486781934, -0.40318661229476377, -1.0586654028151017], [-0.6222256891412097, -0.3762128007789173, -4.023694549858778]], [[-3.0883932039872106, 1.8831236137872343, -3.99287021124393], [-1.4941116857385355, 2.725222680717423, -1.27088474211922], [-1.022091281830798, 4.183560366021762, 0.6875174971506063]], [[0.132652507857239, -0.03296700785799478, -0.0030519273780177545], [0.1704378416222074, 0.09853908501957612, -0.020093225353374707], [0.1498889876801787, 0.06889896613723046, -0.03261715728203078]], [[0.15618982384661378, 0.19712798453154248, -0.1137693862085093], [-0.27439356997091613, -0.10057387445668983, -0.14312477695875656], [-0.7174808120621664, -0.5301072311194417, -0.1343601019512721]], [[-0.303510940263809, -0.24235455532102093, 0.0707101865098246], [0.014228882889422484, 0.28526834982448007, 0.18130112922656194], [0.35031989857946977, 0.6298986499594099, 0.25483755889217646]]]" REF_nacs="_JSON [[[0.04968231127188786, -0.07142821206562379, -0.002246754210121554], [0.34802009695988223, -0.021890779234030277, -0.027602515473972442], [0.03881356686797474, -0.1296286371633919, 0.07384121662253271]], [[0.5200674159683343, -0.13731519654517368, -0.04692777917082897], [-0.3036287082995272, -0.005009562095256904, 0.05841976284326877], [0.7477179578480503, -0.2577656707679779, 0.05678066889069546]], [[-0.1367706506736299, 0.0404166092991568, 0.10829575212646667], [-0.015607350098372686, 0.011556876219269718, -0.09056578439626564], [-0.24298824450278994, 0.06134369705583674, 0.024043740896352188]], [[-0.13615640513352797, 0.1483774698687082, 0.12890764742801142], [-0.009488446024301468, 0.06901783926656761, 0.04300796059495768], [-0.18598685512781485, 0.12842501111457236, 0.11085450885181085]], [[-0.016858197786922182, -0.008044441853496474, -0.11990277972720287], [-0.019085220264535897, -0.02067089894769315, 0.08483371078680724], [0.027363224991580774, 0.007311687663395311, -0.06922773014247487]], [[-0.1797025414452643, 0.05474213504932144, -0.16421035315170876], [-0.0009615578791548828, -0.05063491661621605, -0.06588496615394368], [-0.2896384648663704, 0.13224692325032147, -0.24534302011401724]], [[0.011665032413551832, 0.016186584633674242, -0.008537285277799544], [0.0027964603662695726, 0.007082866816291462, -0.0006705529543264243], [0.021014578287060427, 0.025806423987388603, -0.007430768128732031]], [[0.015172095671953103, 0.021231217434578422, 0.021345240404261882], [0.011068134579820794, 0.01445714608243784, -0.002117990935558694], [-0.00855573903882613, 0.055360961339936225, 0.005371804275793483]], [[-0.02856672322305737, 0.03427816917068869, 0.017012695512148023], [-0.01211932747633424, -0.0029153774708092213, -8.815061329963523e-05], [-0.03384364914597656, 0.05072997984918011, 0.00141380192445999]]]" REF_dip_perm="_JSON [[-0.1499790346328119, 0.01203321614107452, -0.07360710693582644], [-0.27217245339331325, 0.06096138306287467, -0.15512559857978864], [-0.34021036188328097, 0.04248621782603338, -0.19411206964414407]]" REF_dip_trans="_JSON [[-0.15155212180450842, -0.10935066048710171, 0.13696023749757605], [0.03530456201448377, -0.014518550135326628, 0.024087475998587102], [-0.20028790988555198, -0.14643597144398032, 0.18369258553075382]]" pbc="F F F"
C        0.00000000       0.00000000       0.00000000
C        1.21849972       0.00000000       0.00000000
H       -0.52078843       0.95765779       0.00000000
H        1.73405066       0.64120021      -0.71350700
C       -0.87048002      -1.22379842      -0.00000000
H        2.09204042      -0.81175689       0.90329699
H       -0.28391531      -2.13887145      -0.00000000
H       -1.52145135      -1.23484856      -0.87564365
H       -1.52139133      -1.23471640       0.87568993
9
Properties=species:S:1:pos:R:3 REF_energy="_JSON [[-3183.396308046848, -3176.457497673575, -3172.9966333246693]]" REF_forces="_JSON [[[5.299827492086912, 1.4022929386970893, 0.290748909891582], [4.7688012432412785, -1.3621584434018081, -0.2513120196517134], [-3.151542093047917, -0.0874762706919407, -0.07752300976700824]], [[-2.206048016523865, 3.4444423142045864, 2.2155436296047917], [-3.7075454088140845, 2.4257597014779595, -1.1202414130225058], [4.828387636325271, 2.7561542239786445, 0.5538082467420291]], [[0.3559135859708794, -0.20661842447779463, 0.5753575853056697], [-0.0964835121521485, 0.2287685335400106, -0.6458956275969986], [0.007524725385037247, -0.025048840955998113, -2.34531058839877]], [[0.320546338456056, 0.1401069659781628, 0.5903983290862327], [0.07318395949433418, 0.38834579590099694, 0.06785023518365414], [0.5433732544868332, 1.4239334495362697, -1.6795087044886825]], [[0.46307005176441396, 0.06242171739158154, -0.7116415154913136], [0.5100273393504253, 0.11586388349616482, 1.2153361910346365], [0.8719384565922862, 0.51004362162482, 2.873944202449548]], [[-4.299228293485767, -4.624433541545774, -2.9551016076723027], [-1.13240390837425, -2.208697950231059, 0.582718712148833], [-2.4918695412429477, -4.366971514285282, 0.645256320026882]], [[0.07031068038071141, -0.17500597411663033, 0.019100024695258396], [0.07533550865265456, 0.07566337065069209, -0.004176419358750803], [0.06304660929234142, -0.07654558356984338, 0.008156626733888537]], [[-0.1387838239374845, -0.10579603081467304, -0.11167326950173755], [0.035937488255054065, 0.3909323768806601, -0.15013750536281417], [0.12398007060832365, 0.3703179530401132, -0.2679693827763074]], [[0.13439198528691298, 0.06259003468261301, 0.08726791408255372], [-0.5268527096518644, -0.05447726831827943, 0.3058578466258956], [-0.7948391183973341, -0.5044070386777545, 0.289146289478558]]]" REF_nacs="_JSON [[[0.3130255300295856, -0.13833387060670993, 0.10974305825016396], [0.5117285248986769, -0.10724246172605315, -0.02494095304677589], [-0.05033734624353178, -0.07664029926271096, 0.10284416189554484]], [[0.2782248135252148, 0.00043106847803951314, -0.2442623479728782], [-0.5961342560687165, -0.05819427991647008, -0.10289192333495863], [0.7922763201457184, 0.059979046556300576, 0.15949802898024623]], [[-0.039580098036705154, 0.02741344115515646, -0.04305898679990635], [-0.021485106079906603, 0.027542225489573066, 0.0537802035541714], [-0.12845058736030104, 0.006890706345079404, -0.08962079267385553]], [[-0.06913367965766117, -0.07203645386031644, 0.13152121669978611], [-0.013412917903787456, -0.035694143746836854, 0.05317314891879828], [-0.0632187170849215, 0.02505979301015714, -0.035739274239572266]], [[-0.008967149937300458, -0.002703269565773827, 0.022731042210145262], [-0.01925267198310912, -0.02608303398649521, -0.04313033618736045], [0.08343610585951176, 0.011964842771774335, -0.011021077930684188]], [[0.0207446613744496, 0.042479487361810266, 0.06987530172036402], [0.13060137887387455, 0.15510483371010256, 0.053537198223797704], [-0.3176353549274356, -0.2498041389907497, -0.13036388297928964]], [[0.01063981120013042, 0.026275552300888322, 0.008386864685164258], [0.0004954811336767079, 0.013641512476085835, 0.00017050573284802713], [0.02302155073741177, 0.05340427659240403, 0.01217966950742465]], [[-0.018948296709121827, 0.03870316917922403, -0.012419530726296939], [-0.0023017040372850044, 0.012789787051403104, 0.0037164943600080536], [-0.01091784613089853, 0.0647613238325821, 0.004480081016597267]], [[0.035781425376172675, 0.04094741073509584, -0.029508415129434695], [-0.0012394321264687649, 0.01891190041455072, 0.006311413137439546], [0.015097515672388952, 0.08015914117678004, -0.0036991169707396993]]]" REF_dip_perm="_JSON [[-0.1695784492755462, -0.07756904511992707, -0.030433847806191794], [-0.33721236346756633, -0.198879719902468, -0.06955772713126747], [-0.20423656012721364, -0.16623901215137518, -0.07563283780977804]]" REF_dip_trans="_JSON [[-0.6171113231995573, 0.03347676995891791, 0.030446337971074298], [0.06821035187991213, 0.05250109232419081, 0.017060984318942606], [-0.9420813871700828, 0.046560890330619664, 0.04482757762714559]]" pbc="F F F"
C        0.00000000       0.00000000       0.00000000
C        1.49868476       0.00000000       0.00000000
H       -0.52078843       0.95765779       0.00000000
H        2.01423570      -0.86517893      -0.41436140
C       -0.87048002      -1.22379842      -0.00000000
H        2.37222546       1.09531305       0.52457986
H       -0.28391531      -2.13887145      -0.00000000
H       -1.52145135      -1.23484856      -0.87564365
H       -1.52139133      -1.23471640       0.87568993
9
Properties=species:S:1:pos:R:3 REF_energy="_JSON [[-3184.051555229062, -3176.1474035212873, -3171.2173841958024]]" REF_forces="_JSON [[[3.3172052341943696, -1.087637646409011, -0.06659758996304824], [2.486422395567739, 0.17296893354264073, 0.6760655589033586], [-10.704340872475463, -0.6888264985444092, 0.700841979954435]], [[0.4091008233933188, -4.396521717135946, 1.5701033078216746], [-3.1376547702276683, -0.06621446642975382, -3.9531620690560616], [12.910349813319927, -3.8535107733323626, -1.1597404495538282]], [[0.7677201282934474, -0.14499688808830888, -0.2880301954326494], [-1.00606514921154, 0.29042752249169823, 1.2638897113975982], [0.10133839607635495, -0.18277721077087195, 2.385963397033932]], [[0.41867901162227894, -0.5510630276158781, 0.017885579837683234], [-0.23528789698836405, -0.12972978787749245, 0.599437157811246], [0.45092332868951296, -0.9799307983457161, -1.390168761370951]], [[0.04562794387145953, 0.3480661960064598, 0.17563296049541505], [1.073900293200588, -0.12458242190537612, -0.5430589195547592], [1.4564078634857205, 1.1326838770429197, -2.0393528090877004]], [[-4.859038604379979, 6.159593914147494, -1.4262596987721416], [0.8897803279070831, -0.9557457157340378, 2.0782766274026527], [-3.3929446816826667, 5.002281383767444, 1.5511077577415515]], [[0.0719308027288288, -0.11527741344394427, -0.00822521062368807], [0.20872295505219685, 0.12905847271598592, -0.017404211684985755], [0.09290639852490355, -0.104941286508394, -0.04122664090193967]], [[-0.06772514845115536, -0.06824876075225796, -0.1107459771548244], [-0.1788595372704274, 0.17981270172432795, -0.18425719071149302], [-0.741688876013557, -0.49049245385778667, -0.32951328687713394]], [[-0.10350019127447561, -0.14391465670753312, 0.13623682379166338], [-0.10095861802887575, 0.5040047614732698, 0.08021333549287465], [-0.17295136992248566, 0.1655137605472135, 0.3220888130614433]]]" REF_nacs="_JSON [[[0.4144204870494341, -0.014128941673893045, 0.056611096185963744], [0.5472927240408517, 0.027267177348311623, 0.012719185475337062], [0.0016093017756677738, -0.22333024760500592, 0.008750965691334526]], [[0.20409447342106463, 0.1505622134538544, -0.2929840578556747], [-0.6995722291590399, 0.20980129233397524, -0.1453204972094876], [0.7871303374959128, -0.20484035010811327, 0.19060724737473822]], [[-0.06648197772282374, 0.010609474044019207, -0.019870673878137717], [-0.07766472238018873, 0.031885733351919125, -0.0014578904519432826], [-0.04052673716529092, 0.012604648371497103, -0.007436170266662601]], [[-0.05164210884897207, 0.026146826789341784, 0.11969734915796452], [-0.026634339924642564, 0.02858588005093871, 0.04680603539732433], [-0.009730143477536314, -0.04094945939388208, -0.08019570721149642]], [[0.03288587360411891, -0.035362360851900906, -0.007094497514837233], [0.010483327864361767, -0.05077435812771024, 0.020261395068480164], [0.061777793050801895, 0.0349036297061816, -0.04053762865676966]], [[0.12572788663926918, -0.19019703606918575, 0.1339675134487857], [0.23935530371986094, -0.31493195587653977, 0.07341577458904715], [-0.2996195887639911, 0.35450443745272175, -0.05739233737053215]], [[0.00850804231360798, 0.023276914315626365, -0.0006167684716232158], [0.007457898858397908, 0.01426822823483416, 0.00024690197430425343], [0.007661438860080512, 0.029286419114993086, 0.0017799255636936383]], [[0.04320443043679369, 0.056158819441611905, 0.027328982561041687], [0.011162150767121716, 0.02531462979289522, 0.002033895710068742], [-0.0035554691855542685, 0.051661120404669233, -0.0001969231018738839]], [[-0.00020144476805015687, 0.04623702618296102, 0.00159821459813285], [0.0021968083341323773, 0.03003566982322832, -0.008335556300021878], [0.00838586532868338, 0.03909901573204969, -0.0019196586643656244]]]" REF_dip_perm="_JSON [[-0.1583505288200261, -0.028179103164373095, -0.035272284138220096], [-0.3459981643802855, 0.14730373743545547, -0.041274526799682056], [-0.1062040938766901, -0.024621061989056243, -0.01943868861655846]]" REF_dip_trans="_JSON [[-0.708314544472518, -0.08081604837439751, 0.019664624779181756], [0.0609983840642245, -0.058261695964667445, 0.0020201890992586273], [-0.9738522555404453, -0.11679715487991633, 0.027360288135457406]]" pbc="F F F"
C        0.00000000       0.00000000       0.00000000
C        1.42975334       0.00000000       0.00000000
H       -0.52078843       0.95765779       0.00000000
H        1.94530428       0.94679862      -0.15428003
C       -0.87048002      -1.22379842      -0.00000000
H        2.30329404      -1.19864324       0.19531790
H       -0.28391531      -2.13887145      -0.00000000
H       -1.52145135      -1.23484856      -0.87564365
H       -1.52139133      -1.23471640       0.87568993
9
Properties=species:S:1:pos:R:3 REF_energy="_JSON [[-3179.4029383704406, -3176.5984472109035, -3175.628839403187]]" REF_forces="_JSON [[[-21.3582969542915, 0.8954524118787159, 1.170446717966296], [-18.667215845213835, -0.08881660371825156, 0.5395085189233108], [-19.90087158037194, -1.1036168555351615, 0.6337932472565414]], [[23.707528551090043, 0.4644323437772023, 1.7309795212144101], [20.23298754178823, 0.8766319933879275, 1.8512090268327666], [23.75248503027844, 0.8980955645480238, 2.3399653564066822]], [[-0.785204200554578, 0.14704072155420966, 2.1486004022205356], [-0.778072279121914, 0.34217693100429947, -0.42888695381503217], [-1.56696718281242, 0.6605091744823439, -2.832653651567921]], [[1.4041239968900432, -2.0525343208882223, 0.9497680397855168], [1.732639334528025, 0.4708694088937013, 0.22557797974101051], [1.2955128253829282, 2.8221440845382118, -0.23806845067185511]], [[-0.6244718709217886, -0.21815823137780382, -2.204008871014176], [-1.0420358955830726, -0.4547975603575115, 0.5654577883923232], [-1.2470023122428455, -0.45642011044745007, 2.922768274386016]], [[-2.34046341741514, 0.8239386781857091, -3.8659201663549556], [-1.419397762095519, -1.1564225852915933, -2.7848419557286315], [-2.1308915841011813, -3.108414007539731, -2.8126455030203537]], [[0.13499857280047273, -0.047033537166411676, 0.0057342669302982265], [0.1297358333586738, 0.04247268965791352, 0.02118777485002139], [0.2060793981304034, 0.12064464108943825, 0.028423834715796365]], [[-0.3705596629711709, -0.28263377604946116, -0.0704743364405151], [-0.022336856114644334, 0.08846841578485096, -0.15715545548927207], [0.1854191140986871, 0.49706492512395434, -0.18130194704649125]], [[0.23234498537361228, 0.2694957100861413, 0.13487442569191976], [-0.16630407154792398, -0.12058268936135759, 0.16794327629300349], [-0.5937637083619589, -0.33000741626005914, 0.1397188395426602]]]" REF_nacs="_JSON [[[-0.14967055770629253, -0.07765280091674158, 0.05318438146276851], [0.46644297938760865, 0.11442964653962602, 0.0010035123594090407], [0.0991772746910542, -0.5250542682399376, 0.03440405961686535]], [[0.8311631815838818, 0.03587384675570203, 0.1581239659820354], [-0.3059473915491906, 0.0012040974327682068, 0.12367420727720492], [3.452359365403052, 0.20446220481370464, 1.0802740349083457]], [[-0.19551141386237253, 0.06464462108236653, -0.2829624846849567], [-0.05302925314147471, 0.005681146855194777, 0.4922811829016779], [-1.0614502091016877, 0.2811196912461237, 0.4211888271799165]], [[-0.1911912823183929, -0.11329214297041916, 0.03846887943975736], [-0.0432529343746323, -0.5513950490286719, 0.10026916429597851], [-0.9850875179540161, -0.6530283039047293, 0.23999981141947938]], [[-0.039081566560247, -0.002735891865556099, 0.24698132186373778], [-0.001845603608350837, -0.02905956926016999, -0.5281977113382252], [-0.09524084901626581, -0.018988107678417073, -0.6477450746732265]], [[-0.23285040373721944, -0.02580167481931611, -0.19648849746185912], [-0.0636657067792484, 0.41670097447203525, -0.2032672668734365], [-1.2639392593352536, 0.24184124895320216, -1.1773341237455834]], [[0.021132605477316508, 0.018604464074456453, 0.008314003433767647], [0.0041570317244737625, 0.010522542631812824, 0.001193015009777084], [0.1048135086265095, 0.11285141853713528, 0.006629702752045843]], [[-0.029338926627442072, 0.04714507790854441, -0.02438051685308398], [-0.07742386691241529, -0.06092837260755726, 0.0017604270006713457], [-0.21701741380085635, 0.06423641188776585, 0.01602399022731176]], [[-0.008231256657842688, 0.009269688294042856, -0.029148901443708713], [0.07567495978507378, 0.08524562893206457, 0.006457633409538368], [-0.030437651044627756, 0.27081276776589003, 0.012748036225884015]]]" REF_dip_perm="_JSON [[-0.20537121924982782, -0.0674258171467593, -0.12571190301227753], [-0.2150647474606384, -0.08199525666979461, -0.2270359216900544], [-0.2710482039874203, -0.07342181397818852, -0.11006818072361116]]" REF_dip_trans="_JSON [[-0.028797135551004174, 0.0067333082958593825, 0.10508476878471032], [0.01610442163227317, 0.008136571373902276, 0.03788300210343689], [-0.04504861505383355, 0.01697015697753408, 0.21665960606787474]]" pbc="F F F"
C        0.00000000       0.00000000       0.00000000
C        1.14896848       0.00000000       0.00000000
H       -0.52078843       0.95765779       0.00000000
H        1.66451942      -0.22072324      -0.93354765
C       -0.87048002      -1.22379842      -0.00000000
H        2.02250918       0.27943473       1.18186756
H       -0.28391531      -2.13887145      -0.00000000
H       -1.52145135      -1.23484856      -0.87564365
H       -1.52139133      -1.23471640       0.87568993
9
Properties=species:S:1:pos:R:3 REF_energy="_JSON [[-3181.3529544571, -3174.8950324052926, -3170.0201474296014]]" REF_forces="_JSON [[[-23.827487408133933, -1.3196523072807067, 0.41821176771024954], [-23.190543688306228, -0.30153189781319056, 0.8298578415840375], [-26.38139331940754, -0.22169361603296162, 1.8902925900584258]], [[26.62956847196998, -1.5958523084801128, 1.5022319171592413], [25.6029289266766, -1.912049289211049, -0.19311079921211644], [27.7316009743626, -0.8909137516020514, -2.161331947098931]], [[-0.2505970290916838, -0.02933486282696439, -1.3950418066734913], [-1.561839391735604, 0.6887093989395268, 1.4506698531415037], [-2.2012369051269345, 1.1050611420620255, 4.625014088588153]], [[1.1369793002052002, 0.480481758889056, 1.522008840988285], [1.250797235115619, -0.8576524122697213, -0.436749978519803], [2.0864355830225807, -2.8054372156037806, -2.5906175055332072]], [[-0.759258512090051, 0.011001574778977579, 1.4855067328420797], [-1.0084988883837012, -0.6175727287740079, -1.3537066373333526], [-1.2381037987640315, -0.7837542037170322, -4.474190813373632]], [[-2.9473435536543096, 2.524222427416477, -3.4926900189894936], [-1.0844271537151486, 2.6407224860056897, -0.35194718814589837], [0.13458167004822918, 3.312535700889301, 2.6088330888643396]], [[0.15700021616632626, -0.008904603946805378, -0.0022926209884750436], [0.20574568478620872, 0.12842782665011548, -0.015585929014037563], [0.1761718854851807, 0.11535842416833156, -0.04182966925340476]], [[0.12696393851046617, 0.162373951649859, -0.10344536649582216], [-0.26514100433980853, -0.13955826702895938, -0.11641345591334223], [-0.711846973745098, -0.5949296683618879, -0.11906592229995742]], [[-0.26582542388885755, -0.22433563019828515, 0.06551055444775808], [0.0509782799011528, 0.3705048835039501, 0.18698629341354456], [0.40379088412513564, 0.7637731881966789, 0.26289609004745257]]]" REF_nacs="_JSON [[[0.008791781584245819, -0.06529706071774809, -0.027767990214179982], [0.19939401911855661, -0.009576460490251475, -0.02592989769091295], [0.07340678965324571, -0.04950771761857699, 0.020655322382207804]], [[0.5431097343480049, -0.13981815004698553, -0.031167760200004897], [-0.13935611755596597, -0.03387872112878649, 0.09248324971131361], [0.5724005702416417, -0.25167710315545355, -0.04024370173857193]], [[-0.1545908401407376, 0.07022923513320815, 0.09919057351277218], [-0.011968013488873948, 0.007660641635856474, -0.05692182463195596], [-0.22182629644380605, 0.0870989272648086, 0.023959906483312875]], [[-0.15601133395778552, 0.12080038109623896, 0.14476616064827807], [-0.011249520808217868, 0.03870276579017393, 0.017801900600146452], [-0.19088184777115394, 0.1301783868629943, 0.1650205458527224]], [[-0.03730862406050322, -0.0018751115000799866, -0.10542734269834962], [-0.010902121788768503, -0.013407876907196735, 0.04720169504208494], [0.0029194073928711477, 0.0064543487886430185, -0.05168790974212444]], [[-0.22136422642523992, 0.12823392625980007, -0.21108008922275273], [-0.026666074709226936, -0.0011336391505992985, -0.0745353357746287], [-0.23250147504883495, 0.13705913137314799, -0.21387184008015625]], [[0.006684818286297523, 0.006944982320135939, -0.00898466208400433], [0.002781743413188048, 0.004746008562361473, -0.00024719547840449334], [0.009024543637616764, 0.005347697451534162, -0.00806085739126726]], [[0.010988805942484843, 0.016570327476802142, 0.016738776085441262], [0.005413322825617199, 0.008082281662927201, -0.001533701761611268], [0.00068182154758522, 0.039179623035563674, 0.00819924292587774]], [[-0.03115192515661391, 0.01731839735779006, 0.01667714773871008], [-0.007692680571958324, 2.305208444682432e-05, 0.0008294255273040873], [-0.03856722365394423, 0.021638830467023015, 0.008087103036081048]]]" REF_dip_perm="_JSON [[-0.14505315668032526, 0.023205340514968788, -0.07151058998817046], [-0.3116669186336648, 0.10117828264367963, -0.17859326395613248], [-0.4039802865175438, 0.0899253788680286, -0.24514882878499683]]" REF_dip_trans="_JSON [[0.03415205246814121, -0.17018050372647048, 0.17141127995811617], [0.033121620982130194, -0.016136637517510526, 0.0219039018586188], [0.043209977828843504, -0.20789088621294805, 0.20967616025550584]]" pbc="F F F"
C        0.00000000       0.00000000       0.00000000
C        1.12423704       0.00000000       0.00000000
H       -0.52078843       0.95765779       0.00000000
H        1.63978798       0.74243606      -0.60746906
C       -0.87048002      -1.22379842      -0.00000000
H        1.99777774      -0.93992106       0.76905338
H       -0.28391531      -2.13887145      -0.00000000
H       -1.52145135      -1.23484856      -0.87564365
H       -1.52139133      -1.23471640       0.87568993
9
Properties=species:S:1:pos:R:3 REF_energy="_JSON [[-3182.415428466699, -3178.0175313324007, -3176.2701374846974]]" REF_forces="_JSON [[[-1.6952990313826362, 0.9971947632856827, 0.6650305971208871], [0.5033760567278256, -0.4490526040102264, 0.11630051274205183], [-2.7700454914068913, -0.6067513508259141, 0.161884227996783]], [[4.270391432916969, 1.3755605875996155, 2.5863126222381623], [1.8734663267219451, 1.8377450386862242, 2.126234662928616], [4.671677663704345, 1.4586017342603095, 2.061025708017164]], [[-0.11994232414546749, -0.07825946613591336, 1.670071535494346], [-0.5996671077651766, 0.268467825889586, -0.5943987880162498], [-0.5497935884707285, 0.29504500301535663, -2.970371306031777]], [[0.6969930499852003, -1.3146387831993447, 1.1899523561471073], [0.8486378401916034, 0.6199432225275002, 0.12989823927563557], [1.1876988794293646, 2.8193435675860545, -0.9929040595332216]], [[0.07339505210723855, -0.016258529601173334, -1.7376577226924823], [-0.34592094731090706, -0.2439945874131201, 0.7822820901247761], [-0.3810170527590453, -0.13724681498384372, 3.35196317843011]], [[-3.215911211143124, -0.8663226661614143, -4.439600848950619], [-2.0662032207387577, -2.256413625065319, -2.623164065923674], [-1.864141320569775, -3.8575710347405865, -1.5634466068031567]], [[0.09319899405110413, -0.10534837669977556, 0.015383471703446686], [0.1206072432603775, 0.06583744675853788, 0.02125267935514773], [0.10525071721619042, 0.0240874499170514, 0.011838740156743674]], [[-0.30222633819726547, -0.19978601639927726, -0.0770001304398855], [-0.036793767046007224, 0.2217093877822016, -0.16064428447586826], [0.2713117808170216, 0.4788494009043724, -0.2235761798938194]], [[0.1994003758070871, 0.20785848730960096, 0.12750811937836098], [-0.29750242403630195, -0.06424210515436181, 0.2022389539898549], [-0.670941587957385, -0.47435795513101864, 0.1635862976618214]]]" REF_nacs="_JSON [[[0.10107269993737948, -0.09626030300305162, 0.0819342597624325], [0.5435120267685216, 0.007058523397066522, -0.012785271602666142], [-0.18726982472824458, -0.32795417261738263, 0.1928667785913036]], [[0.3998992655299504, 0.11101331818854751, -0.009200223708961928], [-0.5259044135779098, 0.010640840614078743, 0.014679777665594796], [1.467332446608845, 0.104877736555857, 0.24983811715648524]], [[-0.1015779453955768, 0.02904347293229823, -0.13112913756327033], [-0.024324553705407335, 0.013920310322720618, 0.21165302787332305], [-0.3817585060872403, 0.0474090847637885, -0.15814474050548133]], [[-0.11504705811969573, -0.1856007815948709, 0.08915994933961244], [-0.0033668436660512554, -0.18361236188764968, 0.08313042593239275], [-0.30947685820065685, -0.03663969754683696, 0.022573168714666338]], [[-0.017788189891184688, -0.007626292885460397, 0.09511602366920993], [-0.016656675500385156, -0.03037870845100403, -0.23061088792411166], [0.07184200702853477, 0.007703510192169168, 0.005963067297003923]], [[-0.13343484332300184, 0.0062788764647385914, -0.11412657707193331], [0.019777773655402085, 0.15673480477598434, -0.07742575540981929], [-0.5597933213914589, -0.177179638680402, -0.35230575615365883]], [[0.017446525585319103, 0.027566092921783237, 0.009692825138149537], [0.001468283670641618, 0.009387326439477862, 0.0018063392326746169], [0.05782296498424948, 0.09917645080308, 0.011398610339676162]], [[-0.03240375383720877, 0.03854681581841217, -0.02021840019215762], [-0.028676934300702527, -0.019571119672537104, 0.00342909154605382], [-0.047699378787274926, 0.11635912217778907, 0.012960646109642864]], [[0.022795044964995594, 0.030746882094591983, -0.02769258324188353], [0.030080968454026604, 0.03716366375465469, 0.006891169875138586], [-0.028676026688923877, 0.13921251824736625, -0.000605134124074114]]]" REF_dip_perm="_JSON [[-0.17874524582026247, -0.07890773469027741, -0.06864791788983185], [-0.2604094734983219, -0.10323940655448342, -0.11087389279783444], [-0.24079756719552217, -0.10629361744049268, -0.15777591245701414]]" REF_dip_trans="_JSON [[-0.27323562707867066, 0.025202384805315326, 0.08835323368673578], [0.038644186690099114, 0.014390341133668941, 0.026176958673358956], [-0.47056495321837755, 0.041591222148760376, 0.14825817676406336]]" pbc="F F F"
C        0.00000000       0.00000000       0.00000000
C        1.33872713       0.00000000       0.00000000
H       -0.52078843       0.95765779       0.00000000
H        1.85427807      -0.45365716      -0.84523674
C       -0.87048002      -1.22379842      -0.00000000
H        2.21226783       0.57432813       1.07006631
H       -0.28391531      -2.13887145      -0.00000000
H       -1.52145135      -1.23484856      -0.87564365
H       -1.52139133      -1.23471640       0.87568993
9
Properties=species:S:1:pos:R:3 REF_energy="_JSON [[-3181.225970075193, -3177.769727035976, -3177.342585011502]]" REF_forces="_JSON [[[2.1341480142400147, 0.19612216885309416, 0.45093690816691134], [7.1402138846274195, -0.9260722085307453, 0.39560213449694503], [7.150930051852568, 0.4255430780481512, -0.6062137144798716]], [[0.30008190486514047, -0.16179680360403115, 3.4940069294531435], [-3.140115466127602, -0.16595706596258866, 3.4243380037535416], [-7.033689276602769, -0.02553940702591417, 2.987225386900914]], [[0.3528188727832806, -0.07295195211178622, -0.04281136573155901], [-0.80034619315771, 0.13005639922851528, 0.05069465754831088], [0.5234962528699645, 0.2043621868501956, 0.32431159024644723]], [[0.3960793436150023, 0.08393947870523595, 0.42410120625873465], [-0.014699446331142972, -0.02686659561349021, 0.32383854302607695], [1.1044784870868112, -0.05196954391604413, 0.37086946602820015]], [[0.4504280046574795, 0.16220386836077227, 0.15522880473249612], [0.3176838563687691, -0.21046806850621125, -0.08680411826575256], [0.07805381215975092, -0.11713147753250339, 0.22287404694166751]], [[-3.5095580479440063, 0.0024222032576341644, -4.483922872143804], [-3.3342179935338923, 0.14448904476992208, -4.134762889041599], [-1.5494325386376187, 0.138830318568993, -3.3032413243789907]], [[0.05206373205433861, -0.13902764791577563, 0.0009255225892563349], [0.22574002966845094, 0.2993031101067214, 0.008050983252591078], [-0.03077462785723499, -0.18873432292365067, -0.0058417711292701935]], [[-0.0684523781644328, -0.004467782647300485, -0.1271491626027062], [-0.20767062934460453, 0.37396400465598123, -0.1488681995427874], [-0.0949934769169428, -0.13353055475984554, -0.21418223847495804]], [[-0.1076094461047195, -0.0664435328952671, 0.12868402927565536], [-0.18658804216997632, 0.3815513798521403, 0.16791088477327318], [-0.14806868395229691, -0.25183027731073476, 0.22419855834522887]]]" REF_nacs="_JSON [[[-0.04265684630181809, 0.055123061265654756, 0.07647454606666754], [-0.042632510877490044, 0.13992461878754422, 0.027815377394269956], [-0.14960803595455222, -0.46358645480557426, 0.6486632374685505]], [[0.020572558731240417, 0.13406772661180175, 0.0027064194586403282], [0.05117591021068805, -0.13342401815861013, -0.046155394032711065], [1.6905278157679406, -0.062229420623776094, 0.14572681834400014]], [[0.002514896239358717, -0.0018542855575429003, 0.282347579158796], [-0.02825325519691589, -0.010891143404907811, 0.5489756802062222], [-0.5184949617100615, -0.017653363342917918, -0.02225260681472803]], [[0.0018651966962797593, -0.560676771081433, -0.014257228133767152], [0.0008698816061173646, -0.35453340499855707, -0.0044385867374469356], [-0.33446750938842296, -0.12308311524904515, -0.040251551163247225]], [[0.0030992360085825943, 0.001252573018464901, -0.3198605716222897], [0.026604889709112883, -0.007736394942170738, -0.5821533689190337], [0.09707684139620332, -0.04236580016219372, -0.325080205628499]], [[0.00516680231899808, 0.3459916764063208, 0.001396430831245765], [-0.0077200466890357585, 0.38731447932500185, 0.00570301701149644], [-0.817518362494049, 0.10948175148030598, -0.42478247054021123]], [[-0.00024768173446991954, -0.004081328330814831, 0.009958979431071508], [-3.077197364298038e-05, -0.002188049953827712, -0.0008764719841812727], [0.09720861300774647, 0.17892236488203772, 0.008145667071460593]], [[-0.08231042445121152, -0.042344638071852625, -0.018387987258030133], [-0.05379482297559407, -0.06510796399677879, 0.024869576662725722], [-0.07305940203583616, 0.15641000287399073, 0.029891325308644603]], [[0.08514563358208961, 0.037835166678125795, -0.01861772984890492], [0.058746954821931104, 0.0717874043186773, 0.024983975448761873], [0.008524819497751284, 0.26506514168842865, -0.020108992485599147]]]" REF_dip_perm="_JSON [[-0.20569183852484174, -0.046466893500232226, -0.09914422399635103], [-1.056149039102684, -0.07548085594564806, 0.040754040963620494], [0.41894945916267445, 0.013422705129024472, -0.20590211480261064]]" REF_dip_trans="_JSON [[0.015135157475442616, -0.002703053881809322, 0.0007592701134745361], [-0.013319610157187429, -0.0048821007625716294, 0.006659438014821607], [-0.27832003739010913, -0.009503746418304952, 0.045792026588866344]]" pbc="F F F"
C        0.00000000       0.00000000       0.00000000
C        1.52356381       0.00000000       0.00000000
H       -0.52078843       0.95765779       0.00000000
H        2.03911475       0.01687819      -0.95913768
C       -0.87048002      -1.22379842      -0.00000000
H        2.39710451      -0.02136772       1.21426444
H       -0.28391531      -2.13887145      -0.00000000
H       -1.52145135      -1.23484856      -0.87564365
H       -1.52139133      -1.23471640       0.87568993
9
Properties=species:S:1:pos:R:3 REF_energy="_JSON [[-3184.027032872205, -3176.5616168720335, -3171.1233729387964]]" REF_forces="_JSON [[[-2.0282498921070546, 1.5718198528616618, 0.24422304228210026], [-2.545962511120903, -1.677537347123502, 0.2390095476617957], [-11.991523815584653, -0.18017126786469773, 0.32865300931206237]], [[5.063231790434358, 3.2485830330478733, 1.508819452072926], [3.650900826780925, 0.8722345697388009, -1.7456689837533184], [13.433441477425337, 1.6242496663467472, -0.6260064541943013]], [[0.007589740020311277, -0.2876714289077845, 0.515292332874349], [-0.6913860789075157, 0.7480149362432027, -0.8095857446990671], [-0.7525315382819472, 0.2815170050795122, -3.6321129133815324]], [[0.6537876422379374, 0.2525352056868508, 0.6311280125452159], [0.39071338199468664, 0.5098256399389683, -0.09874216334721682], [1.2414732903455403, 1.8393356882622567, -2.6897891801081557]], [[0.04841097224107209, 0.03780378520561355, -0.5483456539718042], [-0.01413079766544346, 0.01620615596796032, 1.126280239780873], [0.13157602952055575, 0.31146992826788633, 4.166622366092745]], [[-3.8348578541738907, -4.6342821509625205, -2.3466380095493777], [-0.3876936213880078, -0.9405883537877932, 1.1399584561780731], [-1.4694881000268534, -3.772602942443812, 2.4207286581693137]], [[0.10133020528801719, -0.1382261650312894, 0.015712027867674713], [0.0898683102601342, 0.07020527586608846, 0.003822668248715558], [0.1098641088801741, -0.0034069527416750655, 0.0317011703079732]], [[-0.10998604796010547, -0.08273286189780935, -0.09188858467769527], [0.00900548841166646, 0.4096642273275418, -0.13441871293127264], [0.2736595018826449, 0.6228951505336459, -0.27243891427839756]], [[0.09874344402520724, 0.03217072999597846, 0.07169738055625974], [-0.5013149983682793, -0.008025104171351142, 0.2793446928615359], [-0.9764709541593736, -0.723286275441991, 0.27264225808153614]]]" REF_nacs="_JSON [[[0.15954179551766104, -0.09244219428061685, 0.08131365647381832], [0.4105605690157935, -0.08559457322698431, -0.014718752444224633], [0.19364990556183478, -0.08968012481090117, 0.05591026510505619]], [[0.4183179725647371, 0.003249992374001236, -0.1500602920028276], [-0.435406094572618, -0.07090882782578314, -0.030362329647449237], [0.3563582524804546, 0.028496087339297045, -0.01753429558889186]], [[-0.0542551220625337, 0.04833455684421687, -0.0465786615586458], [-0.024329930514354888, 0.041521915746553284, 0.048653579055356916], [-0.1010415694748506, 0.05706482994876934, -0.06436337280424677]], [[-0.09570805679765226, -0.07458690955113738, 0.133116621832032], [-0.009999930435135893, -0.024591509832590477, 0.03573513909428253], [-0.04846694486127935, -0.03298952010542527, 0.05351047877180764]], [[-0.011704955394977883, 0.008164683418455786, 0.027436421613383947], [-0.01193663344989652, -0.01993428492121898, -0.05052481400602235], [0.03074607567813946, 0.011061822478328667, 0.023760059426195433]], [[-0.07987155654145127, -0.06178562244446303, -0.02718059059186575], [0.0772550809839377, 0.12533063051302198, 0.004845587668531357], [-0.15823357773466756, -0.15718301250931488, -0.059751384162898304]], [[0.011838721238612415, 0.01956034783979524, 0.009616905730083695], [-0.0005137522616824246, 0.007950609287001397, 0.0006471294575159704], [0.012031755739649241, 0.026726645590937327, 0.007292402607943686]], [[-0.027199557960406063, 0.0271662870565307, -0.018315377213259255], [-0.006114521849969939, 0.006861928947873251, 0.0013030014636094837], [-0.01721377461723623, 0.03835622149526599, -0.0068546886496901]], [[0.03395857604418425, 0.035110348109448145, -0.028122244802802867], [0.002899376065605022, 0.018770780035235683, 0.0042937609653657055], [0.012965258572593712, 0.04913568579680459, -0.006822280874991663]]]" REF_dip_perm="_JSON [[-0.13451644141509495, -0.06023478483573273, -0.02846641134587908], [-0.3664012091538989, -0.3186206094034473, -0.10809866231995419], [-0.3279893544525554, -0.2573490167822799, -0.1088460799805386]]" REF_dip_trans="_JSON [[-0.39492397802855, 0.08291118266177819, 0.06174738625065146], [0.05374060431906394, 0.06131645766853253, 0.018995559784676246], [-0.49704185075179164, 0.1070626305229263, 0.07873748791725169]]" pbc="F F F"
C        0.00000000       0.00000000       0.00000000
C        1.30937832       0.00000000       0.00000000
H       -0.52078843       0.95765779       0.00000000
H        1.82492926      -0.89209781      -0.35269173
C       -0.87048002      -1.22379842      -0.00000000
H        2.18291902       1.12939224       0.44650631
H       -0.28391531      -2.13887145      -0.00000000
H       -1.52145135      -1.23484856      -0.87564365
H       -1.52139133      -1.23471640       0.87568993
9
Properties=species:S:1:pos:R:3 REF_energy="_JSON [[-3181.142872216665, -3178.3007964186377, -3177.979055248904]]" REF_forces="_JSON [[[-5.752970203428726, -0.23719728311292165, 0.5774799516796948], [-1.3380208254591859, -0.2946915579184382, 0.33916623726606226], [-1.8353222849181596, 0.17209232472000524, 0.5420744032957941]], [[8.066187560417792, -0.3657414980292052, 2.6249288016731827], [4.161978151294276, -0.4261507133714844, 2.8080244489221533], [3.8710960105665193, -0.36444775270381186, 2.4689519820482766]], [[-0.13605791631428857, 0.0397089495023781, -1.0190052583050822], [-0.7930282710405657, 0.28637635487057284, 0.22831589754013173], [-0.6235437167562602, 0.2597655832057582, 1.4839051803979932]], [[0.9174827619477759, 1.0416655384260838, 0.6358836499268808], [0.884848643394893, -0.1633771138546879, 0.3681070396535625], [1.210347623150182, -1.4256269892508446, 0.1885719944422701]], [[-0.16143943166594368, 0.058348527085087885, 1.1957902881420637], [-0.46030143781095795, -0.3239725090109893, -0.15544958576265874], [-0.43926559611026955, -0.32969934929199873, -1.4463703586809344]], [[-2.8353127958395414, -0.39261091812150706, -3.987903039108681], [-2.2886639207657393, 0.6239134212995769, -3.6131081895063937], [-2.0276578874274658, 1.5978093675404421, -3.3044399342568784]], [[0.09932313777951383, -0.08044281603797396, -0.00016075257293586128], [0.14677132759821782, 0.0996157983623647, 0.004413993554227626], [0.11018318086474037, 0.03206511478518098, 0.004935375083064286]], [[0.06222557230796339, 0.13459971267014567, -0.12605649696678706], [-0.18495503186971915, 0.0820678478377382, -0.15666075884248654], [-0.3347428268835593, -0.15239438515717854, -0.13847002236713146]], [[-0.2594386852034632, -0.19833021238353446, 0.09904285553103626], [-0.12862863534084296, 0.1162184717869911, 0.1771909171729533], [0.06890549751383766, 0.21043608615280518, 0.2008413800367159]]]" REF_nacs="_JSON [[[0.04910737688055735, -0.07483382328844397, -0.02989460667093069], [0.47231442779341476, -0.22257903713227517, -0.10412101389396453], [-0.9229991455512305, -1.8213879972669167, 1.2338900998381601]], [[0.23789901365051366, -0.12841733894274213, 0.008791979040514916], [-0.44738004115379937, 0.06400962194717255, 0.09460730806058637], [9.367819833825795, -0.7927268548236931, 2.095956829206634]], [[-0.08011280876734261, 0.010993755231928578, 0.09455724946788682], [0.02449219149043133, 0.019709321925910555, -0.8283727654241504], [-2.715113153461158, 0.30297002120207905, -0.08727106239674566]], [[-0.0693145733681611, 0.3003261988615907, 0.04121725826768412], [-0.005258434785794929, 0.7976311650914667, 0.0878283936822741], [-2.2678053451393496, -0.20865614492766815, -0.027247658898792992]], [[0.00010353381468548404, -0.00782092157377823, -0.09934717445672457], [-0.05037023004217999, -0.011544988504218371, 0.8673860742102217], [0.2130508637699291, -0.11177865718083285, -0.7348272816734684]], [[-0.09908967656502264, -0.11523732474185794, -0.07564942381831134], [0.00826971386076565, -0.6653316216848769, -0.08710046314061952], [-3.51076803714953, 0.5493706431801177, -2.4534458695690358]], [[0.009563008732938824, 0.01826786158664992, -0.008792297360106874], [0.002194392766967064, 0.011340862181061435, -0.0006999286930123076], [0.38044926899031056, 0.589200937884062, 0.0027819532413015297]], [[0.029158496281409475, 0.015658900676141282, 0.030908599276194753], [0.11183231135480029, 0.11153684229618134, -0.015937932747614465], [-0.35392115818591413, 0.6343577419960263, 0.03556454911977851]], [[-0.043304520883526015, 0.027547563735075345, 0.0282558544356447], [-0.1184586313107077, -0.10800370591633182, -0.012897788898676354], [-0.18297651642717022, 0.8692247569163255, -0.06766558227477759]]]" REF_dip_perm="_JSON [[-0.21119233284034036, -0.027150623152315444, -0.12308449051183874], [-0.27800189475720277, -0.036000964308706286, -0.09922958367346513], [-0.19864237836122392, -0.034737224698748806, -0.15950600737608278]]" REF_dip_trans="_JSON [[-0.0958185376834999, -0.00952908654529229, 0.045665799885039424], [0.022457573412234335, 0.006458615528001235, 0.004594722579788935], [-0.42448168707237366, -0.04363275099638182, 0.19716694282087324]]" pbc="F F F"
C        0.00000000       0.00000000       0.00000000
C        1.30619404       0.00000000       0.00000000
H       -0.52078843       0.95765779       0.00000000
H        1.82174498       0.11406946      -0.95247998
C       -0.87048002      -1.22379842      -0.00000000
H        2.17973474      -0.14441147       1.20583582
H       -0.28391531      -2.13887145      -0.00000000
H       -1.52145135      -1.23484856      -0.87564365
H       -1.52139133      -1.23471640       0.87568993
9
Properties=species:S:1:pos:R:3 REF_energy="_JSON [[-3183.200848661035, -3175.8618820669217, -3172.3971760145373]]" REF_forces="_JSON [[[6.105776439073716, 1.6964340154000839, 0.25052506210647185], [5.193258215996284, -1.7843228070464614, -0.3762212218720876], [-3.7036280961365473, 0.22193215321367066, -0.086563000363143]], [[-2.647570326894299, 4.15757114277837, 2.2214519318874864], [-4.759050855446276, 1.973898773172478, -2.546341347599894], [5.515693827080649, 3.1420731003906024, 0.01789070031912105]], [[0.45333621293724913, -0.2356172011341492, 0.28803108153449924], [0.11337936060628996, 0.21839587961168322, -0.42815289201302276], [0.27190712744983403, -0.14688563586107387, -1.6650501438870717]], [[0.3110424772556118, 0.39714141268886904, 0.14359377094298537], [-0.24633740335186094, 0.10129740978592768, 0.4418168358858703], [0.2890386710714772, 0.9040537887009722, -1.1946468149509273]], [[0.6033685509706325, 0.08754277169713322, -0.5356895310389793], [0.7299545037858038, 0.20382930024591933, 1.2583674041377844], [1.3671609097932431, 0.7491675169028229, 2.1310200140235827]], [[-4.897005826650196, -5.775904974897635, -2.3207965278950113], [-0.5764828161052523, -1.2449980175876518, 1.4586595894552734], [-3.045655213834019, -4.517913768851944, 0.7397335469848243]], [[0.06404508173171719, -0.21503006094863975, 0.023242772510443648], [0.05915172783826429, 0.09920178119575847, -0.02861043588666729], [0.046743713455577506, -0.13795143093200957, 0.004877526878524755]], [[-0.1288844650770681, -0.13376987965974393, -0.14438141930457118], [0.07145571852800307, 0.4599581983989745, -0.12234729763917225], [-0.0073211966444219, 0.2250677406454171, -0.27926861810674664]], [[0.1358918566517843, 0.02163277407372652, 0.0740228592565071], [-0.5853284518473554, -0.027260517777403792, 0.3428293655314976], [-0.7339397422323112, -0.43954346421027946, 0.3320067891012099]]]" REF_nacs="_JSON [[[-0.4289444291160167, 0.16827432408895088, -0.11777368010452387], [0.5376556427953249, -0.1663512152620725, -0.029943792725251633], [0.1209660304035933, 0.03273051822780839, -0.0995963882302559]], [[-0.1876669904997714, 0.07934916487846155, 0.3253419009965222], [-0.6883735955740906, -0.11698901035598715, -0.17903659630831853], [-0.9585211143248749, -0.11260201596285628, -0.25909041117667403]], [[0.03126108704585806, -0.026688188883594213, 0.012637782210414708], [-0.01825428475408312, 0.0326221187192249, 0.03690026627304058], [0.1191860776048237, 0.009240426680128037, 0.06488437719456176]], [[0.0594304278371281, 0.04415126009120329, -0.12300304748919293], [-0.0279887642442657, -0.03738754074003936, 0.06262705642421824], [0.05492559786894127, -0.05557082172338107, 0.0862412095444614]], [[0.014380119556167274, 0.009472665406995099, -0.005250188736174518], [-0.026767372832337686, -0.028228362217299168, -0.006564504559282763], [-0.10615991344780659, -0.021277569058913613, 0.05839958381173485]], [[-0.11334237478794185, -0.1462281993459647, -0.1535988444112065], [0.21102116453236258, 0.2547068191318723, 0.10127189432293038], [0.38587592983364166, 0.34608097009136185, 0.13809950822337458]], [[-0.00838270923984964, -0.02858621790994214, -0.006136755136882133], [0.00020339301294856907, 0.018660403177990708, -0.0015601844683738302], [-0.02187992165568487, -0.05127391876332591, -0.012990824096498219]], [[0.008685535021618765, -0.04334795260148323, 0.005230049851964001], [0.006163990479349458, 0.024707651431795048, 0.0073968296424909786], [0.013133208928989415, -0.057338109896544136, -0.0038315025796739456]], [[-0.03506887785904938, -0.047096102158496356, 0.028097708771684358], [-0.010199365057718733, 0.018492331540275672, 0.00804514810087204], [-0.026369123497635323, -0.08408397181300135, 0.00600721914191993]]]" REF_dip_perm="_JSON [[-0.17887849019429422, -0.0791554859482427, -0.030427601976159055], [-0.3583649078451083, -0.20731991822004234, -0.038982307177666924], [-0.12428160793478034, -0.13189735668803315, -0.03361922112288857]]" REF_dip_trans="_JSON [[0.7205489416605024, -0.013788617273024108, -0.00899857088680977], [0.07564793598685529, 0.06037120482179587, 0.004127038782694484], [1.1394374034207588, -0.016074221118442245, -0.013759724197327322]]" pbc="F F F"
C        0.00000000       0.00000000       0.00000000
C        1.55362072       0.00000000       0.00000000
H       -0.52078843       0.95765779       0.00000000
H        2.06917166      -0.92309265      -0.26101707
C       -0.87048002      -1.22379842      -0.00000000
H        2.42716142       1.16863158       0.33044655
H       -0.28391531      -2.13887145      -0.00000000
H       -1.52145135      -1.23484856      -0.87564365
H       -1.52139133      -1.23471640       0.87568993
9
Properties=species:S:1:pos:R:3 REF_energy="_JSON [[-3183.3416909855027, -3177.5230199026355, -3174.3275702428487]]" REF_forces="_JSON [[[-0.47143369420433395, -0.9127443277506607, 0.20850226786030865], [0.04002106180934405, -0.043066793159353994, 0.3703571209374571], [-5.499329408488312, 0.16126844494872472, 0.9453548019683575]], [[3.2559689622879397, -2.1587868639277077, 2.345046303251985], [1.8732690917843633, -2.487201908847935, 0.5929483049719113], [7.10271012260626, -2.1827304319473466, 0.4332268737404235]], [[0.23702068535192009, -0.023520793238925943, -1.278928589971351], [-0.7582617742851463, 0.2886756322292367, 1.1777212013593148], [-0.8580523074309527, 0.26664956672027335, 3.642460535811366]], [[0.5674210404664486, 0.5907483820379061, 1.2892891870897905], [0.6885565620115659, -0.7246241658471568, -0.09329698978240994], [1.1594077946825916, -2.5656249962788826, -1.8437609997168862]], [[-0.09794777902444166, 0.11774008241238666, 1.4074802582184402], [-0.066861099209367, -0.19533306426128258, -0.9354484919493579], [0.03687981806379278, -0.018251865446464077, -3.4805900099404106]], [[-3.4580424199594533, 2.4815411504423093, -3.929781459112864], [-1.6321503086707438, 2.851548832505363, -1.0945247971648397], [-1.627267643411165, 4.283513216929734, 0.2363744157371009]], [[0.10637793293862005, -0.06017237019372924, -0.006314260957724532], [0.15386342552160615, 0.08030830749186303, -0.02769345039175604], [0.12320014389286559, 0.021272000887758314, -0.027720727078820145]], [[0.12784061767284588, 0.16196792812153166, -0.11585058608881679], [-0.28723130941879005, -0.05223575161344718, -0.16572106428004724], [-0.6982116378751133, -0.4718752046007618, -0.1654083843608525]], [[-0.2672053455300038, -0.19677318790332796, 0.08055687970966269], [-0.011205649545718383, 0.28192891150152793, 0.17565816629933392], [0.26066311796120345, 0.5057792687876802, 0.26006349383925437]]]" REF_nacs="_JSON [[[0.13125095943459547, -0.05406567833937169, 0.02169584114311724], [0.4492610550549109, -0.019673458234604424, -0.024859620702758198], [-0.013494450654606768, -0.19640687911937046, 0.1252236542841483]], [[0.4096220131879777, -0.11392525731418847, -0.12489096334566002], [-0.44632420296710446, 0.011141219442993552, 0.00994557272489856], [0.7446292710973105, -0.17496974408297225, 0.05870040646166223]], [[-0.10518311102927587, 0.017796254052348796, 0.09325725360089472], [-0.021067420358897585, 0.01609657189782185, -0.09002855681625556], [-0.20122628372898246, 0.025629925400648856, 0.03706954354481567]], [[-0.10019624509658048, 0.1329405924727751, 0.12630236644119333], [-0.004451558496544717, 0.06627604421338315, 0.052096485851325036], [-0.12948059727227976, 0.06388290975405968, 0.0491943322283953]], [[0.004056046057625336, -0.01469167200249049, -0.1077073188081888], [-0.02018149104111276, -0.0256117568681819, 0.08996568823660554], [0.0594361950056183, 0.005858501385106316, -0.09380186748038025]], [[-0.11659803609614995, 0.030304739150264885, -0.08342162998703223], [0.03671841356860407, -0.07400447751484013, -0.0318725982506267], [-0.29336547757712106, 0.15617708476433204, -0.19987464369506663]], [[0.011634216776433079, 0.021202427276590576, -0.007767914410526561], [0.003059339001545888, 0.00858988834436012, -0.0013020934355821826], [0.024272147219073295, 0.04248147044026556, -0.006094195075083547]], [[0.0234362126567276, 0.02619519502476547, 0.024813072361117683], [0.012391097155172951, 0.01680251057687258, -0.0020968207543489758], [-0.010627011602106285, 0.06718897951087953, 0.004240917305921954]], [[-0.021577669147460683, 0.043806838229309045, 0.016431739031384136], [-0.011376111836925744, -0.00036309704173331076, -0.0015039048426777441], [-0.015211890070402162, 0.07263277413066326, -0.003458301880369521]]]" REF_dip_perm="_JSON [[-0.15391390755343734, 0.000330446047598766, -0.059081388223020295], [-0.2808125182719352, 0.05309163722162382, -0.12173747316811141], [-0.2974680650259053, 0.048505116034249306, -0.1547633404378898]]" REF_dip_trans="_JSON [[-0.345054175356344, -0.0943164856341624, 0.09822808631477756], [0.04654161716743372, -0.019460653476287643, 0.023103880611622336], [-0.49614165364029406, -0.13450118327989574, 0.1399812593916728]]" pbc="F F F"
C        0.00000000       0.00000000       0.00000000
C        1.34199417       0.00000000       0.00000000
H       -0.52078843       0.95765779       0.00000000
H        1.85754511       0.68478016      -0.67179319
C       -0.87048002      -1.22379842      -0.00000000
H        2.21553487      -0.86692892       0.85048748
H       -0.28391531      -2.13887145      -0.00000000
H       -1.52145135      -1.23484856      -0.87564365
H       -1.52139133      -1.23471640       0.87568993
9
Properties=species:S:1:pos:R:3 REF_energy="_JSON [[-3178.67706049832, -3174.9796200872047, -3172.9499173613704]]" REF_forces="_JSON [[[-30.65116884058652, 1.1660855434871116, 1.1952801522085068], [-28.949303506054207, -0.22931508579123516, 0.6551631673359625], [-30.447054020224442, -1.2466563024242627, 0.8431623713185474]], [[33.11994807261053, 0.8503647074352042, 1.5403213122473993], [31.18572520149726, 1.285314554275838, 1.515886745069035], [33.6509121982576, 1.1632659667811387, 1.1520265168487946]], [[-0.8852893309670777, 0.12547659309161655, 2.3147966636517547], [-1.170056018945797, 0.502795033971044, -0.6540219621534817], [-1.8027154948987627, 0.9247507034868173, -3.665637206212866]], [[1.50243168191376, -2.061920908907153, 1.353109351778884], [1.7223308220735514, 0.6502896161572622, 0.08165179522285872], [1.7739917860553764, 3.462071042065681, -0.9849535805662447]], [[-0.7782724223257487, -0.2529981579407832, -2.394881384834763], [-1.2937860151560332, -0.513270729345316, 0.763685518209974], [-1.627994359894753, -0.582507020171811, 3.840386677814553]], [[-2.352171919570942, 0.21860687295146758, -4.0785345079566335], [-1.4422376625295, -1.7979271278307738, -2.4100998237627778], [-1.3662300004426777, -3.923410422765086, -1.1659611834780739]], [[0.15106118175566163, -0.036441737815472, 0.006595351003007062], [0.16863829879390246, 0.07311730012448492, 0.03069776713151662], [0.20835173870010448, 0.10884683737399158, 0.04399857648159074]], [[-0.37870403390247537, -0.30820434903106875, -0.06290735350068116], [-0.006457843776295108, 0.15747575288111715, -0.1516651135191656], [0.30804028245882525, 0.6061227254907207, -0.1989076943490317]], [[0.27216561107338355, 0.29903143673084365, 0.1262204154035419], [-0.214853275902165, -0.1284793144481898, 0.16870190646528804], [-0.697302130012271, -0.5124835298393706, 0.1358855221423786]]]" REF_nacs="_JSON [[[0.06438468286360757, 0.06516519078611603, -0.024259674189412085], [-0.2866352559836019, -0.0408789529007061, 0.030637946338023445], [0.07821771532328392, -0.30813775089120954, -0.03391311925338865]], [[-0.8277430478315524, -0.05610008736395292, -0.16892175261537182], [0.17377538971605483, -0.01990370607864362, -0.13261467214757905], [1.778292718930865, 0.2866089885390058, 0.5237390200639279]], [[0.2254583617087635, -0.09433963488960935, 0.1633319634706253], [0.023086852245223076, -0.001458590388959849, -0.2055220093861454], [-0.5408176346504676, 0.1869771513678554, 0.10553109571846078]], [[0.21926610477313405, 0.1871945100940113, -0.0936806230340893], [0.03183414926175997, 0.21852184766704408, -0.06622940931836621], [-0.5227381123304152, -0.3442444509128007, 0.2059907725068393]], [[0.05908425140896235, 0.005606753671243555, -0.1300950239991221], [0.0018529495128864165, 0.013597998447692142, 0.22049146141771267], [-0.08141078366103871, 0.0011270058893433936, -0.19819129698121277]], [[0.2654092096590769, 0.006304969254312594, 0.2718293639515889], [0.05829033526074887, -0.1453782719930965, 0.1630730816703542], [-0.6451432302328679, -0.02448079749034472, -0.6445499548871506]], [[-0.020359998667046516, -0.013943714647453488, -0.007592774822621973], [-0.0026300619505212875, -0.006804348496374699, -0.000857963972788353], [0.04633635437736889, 0.03537938158296547, 0.006496667448400813]], [[0.04268344656734313, -0.026475487879322374, 0.020035061309977634], [0.032612591681196325, 0.02418770279781149, 8.643189775533368e-05], [-0.11154142885202814, 0.023978219017101083, -0.002001942756283197]], [[-0.0010113543886174441, -0.021877403093718113, 0.021868910435814137], [-0.029808620187600433, -0.037372822542734156, -0.0044681997494338335], [-0.01956231406848844, 0.10795703988588015, 0.0014008732177532702]]]" REF_dip_perm="_JSON [[-0.19432650980860144, -0.07601591538511936, -0.11100921911521046], [-0.258119335819651, -0.12256400467577719, -0.2028083469930607], [-0.2671966088005647, -0.12101712077100221, -0.16577473878560828]]" REF_dip_trans="_JSON [[-0.051152675288959594, -0.030703781149399697, -0.14888148242931068], [-0.024731486251374928, -0.018151576004066954, -0.034364315078323604], [0.0819967707920504, 0.05034435064386136, 0.22583628556809587]]" pbc="F F F"
C        0.00000000       0.00000000       0.00000000
C        1.09409736       0.00000000       0.00000000
H       -0.52078843       0.95765779       0.00000000
H        1.60964830      -0.37772540      -0.88178993
C       -0.87048002      -1.22379842      -0.00000000
H        1.96763806       0.47819883       1.11634250
H       -0.28391531      -2.13887145      -0.00000000
H       -1.52145135      -1.23484856      -0.87564365
H       -1.52139133      -1.23471640       0.87568993
9
Properties=species:S:1:pos:R:3 REF_energy="_JSON [[-3182.4108038916443, -3173.794018909668, -3164.7697322653084]]" REF_forces="_JSON [[[-19.082388346943457, -1.0756271995150766, 0.3389475259300417], [-29.48421197084652, -3.064258102074462, -1.12003122645261], [-18.61472476214567, -0.5599048967653524, 2.829950506135947]], [[21.366947832428117, -1.3909692162777731, -0.5608979858605727], [32.162172927477975, -0.9930005483411939, 3.2814789124961687], [14.920737287721002, 7.476829203623796, -6.358677970437599]], [[0.06942132691885863, -0.3561867227752197, 0.25940618297077495], [-2.8552036982907585, 2.2952142329730187, -0.8458733680730212], [-2.180551792555046, 1.0754694279516739, 5.809938321762387]], [[1.2522924334081742, -0.7204249433854092, 0.06053937267879016], [-0.17177834141745676, -0.263548733646179, -0.3822665175053219], [2.6554036479631917, -1.1441909329775302, -3.304011125812421]], [[-1.034443164933907, -0.20666746412582185, -0.19457577987150393], [1.2723076533116855, 0.5524497098689021, 0.2633924088564377], [-2.0513693774066057, -1.9967471696501304, -5.459291463529553]], [[-2.6699852142718057, 3.876230410614156, 0.103023770895461], [-0.5375776604546292, 0.42425761851311006, -1.5205117243064592], [4.9429741611059965, -5.392517268022186, 6.262848404861427]], [[0.06451926024357882, 0.007148662318559672, -0.0044123910326902775], [0.5665667652323504, 0.11462405521235955, 0.028675813504234978], [0.21109683399587895, 0.20866564128160175, -0.02798119324019029]], [[-0.002057142442073099, -0.0889981280701716, -0.06807622920279495], [-0.37905926302947063, 0.5462956875068229, -0.00777406153589255], [-0.520516805964889, -0.7761547336636616, -0.004926823792936027]], [[0.03569301559594234, -0.04450539878284384, 0.06604553349270917], [-0.5732164119823019, 0.3879660799898363, 0.3029097630165564], [0.636950807281103, 1.1085507282221425, 0.25215134405385053]]]" REF_nacs="_JSON [[[-0.2706190055870185, 0.006643405184294775, 0.0511287635522741], [-0.2494977444504307, -0.11044389525293292, -0.048796281948514465], [0.616558421874744, 0.161469377040492, -0.19106036718830977]], [[0.5895806316947175, -0.2940319875497958, -0.2808630223395918], [0.42287021990678014, -0.24316124484564194, 0.1741989446157414], [-0.9525882858685346, 0.7217835344751407, 0.1860345681058692]], [[-0.12368120791375832, 0.08510486180686178, 0.07231547905839947], [-0.05423743366316948, 0.0771013467863801, -0.07306500664231486], [-0.0519276445613804, -0.012267782201109075, -0.2758342036597614]], [[-0.10162070622682988, 0.041329590640101214, 0.009787786707908685], [-0.03135385365656886, 0.014677627684716732, 0.010010550004518618], [-0.1093276985308121, 0.04239995074024364, 0.14442329471060933]], [[-0.013980728334757104, 0.03379198354468268, -0.07363989117836064], [0.06963224611737186, 0.0573721283072125, 0.05595433559587996], [-0.036281396296451725, -0.11753749822704293, 0.1895821349889894]], [[-0.37991452626958283, 0.5780541191914109, 0.12122013258781743], [-0.11075133060679171, 0.15510631382733392, -0.1106509318615247], [0.20627661351677398, -0.42362879656449237, -0.19940219895323316]], [[-0.011701372263624893, -0.0020442761368292166, -0.004208884084811566], [0.015136520209640616, -0.00040261389167848275, 6.698517051963671e-05], [-0.023143540109600562, -0.0037851517166051533, 0.0056344896246054]], [[-0.003703179936609656, -0.003040298920837888, 0.00024129037875202252], [-0.012848160476372382, 0.01378057876434475, -0.004050360359411926], [0.06818337342831715, 0.09014815030850094, 0.03460185074208232]], [[-0.024862548941634453, -0.01028142146095213, 0.013085859415282366], [-0.024144020372688778, 0.0042406354934586945, 0.0029564174514773232], [-0.025951114499175792, -0.06437145415221306, 0.0237141463580013]]]" REF_dip_perm="_JSON [[-0.12155218021047351, 0.0002620750281737189, -0.023257389098574943], [-0.563769438188444, 0.346872580584869, -0.0808605975471804], [-0.7734419523874847, 0.6187119230431029, -0.2368210554080118]]" REF_dip_trans="_JSON [[0.27974317112532643, -0.38435673565042183, 0.1005808335934505], [0.029370046030040134, -0.013707388677038001, 0.00020726903049325768], [0.2683775469185447, -0.3896526845517832, 0.10461916745340082]]" pbc="F F F"
C        0.00000000       0.00000000       0.00000000
C        1.13538361       0.00000000       0.00000000
H       -0.52078843       0.95765779       0.00000000
H        1.65093455       0.95673788      -0.06987548
C       -0.87048002      -1.22379842      -0.00000000
H        2.00892431      -1.21122631       0.08846208
H       -0.28391531      -2.13887145      -0.00000000
H       -1.52145135      -1.23484856      -0.87564365
H       -1.52139133      -1.23471640       0.87568993
9
Properties=species:S:1:pos:R:3 REF_energy="_JSON [[-3181.8542918630496, -3177.964494708356, -3177.151985851347]]" REF_forces="_JSON [[[1.7340106858504671, 0.7612471885471107, 0.586589087388709], [5.236804250736759, -0.5874873868620781, 0.06305401375801603], [3.7303659868723478, -0.32785003027751525, -0.17724340498097074]], [[0.7553082149701522, 0.9142636326805307, 3.0967568572814126], [-2.4116497123600538, 1.314475334807001, 2.9020510384707117], [-2.3559570939067345, 1.1586436611771993, 2.7203225692207136]], [[0.12622949556666746, -0.09102906279599327, 1.3094745707568372], [-0.5067056313576983, 0.18191772653221333, -0.3929561706028349], [-0.01590148889681243, 0.19459446185787185, -1.8730766215838062]], [[0.5026799047778951, -1.1147765900877984, 0.8108446848745738], [0.4684663298546213, 0.46883884352952276, 0.24122829371112203], [0.9805240580225452, 1.9686178735525839, -0.23287275690979192]], [[0.3348930600346582, 0.06719820907092533, -1.3313822996212712], [0.035584226633424275, -0.19849503909555094, 0.539156323396645], [-0.07425037918688525, -0.10824045770441144, 2.3158982317451344]], [[-3.3922543739845876, -0.3943394652740559, -4.526575407957162], [-2.600323408430887, -1.660620795472689, -3.4141018366895257], [-1.981794563761715, -2.7462469369690994, -2.7004384250000193]], [[0.07112349725602067, -0.12642165916705722, 0.013588982664957486], [0.14037039236131663, 0.13278970278475155, 0.016214904458393326], [0.05223162598455706, -0.0430855473773711, -0.0029343129248221526]], [[-0.2624491734991056, -0.15719289921200935, -0.09512799542741003], [-0.08629028607219905, 0.27134354322341303, -0.1574654361595583], [0.16115099801437505, 0.27718809043643716, -0.22449307685935502]], [[0.13045868902610383, 0.14105064623718205, 0.13583152004053708], [-0.27625616136458786, 0.07723807055358146, 0.20281886965739143], [-0.4963691431434815, -0.3736211146944782, 0.1748377972932803]]]" REF_nacs="_JSON [[[0.21863456539275158, -0.09241999272058032, 0.09114631065807267], [0.5768400682270176, 0.05990100370698626, -0.008171287799498682], [-0.6173165421538648, -0.7348578115773824, 0.5301315789739943]], [[0.13739588791336166, 0.14482828188982885, -0.025729534876200413], [-0.6208579396190338, -0.021786790768772733, -0.006978339665194397], [2.9342052915154913, -0.03703687681796781, 0.41180473926277844]], [[-0.07217862468317035, 0.01576041133788377, -0.0558706422968777], [-0.022752839779973163, 0.008922811841155709, 0.3928713746626578], [-0.7438044219184031, 0.006360310752089862, -0.5666962179396905]], [[-0.07891819333003942, -0.26926223679665995, 0.07812743846246673], [0.00810272742511855, -0.32286618609839934, 0.09534337999120424], [-0.5860081531017246, 0.370112796591216, -0.13324103588360564]], [[-0.01466994376803873, -0.013211242000776674, 0.01519895438173918], [-0.009080704894716867, -0.034507915146448805, -0.421179478633809], [0.167596475420951, -0.011427384681774278, 0.2318604911810384]], [[-0.07665131906974439, 0.08294251247398919, -0.07338684668937458], [0.03934365875366293, 0.2957603733315445, -0.07461903631807276], [-1.118025859086016, -0.4579923927371571, -0.5199364513009723]], [[0.014857078680106894, 0.027275420246768933, 0.010065299354503156], [0.0003473768095628772, 0.006879807005018964, 0.001795800779692993], [0.13552077613910832, 0.2522474787498246, 0.016732892036405586]], [[-0.04239137352443749, 0.028705808333785356, -0.021593798650869956], [-0.048299749273856316, -0.04284836335742828, 0.00979700218371588], [-0.027188285492096353, 0.30918637737515187, 0.03759232347211873]], [[0.03875388867811931, 0.03567469753523331, -0.029228470165673395], [0.05337767943280204, 0.05785461070133442, 0.013215462931527434], [-0.09590338676147679, 0.28779752520214147, -0.012679465504001704]]]" REF_dip_perm="_JSON [[-0.19691852927218803, -0.07516648250066689, -0.07953023575020704], [-0.4702693625983447, -0.07411301916847828, -0.055429659597212355], [-0.04098513667483183, -0.06593098182559048, -0.16667622025366688]]" REF_dip_trans="_JSON [[-0.2686105626947356, 0.006829835987097821, 0.05916152741471257], [0.06944217482408033, 0.0036436174881958375, 0.01782367235097777], [-0.6720302284213586, 0.013859342918488109, 0.1282510410828252]]" pbc="F F F"
C        0.00000000       0.00000000       0.00000000
C        1.44953885       0.00000000       0.00000000
H       -0.52078843       0.95765779       0.00000000
H        1.96508979      -0.30310290      -0.91014207
C       -0.87048002      -1.22379842      -0.00000000
H        2.32307955       0.38372706       1.15223620
H       -0.28391531      -2.13887145      -0.00000000
H       -1.52145135      -1.23484856      -0.87564365
H       -1.52139133      -1.23471640       0.87568993
9
Properties=species:S:1:pos:R:3 REF_energy="_JSON [[-3182.414540014945, -3177.2721554137383, -3175.5578318355842]]" REF_forces="_JSON [[[4.623962107231063, -0.6270157786664788, 0.19914099035490063], [6.174665196686191, -0.1774586622865757, -0.03271873468659807], [2.4892041943143304, 0.29037170535182305, 0.30188502919958865]], [[-1.9014274730277736, -2.026902614775363, 3.0885618329724305], [-4.16540466949969, -2.5416871928060503, 1.7613678936956687], [-1.0131604189515047, -2.287821025086329, 1.7680161273698185]], [[0.5002761401246362, -0.01819230619900593, -1.1555092062157464], [-0.342176440157758, 0.1644954680870157, 0.877041879700744], [-0.16698625036310993, 0.11845258900382284, 2.644191935097055]], [[0.29244609980923547, 0.7031063523536993, 1.0107990310341541], [0.32269038429292324, -0.5069534634649189, 0.11852834097196165], [0.6903258697883492, -2.0470813993881394, -0.9351047737445917]], [[0.29318306823662876, 0.13387732715893488, 1.2785589107450306], [0.4104076745906961, -0.05166171488922778, -0.49801537931169654], [0.48086592645339743, 0.09287954088760027, -2.396610303946578]], [[-3.7319985956702895, 1.9582682443367352, -4.386475000523852], [-2.2165163759052535, 2.705479882215293, -2.172892914505949], [-2.159705142316654, 3.87325624712004, -1.4372409818210685]], [[0.06736766245210607, -0.09367050056520952, -0.005885880825844862], [0.1451051019687193, 0.09418249792065317, -0.030482047629834044], [0.08577585829266456, -0.030615182146145812, -0.0130701162861452]], [[0.11454978368462675, 0.14388964579897642, -0.1314220712317167], [-0.2568772956097915, 0.08534913098012499, -0.19388591493838697], [-0.550719594655895, -0.3075402167614891, -0.18363397639372023]], [[-0.25835879284164853, -0.17336036944325925, 0.10223139369093535], [-0.07189357636410484, 0.22825405424582768, 0.17105687670224767], [0.1443995574398848, 0.29809774101932274, 0.2515670605251477]]]" REF_nacs="_JSON [[[0.22851059226449932, -0.031434502797366565, 0.030054339652624548], [0.5546743106735412, -0.04069458336915798, -0.049639823573714416], [-0.24303828661354485, -0.4102306622388577, 0.3313220135812236]], [[0.23020482027539518, -0.13717396350621405, -0.1671922151948589], [-0.6066204571316789, 0.020087562798120892, -0.0035319419393638773], [1.3450913502652413, -0.09470342457682127, 0.1426284583748862]], [[-0.09260444582461705, 0.002383677608580223, 0.07297316307370877], [-0.014148044331808678, 0.01783976627847455, -0.16344266459412604], [-0.33166514249479595, -0.01968140310199832, 0.0701171451266009]], [[-0.07256314284975446, 0.1580995694867505, 0.11128938831155609], [-0.0007414330534492566, 0.1267010435361983, 0.0815901074906405], [-0.22138147934890282, -0.0719547775172794, -0.06975253164173822]], [[0.012640242205325397, -0.019684509393713242, -0.08279272056487609], [-0.023460356416558803, -0.024971738052531223, 0.18094861409450536], [0.09971635312825852, -0.005615937722444629, -0.2246563112637646]], [[-0.059348862266505896, -0.012104570098323292, -0.01713073610048138], [0.06234638218927275, -0.13346295916878467, -0.032057130269844525], [-0.5321723502314988, 0.22878146150952833, -0.24432309270175975]], [[0.01277450205239774, 0.02590927379944345, -0.007897631910017874], [0.0036998382733188354, 0.010834970557298184, -0.0022393618711404363], [0.05905837962902079, 0.11329407984893801, -0.00493791333200608]], [[0.030705742655908856, 0.02830264600316292, 0.02795892538412285], [0.022721941537127865, 0.0289986300672179, -0.005195772586767483], [-0.040827043065276625, 0.12041470154438177, 0.008511724359297899]], [[-0.022069696142181176, 0.049480145644028126, 0.016529470949808826], [-0.02131897337103819, -0.010764635583195892, -0.005051592396977232], [0.00825751595601421, 0.17370429535955031, -0.01755212219596772]]]" REF_dip_perm="_JSON [[-0.18253646465013487, -0.010854211625227863, -0.06396354536527778], [-0.3770191202095548, -0.0009486166653723648, -0.0780791212392674], [-0.15172994898532302, 0.031816258186771314, -0.1325739882749132]]" REF_dip_trans="_JSON [[-0.44015425072859293, -0.05548178837479199, 0.06371367117903194], [0.07310700958786537, -0.01353745982035895, 0.017357213011739075], [-0.8295090587826638, -0.09814031274921577, 0.11219042966139056]]" pbc="F F F"
C        0.00000000       0.00000000       0.00000000
C        1.51222319       0.00000000       0.00000000
H       -0.52078843       0.95765779       0.00000000
H        2.02777413       0.56666615      -0.77402805
C       -0.87048002      -1.22379842      -0.00000000
H        2.38576389      -0.71739707       0.97991640
H       -0.28391531      -2.13887145      -0.00000000
H       -1.52145135      -1.23484856      -0.87564365
H       -1.52139133      -1.23471640       0.87568993
9
Properties=species:S:1:pos:R:3 REF_energy="_JSON [[-3183.014889314311, -3176.0219963113136, -3170.712386314205]]" REF_forces="_JSON [[[-12.328266104476054, 1.4916687814427079, 0.4742571118730401], [-12.101796264908343, -1.057686071251172, 0.34369054046301006], [-17.54200062496431, -0.7903565520832195, 0.6884378347634982]], [[15.171766394049529, 2.4587346932979295, 1.4654681855976304], [14.1560095491581, 1.5210199467994918, -0.6166573160982839], [18.74640023838473, 0.5392313831914584, -1.1894719949342036]], [[-0.3033282681573631, -0.18230419339780027, 1.0097262698422653], [-1.0730121590384958, 0.7999887691753155, -1.1032643888369709], [-1.4347040430393143, 0.9272537600135738, -4.1601174802514285]], [[0.9213563301144198, -0.14095045369710177, 1.1587287002121236], [0.9548687497153825, 0.7998053734452903, -0.42926054930948265], [1.8604685962223506, 2.551057555110831, -2.812917934786043]], [[-0.2666215984150639, -0.018120475351792703, -1.0646072244850173], [-0.707650295231791, -0.23517042882984981, 1.3949390748040031], [-0.9666251127202145, -0.2569153616077093, 4.677783721808923]], [[-3.2830054800865116, -3.482474481915043, -3.0752298692193762], [-0.9821065985162044, -2.119206637381098, 0.3308483962489205], [-0.27936798923489137, -3.070634174957254, 2.809011442329023]], [[0.12072868792196796, -0.1047055242614193, 0.014612982199559785], [0.13106247657823789, 0.0625868549524315, 0.03000398991119636], [0.1483574069404336, 0.07505038107874543, 0.044487680991295804]], [[-0.17773512748313525, -0.13630638377883111, -0.06814375096179402], [0.04696119629870774, 0.372341891883576, -0.1602522167496241], [0.39020052560597746, 0.754045288916854, -0.2577220218194765]], [[0.1451051665275109, 0.11445803766119866, 0.08518759494152625], [-0.42433665405477655, -0.14367969879191647, 0.2099524695668166], [-0.9227289971950186, -0.7287322796643829, 0.20050875189960587]]]" REF_nacs="_JSON [[[-0.06226100795799536, 0.0707997309104982, -0.04745583353649971], [0.2752864271447351, -0.03692491095850125, -0.02133718313473292], [-0.12628166536725438, 0.13614094789455716, -0.05465677560015266]], [[-0.47727255722291606, -0.062421652214236706, 0.057057737788086337], [-0.24322053395094478, 0.006335965310732641, 0.03722102948794271], [-0.39901299553748176, -0.06993880384687527, 0.07737508110576936]], [[0.10257565207581866, -0.0726906964850922, 0.09193852943637308], [-0.016684365970150185, 0.022682290168808652, 0.051603622905234625], [0.13919012775879705, -0.0867989597236619, 0.05551502801255433]], [[0.13308082782000752, 0.10898698744298616, -0.1305082197356515], [-0.008161488592996412, -0.029510557773878496, 0.0246071426328042], [0.12399366772189542, 0.10029156193621508, -0.1335838130532527]], [[0.03900671044926011, -0.007651592839669942, -0.07779086722135692], [-0.007944565071460064, -0.013092156372855369, -0.05575778309951532], [-0.003444940750482604, -0.021858980353263904, -0.025182480177577717]], [[0.17441339817275, 0.14022993246347665, 0.14316916289182283], [0.002760038628099397, 0.03348414103168193, -0.04128674063298387], [0.17407431073975266, 0.12519762687807084, 0.12690216794533296]], [[-0.014020975955698048, -0.015572484155502527, -0.009247994880418036], [0.0002492341542948562, 0.00469563459419605, 0.0011312475610446566], [-0.013343242131878829, -0.017390012398631503, -0.006761213941947083]], [[0.02958916630843817, -0.02211534915962397, 0.020013362480471416], [-0.007366838511733514, -0.00031581889950550463, 0.0002541167300477293], [0.03302412104210373, -0.025381520323583765, 0.009611825512397816]], [[-0.02023824607204502, -0.022395946052263558, 0.022700817039415483], [0.005035306402066156, 0.012703039404085134, 0.003598914593170261], [-0.006241986993715434, -0.04413599433716053, 0.008107303821972054]]]" REF_dip_perm="_JSON [[-0.1393069930502056, -0.06894355384471482, -0.03697531379381354], [-0.33358978204857787, -0.2959066075177206, -0.14766391363401007], [-0.39867133098971586, -0.3531808689179351, -0.19722873883048073]]" REF_dip_trans="_JSON [[0.1230551077326148, -0.11552614530495146, -0.11967541799203324], [0.038741648008690156, 0.045195567459371686, 0.022025134399603297], [0.15011192475013652, -0.1406772946435628, -0.1458059669244245]]" pbc="F F F"
C        0.00000000       0.00000000       0.00000000
C        1.19876064       0.00000000       0.00000000
H       -0.52078843       0.95765779       0.00000000
H        1.71431158      -0.81832880      -0.50056761
C       -0.87048002      -1.22379842      -0.00000000
H        2.07230134       1.03600096       0.63371658
H       -0.28391531      -2.13887145      -0.00000000
H       -1.52145135      -1.23484856      -0.87564365
H       -1.52139133      -1.23471640       0.87568993
9
Properties=species:S:1:pos:R:3 REF_energy="_JSON [[-3183.6337175938115, -3176.2816449077336, -3170.7787959739117]]" REF_forces="_JSON [[[-7.588065712907522, -1.1863345419615696, 0.19052596382565226], [-8.167534614655604, -0.12095293479507593, 0.7057187061763419], [-15.346667061039312, -0.2723251433745434, 1.5176511595644966]], [[10.548246327724572, -2.495557695656045, 1.4845194351989048], [9.673422557429776, -1.8090263175967967, -1.3651314721364194], [16.407205131833962, -1.496237823587905, -1.896857231356089]], [[0.14574991060995307, -0.09325123031965489, -0.8092050981776768], [-1.3500080070128744, 0.562566193558392, 1.5263965070926673], [-1.4593846243237225, 0.5727309487028679, 4.4775887356824375]], [[0.7651124326825848, -0.129572938260611, 0.9833643466184868], [0.6910516960255854, -0.7025566033405188, -0.39592083734721484], [1.5677292891293206, -2.148395508089386, -2.807325613814032]], [[-0.38172030866355344, 0.13606735920020563, 0.8772773291653543], [-0.1602130346286377, -0.3499679028701511, -1.3218219506795843], [-0.22769559684375304, -0.10571719365276963, -4.207768753761938]], [[-3.4855875049288283, 3.883680300011075, -2.69475036605414], [-0.6158669524497533, 1.9489669393272768, 0.816994718485278], [-0.5943125756251786, 3.348209031772735, 2.8609532315370987]], [[0.12442025344432972, -0.04221398169151097, -0.010180195279269826], [0.20490332636746722, 0.10454876739736697, -0.010651791411207688], [0.1535790321768335, 0.05831995983099198, -0.045507664958989565]], [[0.055992861991757806, 0.07703542455735701, -0.09933407942188457], [-0.28742546971475796, -0.07894181533581131, -0.12522191863538143], [-0.7937700075749823, -0.6355478342037301, -0.17842297066370613]], [[-0.18414825994893672, -0.14985269588031608, 0.07778266412348775], [0.011670498637507623, 0.4453636736548199, 0.1696380384556666], [0.2933164122708802, 0.6789635626030801, 0.2796891077697927]]]" REF_nacs="_JSON [[[0.08810820113998366, -0.039748856568853866, 0.0021345087065056264], [0.32667552688557183, -0.005773509595938283, -0.015235979683711149], [0.1615263976385827, -0.10111858025420405, 0.04273838305872156]], [[0.4673262591395484, -0.07708057720312692, -0.12971096642206137], [-0.31699937365019876, 0.012474315574456291, 0.02127258778549881], [0.3521402125183336, -0.11178129782530337, -0.0840392771272988]], [[-0.10228312750060885, 0.03298785137153373, 0.06813549325969481], [-0.02815608085153392, 0.020443588361244172, -0.044319521131175946], [-0.14176848056813615, 0.05342122927674571, 0.034017189797704836]], [[-0.11168279929965926, 0.08407821926622622, 0.14060111252269067], [-0.007002860046798519, 0.026572161337910644, 0.024063937310830077], [-0.08425313441809373, 0.06664281312575165, 0.10722309092863129]], [[-0.002233154233102453, -0.00875746039476778, -0.08578436145516555], [-0.011175757148385148, -0.023471608452869205, 0.03790793229419659], [0.03587067797794832, 0.006083104693917138, -0.058417260251290765]], [[-0.14664469143615763, 0.10677350996956464, -0.09833046429138802], [0.033078938187726434, -0.051370998411048766, -0.023236530712690343], [-0.1560723663267441, 0.13215314166798361, -0.1065904567653439]], [[0.00566792812471236, 0.012776967076589523, -0.006986310104836281], [0.003420652246611576, 0.005571830348054185, -0.00013454466942490226], [0.004435759849833643, 0.01228051021580293, -0.0041149761382994685]], [[0.02285455550678961, 0.026942284219199145, 0.02192372116487122], [0.0062860343470024635, 0.01022739680720476, -9.351512866302731e-05], [0.006256372992151474, 0.0465758550295424, 0.0071615357079418285]], [[-0.020459669118080493, 0.026796431336035934, 0.01670788752793401], [-0.005448206184509868, 0.00588428714596962, -0.00046562807903920454], [-0.015362298891195208, 0.029405804704310864, 0.004174529316200481]]]" REF_dip_perm="_JSON [[-0.12484997846775957, -0.0010413047830582082, -0.045717393896303575], [-0.3589270325480548, 0.14081640197478412, -0.13914668341269862], [-0.39717233178185857, 0.1167907757821823, -0.17349250276272912]]" REF_dip_trans="_JSON [[-0.2333999434995698, -0.16993082892251388, 0.11474672283739805], [0.04895556024502107, -0.03017358114512328, 0.01987721622008279], [-0.28670717549615643, -0.2100731061355168, 0.14184295085685372]]" pbc="F F F"
C        0.00000000       0.00000000       0.00000000
C        1.24044972       0.00000000       0.00000000
H       -0.52078843       0.95765779       0.00000000
H        1.75600066       0.85769815      -0.42963221
C       -0.87048002      -1.22379842      -0.00000000
H        2.11399042      -1.08584241       0.54391265
H       -0.28391531      -2.13887145      -0.00000000
H       -1.52145135      -1.23484856      -0.87564365
H       -1.52139133      -1.23471640       0.87568993
9
Properties=species:S:1:pos:R:3 REF_energy="_JSON [[-3182.859466857097, -3177.419445476125, -3175.185377622059]]" REF_forces="_JSON [[[3.6384316859233534, 1.0401702984419825, 0.47153110531144843], [4.885699887109227, -0.6818889676323896, -0.1453528850172757], [0.2721164709831598, -0.4369789839334012, -0.08532755456580635]], [[-0.9237206136233885, 2.1598024093122614, 2.7177329605710234], [-2.8822856540994546, 2.475751943589055, 1.488630070408323], [1.3715731086492524, 2.082194216434899, 1.8308003740174426]], [[0.19996851436458285, -0.12955377353479522, 1.2072461552618643], [-0.2990373650827094, 0.18618426802403631, -0.6717784893864787], [-0.1921055924202727, 0.1507743725429008, -2.6662409846673003]], [[0.39501508452211387, -0.671569736017804, 1.0847282423152633], [0.4888738809881717, 0.6402807310558655, -0.00503194005759662], [0.8473112066411932, 2.2932628399576878, -1.3440286346072476]], [[0.3604977876740753, 0.0361136959602909, -1.2950277366195622], [0.1286387035038821, -0.09448543564154296, 1.0024871059085447], [0.17783511084355028, 0.09192795840833162, 3.175812841302807]], [[-3.6813571283745397, -2.3099686224329914, -4.234284527649393], [-2.036031873991315, -2.8270781825846645, -1.7521102638195665], [-2.065997396008905, -4.120321862420901, -0.8742013918563664]], [[0.07410544423618601, -0.1353456967942614, 0.018364522662594533], [0.1021259931830458, 0.06872450960992564, 0.016278713733769948], [0.07447399072887229, -0.01824437584321561, 0.0029698973978009766]], [[-0.23057293330132436, -0.14154029228321308, -0.08881802676285241], [-0.006728840958634113, 0.2953631093957593, -0.1687936467255242], [0.22784315494833174, 0.43437468030116433, -0.24612485058003347]], [[0.1676321585768842, 0.15189171734944013, 0.11852730491062334], [-0.3812547306522109, -0.06285197581654396, 0.23567133495605394], [-0.713050054364663, -0.47698884544827747, 0.20634030355878327]]]" REF_nacs="_JSON [[[0.20493833025400005, -0.11765157028569484, 0.09414768135651395], [0.5337435987325652, -0.030184948214562156, -0.02178562238718797], [-0.17116825033512234, -0.21320015200767994, 0.1854286284683938]], [[0.2948405288303946, 0.1022294215699411, -0.1178975443210854], [-0.5659831020830591, -0.00026296057697439205, -0.026635051020355283], [1.062375026718347, 0.039972364957880625, 0.13963380819403978]], [[-0.06628653565542557, 0.02320015786032527, -0.09687724646194197], [-0.02112566158381534, 0.016396137073959087, 0.13024810296891084], [-0.23985343202413187, 0.009644825956553213, -0.1559139996250282]], [[-0.08603357211110269, -0.14381243622119466, 0.11253347652111018], [-0.0004499360006636105, -0.09495931563574882, 0.07082104362265162], [-0.17002760435398312, 0.010547563651609769, -0.014183365475138517]], [[-0.01428145190725587, -0.005807972376072065, 0.06615425362637331], [-0.017782679989141167, -0.028806532884404813, -0.13774581269057928], [0.08843907023808889, 0.009392779071880485, 0.019185204811731013]], [[-0.06828545995415836, -0.003989190762907174, -0.035568200665027666], [0.05565708586047828, 0.11027760375759767, -0.025079210035862675], [-0.41504182088758385, -0.1886189485766688, -0.2054407494440398]], [[0.014569943247886066, 0.027918758159784233, 0.009796723447051233], [0.0011956600281047074, 0.010015748824288313, 0.0015699298451795967], [0.043506974133751486, 0.08628710363561912, 0.013072324875197508]], [[-0.026917549783746504, 0.03914697024693113, -0.017664749773983742], [-0.015456314573025971, -0.005384561943913556, 0.003143249753391754], [-0.022118950604970166, 0.10204386528050625, 0.012053703219966627]], [[0.029573097000822415, 0.03287896703432218, -0.02868290162829461], [0.01572833439839478, 0.025262891741943575, 0.006184591141831624], [-0.00701983040967575, 0.11642761088768737, -0.002261729075446775]]]" REF_dip_perm="_JSON [[-0.1744397869843612, -0.08298209781496733, -0.0457590327631885], [-0.31868306770377464, -0.12621573330158511, -0.08947776104901566], [-0.2024835638313583, -0.13395015282545997, -0.13753734120759625]]" REF_dip_trans="_JSON [[-0.43833242800363315, 0.031415721933625324, 0.06390153755561748], [0.05935782623014843, 0.02429012250633457, 0.025844596913941656], [-0.7360578292179627, 0.047602478830185056, 0.10107892799302025]]" pbc="F F F"
C        0.00000000       0.00000000       0.00000000
C        1.45609672       0.00000000       0.00000000
H       -0.52078843       0.95765779       0.00000000
H        1.97164766      -0.62733249      -0.72572991
C       -0.87048002      -1.22379842      -0.00000000
H        2.32963742       0.79420041       0.91877115
H       -0.28391531      -2.13887145      -0.00000000
H       -1.52145135      -1.23484856      -0.87564365
H       -1.52139133      -1.23471640       0.87568993
9
Properties=species:S:1:pos:R:3 REF_energy="_JSON [[-3181.7033723459954, -3178.2159118605036, -3177.6073022727965]]" REF_forces="_JSON [[[-0.17837525039219235, -0.35264074984284355, 0.3672094957596354], [3.6918090918098905, -0.40486833753022783, 0.2947046588737701], [2.647542953372423, 0.3818486369670888, 0.29083566016436035]], [[2.6201648897805696, -0.7690578999539789, 3.065906339402599], [-0.6885038087098091, -1.0067735912486568, 2.9146771043048187], [-1.2729746106741997, -0.8214049932686234, 2.4373920606759962]], [[0.15740615703482694, -0.010437946811688506, -1.2231731014958793], [-0.6926277443373952, 0.21926477042673412, 0.4208231871923293], [-0.23739930763666814, 0.19045692997218128, 1.9633005920988844]], [[0.6159276756326459, 1.1721422430393778, 0.7686996625731054], [0.5378882391370832, -0.3444572940674366, 0.3078206660183978], [1.0931069671378244, -1.8018308767409739, -0.033110553922616005]], [[0.10102967002551679, 0.12330302509619037, 1.4254617393407132], [-0.07884915597439487, -0.24125377439649, -0.3395800466310586], [-0.10614998042704295, -0.19809086272782658, -1.8226120306925078]], [[-3.2087257177845396, -0.015803780889283803, -4.3645244775693905], [-2.5875076839932056, 1.2847280780573211, -3.6020359786008536], [-1.9205067822546367, 2.3401102297428014, -2.9153805396227677]], [[0.08156020201609064, -0.09265442386131331, -0.005237304101326873], [0.16113305374337572, 0.1425847308777556, -0.0027037886504094055], [0.0682143613611217, -0.03401748319792129, 0.0023194166103252286]], [[0.10425746746851162, 0.16122525359411785, -0.1336173117479813], [-0.23054993840607574, 0.13116700874195208, -0.16560329587777992], [-0.39360175295121314, -0.25326574128460116, -0.14883363375880956]], [[-0.2932450937853599, -0.21607572036955455, 0.09927495783836732], [-0.11279205326707933, 0.21960840914173452, 0.17189749337209204], [0.12176815207406139, 0.1961941605378074, 0.2260890284479793]]]" REF_nacs="_JSON [[[-0.18465734361102717, 0.07374418813929816, 0.014560910972249673], [-0.5691324296683312, 0.13415820671652334, 0.07593991515195968], [-0.7217391392895355, -0.8813240872909951, 0.8571100431992567]], [[-0.15137218538784755, 0.15161764907057002, 0.030473819497886554], [0.5947403605352958, -0.061161047908718104, -0.06358457020798497], [4.088944069283208, -0.32079021194042784, 0.6200794736683477]], [[0.088934761734519, -0.008779154543336137, -0.02356022837084173], [-0.014609768137824589, -0.020121136017242455, 0.5175670550843835], [-1.13216088721845, 0.021669601109944602, 0.33221791764777037]], [[0.07353100791360118, -0.31205593173814694, -0.07442382497552717], [-0.004322629489778034, -0.4429266091865346, -0.09615555964918622], [-0.8652987369231963, -0.4666962417004418, -0.14996093987233947]], [[-0.0005157511957097117, 0.01795833417881617, 0.030970608511278853], [0.04274538738599172, 0.02090743583741395, -0.5438504518434775], [0.21658447825544822, -0.05352018164740337, -0.783125594371002]], [[0.09285908175020204, 0.1181900384206368, 0.07891837933842497], [-0.03420544856736284, 0.3938735393042151, 0.08124193588685376], [-1.5570394441758009, 0.6073536045954947, -0.8681476237069613]], [[-0.012575010162003636, -0.025954037995842536, 0.00872123572310508], [-0.0013799279263711278, -0.010144624473138788, 0.0008081202523059762], [0.18382067890106632, 0.31555067632672723, 0.0003492566181844655]], [[-0.03729044757676585, -0.030188388800295167, -0.028611839358727048], [-0.06615268831259927, -0.06866454656520583, 0.014141792582626895], [-0.1920494126868004, 0.2890284086183263, 0.02679855220051176]], [[0.04522904780160223, -0.03189160970582954, -0.023545041269419628], [0.06830986519546352, 0.06290041949619345, 0.011376342553377912], [0.008273751863284794, 0.5049099113253102, -0.039935106457815416]]]" REF_dip_perm="_JSON [[-0.2008554841361577, -0.0195692264642427, -0.10243369448026012], [-0.44120543351266694, -0.041844979276005535, -0.05435329488823705], [-0.06530223493562812, -0.00550174348150516, -0.17244320331722904]]" REF_dip_trans="_JSON [[0.20253643306671834, 0.01919600168724678, -0.05800031099821827], [-0.05794640371577813, -0.004968919422565199, -0.004895572937005756], [-0.5851966403386799, -0.05512760530516672, 0.1537728742948416]]" pbc="F F F"
C        0.00000000       0.00000000       0.00000000
C        1.40308550       0.00000000       0.00000000
H       -0.52078843       0.95765779       0.00000000
H        1.91863644       0.22565213      -0.93236853
C       -0.87048002      -1.22379842      -0.00000000
H        2.27662620      -0.28567469       1.18037480
H       -0.28391531      -2.13887145      -0.00000000
H       -1.52145135      -1.23484856      -0.87564365
H       -1.52139133      -1.23471640       0.87568993
9
Properties=species:S:1:pos:R:3 REF_energy="_JSON [[-3183.253412623304, -3175.2000418379876, -3166.981961349407]]" REF_forces="_JSON [[[-12.549939111630115, 1.925153358581208, 0.2234689668502781], [-16.234966586495492, -3.0068863479029315, -0.14059535859621455], [-19.464739122909947, -0.4111084421787737, 1.0450323580040897]], [[15.43032469301842, 3.1160938047513067, 0.17134173384986165], [17.368819284271463, -2.3422919195406853, 0.04005596805279229], [19.257980374859507, -2.2476147131635704, -3.6497305910394444]], [[-0.29932621551570443, -0.36691261447404083, -0.17604349176399411], [-1.1130201064325485, 1.9386839571276853, 0.4309926427236884], [-1.5044206515833853, 1.2042205393542698, -4.847837238332999]], [[1.095079928751217, 0.5977371646644807, 0.05586528897844867], [0.016988639605062455, 0.20533058986972277, 0.20036060669684094], [2.059723488726594, 1.472135471005193, -3.4397535809043913]], [[-0.4701318428686495, -0.07241415642111866, 0.23160781142554696], [0.3053474537293256, 0.2803055515047001, -0.2829183991384111], [-0.940183847079351, -0.29981404996619526, 5.515892158036797]], [[-3.3645503004423287, -4.980600553890764, -0.5016579868541621], [0.19680911408200147, 2.077492146012946, -0.17663767233666453], [1.0618972247848686, 0.0831722519817201, 5.313302076218293]], [[0.12426273074440179, -0.10834207384266296, 0.005746586125228005], [0.10258846233929184, 0.038331021361986815, 0.008749650472972336], [0.13786024195597546, 0.1193117026214301, 0.043762803491073275]], [[0.03991404304003135, -0.006154851647360505, -0.07172855118432155], [-0.3967314745060817, 0.3596977798492584, -0.229399620722669], [0.5266133357988904, 0.9947785728593861, -0.2620543521358071]], [[-0.005633925097463154, -0.10456007771943016, 0.06139964257289309], [-0.24583478659447855, 0.44933722171699153, 0.14939218284767222], [-1.1347310445570695, -0.915081332515241, 0.28138636666143524]]]" REF_nacs="_JSON [[[0.15789420644887156, 0.048742621304696025, -0.06959665195902852], [0.12310922455593439, -0.09056377678752742, -0.037347653704164534], [-0.6252293511578474, 0.12110870939789646, -0.013929442205589537]], [[-0.5890508792301068, -0.11105828840214994, 0.11867668864789754], [-0.11121567125605036, -0.04817133971314924, 0.10006591674878368], [0.49405027290819864, 0.34455203736759255, 0.10583728324691417]], [[0.06869535814298926, -0.05939696954794717, 0.026826348650784867], [-0.015918396068605112, 0.05092803654502143, 0.07696549107480383], [0.07590328927863788, -0.1393342415087621, -0.0621724181383632]], [[0.10856623898860174, 0.06119489087368634, -0.06846788864094032], [-0.020297681020511885, -0.015217198991908168, 0.03226003963373132], [0.06909793899644967, 0.06980682539955743, -0.10278681339047285]], [[0.023228475282055572, -0.03822004314939123, -0.0018638259548121436], [0.0240244576764767, 0.0035963229970044533, -0.08292235046165379], [0.055623620540236826, 0.014554211522766838, 0.042994591093382085]], [[0.22785808732607218, 0.3476831134039445, 0.007143670972110599], [0.011747690547093247, 0.08110480547528298, -0.0871956821106109], [-0.05866021399883086, -0.1388041121211634, 0.018951809238650676]], [[-0.013220214446188242, -0.008177790300603772, -0.009638650280274375], [-0.0012050299231355437, 0.0014484748079011212, 0.000592729429014811], [-0.005928414952209876, -0.014971875518013428, -0.0052839036049511234]], [[0.037101832085882275, -0.002666680405225361, 0.021589210438105442], [-0.01822660657240256, -0.0011767617499710509, -0.0029204795323438506], [0.037407906579288594, -0.007759685566837959, 0.027800679974524477]], [[-0.0218118080520278, -0.014724219654993683, 0.019356640840238054], [0.007962101564164752, 0.024072175224756028, 0.0016886226567765325], [-0.04292552226483133, -0.04943102820685655, 0.027951410570572464]]]" REF_dip_perm="_JSON [[-0.10940195885345233, -0.047255950027701554, -0.02219143410632086], [-0.524295792381535, -0.6366999135373904, -0.10629986327052543], [-0.5060579686859378, -0.5832564278905891, -0.16304739300464566]]" REF_dip_trans="_JSON [[0.018614322106819126, -0.20618582855620798, -0.07491823183494319], [0.04704231400760729, 0.06213994578076404, 0.007948894654429009], [0.03333944572105509, -0.21220587603528998, -0.08104611187093062]]" pbc="F F F"
C        0.00000000       0.00000000       0.00000000
C        1.18800596       0.00000000       0.00000000
H       -0.52078843       0.95765779       0.00000000
H        1.70355690      -0.94782691      -0.14783133
C       -0.87048002      -1.22379842      -0.00000000
H        2.06154666       1.19994505       0.18715387
H       -0.28391531      -2.13887145      -0.00000000
H       -1.52145135      -1.23484856      -0.87564365
H       -1.52139133      -1.23471640       0.87568993
9
Properties=species:S:1:pos:R:3 REF_energy="_JSON [[-3178.717252803933, -3174.3743909699833, -3171.650583202692]]" REF_forces="_JSON [[[-33.38361924330074, -1.2282006561183134, 0.7214015064753176], [-32.03221193707147, -0.3147950931537871, 0.8413297950563026], [-33.64521074294359, 0.127595534423953, 1.7349448209006473]], [[35.93726477139093, -0.7313197969355232, 1.6601625910693396], [34.49117779602987, -1.2739203544702549, 1.1397740330859576], [36.46076143558913, -1.3143434854582607, -0.07779547595311552]], [[-0.57387808511713, 0.14011029708880085, -2.178892938892224], [-1.3988610007920135, 0.5664286861752018, 0.9453671229060104], [-2.2355142443787925, 0.9885893920594034, 4.051779729540736]], [[1.4729872985784755, 1.7367226350468024, 1.5997911148395807], [1.6468251430560845, -0.7279785816170228, -0.02163591943180547], [1.9289047777167, -3.407772648568991, -1.4786959497915395]], [[-1.026536429845573, -0.15235202175987406, 2.28256791473433], [-1.3039668528331316, -0.615314723897768, -0.8783468955557295], [-1.4880560585873748, -0.8069953814187976, -4.071417236438347]], [[-2.4363940741100674, 0.28135736756075963, -4.0436418967626135], [-1.3876843762582303, 2.142006510690272, -2.0661257293810897], [-0.9126306141495526, 4.1185822820556615, -0.24561949428225036]], [[0.1691411413070689, 0.011539948872059133, 0.009902824305515001], [0.19115610832038205, 0.12033242984040562, -0.008306360801559535], [0.20059009679248624, 0.12000754523207992, -0.03441535943519094]], [[0.21517276266691415, 0.27637766888322396, -0.12151077148485077], [-0.2233315156558641, -0.10494075009053218, -0.13188103969170437], [-0.6783250166743248, -0.4964848455752006, -0.10761171033853514]], [[-0.37413814157254527, -0.3342354426384424, 0.07021965571530006], [0.01689663520422875, 0.20818187652469164, 0.17982499381371622], [0.3694803666335354, 0.6708216072512474, 0.2288306757982897]]]" REF_nacs="_JSON [[[0.037772628544899614, 0.11673080922473886, 0.047096676504612994], [-0.22457395283256618, 0.040393115933078254, 0.05271955892810056], [0.07963498140805217, -0.12307760717534978, -0.0339742834145435]], [[-0.761923392557711, 0.15840200494781592, -0.09714453920484521], [0.1297141723684229, 0.013608155119088127, -0.144084761453243], [1.3188027265805433, -0.44953339856102564, 0.3330615167077683]], [[0.21577805482834841, -0.09150326039660306, -0.12127998177393609], [0.005301827138606463, -0.000281481674004113, 0.13736958332525162], [-0.43075760431740273, 0.15188971355179814, -0.0846530471661059]], [[0.206252902626712, -0.1852969740902809, -0.12840258597600007], [0.02512600574588298, -0.1305293400578961, -0.04960780020237678], [-0.40039816389005495, 0.2709222228690553, 0.19639468523141917]], [[0.05584393683055624, -0.0008045912093104545, 0.12853102483279696], [0.013280356383090192, 0.009384945919798571, -0.13017671669352543], [-0.0576311130482252, -0.0001676720381192909, 0.03014487276715579]], [[0.2631686267988066, -0.03126171795624864, 0.2701216910203319], [0.05213602064431774, 0.0769600524575449, 0.13659839840327156], [-0.47769012440874514, 0.09467951131304331, -0.4933012566049121]], [[-0.01438580241169143, -0.008516014399714323, 0.009208370784505463], [-0.0030969019790519307, -0.00647831700794004, 7.387231319830071e-05], [0.03269229154630911, 0.019598282601427, -0.009435181731479548]], [[-0.0013706711691683288, -0.015147952813619886, -0.01785820542049738], [-0.01650936914253357, -0.02015070960063681, 0.00270527562122952], [-0.016430752734091128, 0.06277829566016556, 0.0035021440324422646]], [[0.0440233668881196, -0.022831406992949135, -0.016455414642135326], [0.021291125667992936, 0.012351419471297604, -0.0012342534997210578], [-0.08140894283182072, 0.031869020787279816, 0.004014249833460195]]]" REF_dip_perm="_JSON [[-0.18034417830864358, 0.022884721239954865, -0.11913712593114784], [-0.26950756591267805, 0.04349179646130432, -0.20431567397429498], [-0.2961356212855877, -0.011462555470416622, -0.1962835365521929]]" REF_dip_trans="_JSON [[-0.08433373536041827, 0.09194367671825976, -0.17395898564635062], [-0.028671360764515083, 0.007257088586805845, -0.02820175282087353], [0.12067480884247385, -0.12516359104430916, 0.24067064151879464]]" pbc="F F F"
C        0.00000000       0.00000000       0.00000000
C        1.08045926       0.00000000       0.00000000
H       -0.52078843       0.95765779       0.00000000
H        1.59601020       0.46841891      -0.83714615
C       -0.87048002      -1.22379842      -0.00000000
H        1.95399996      -0.59301646       1.05982366
H       -0.28391531      -2.13887145      -0.00000000
H       -1.52145135      -1.23484856      -0.87564365
H       -1.52139133      -1.23471640       0.87568993
9
Properties=species:S:1:pos:R:3 REF_energy="_JSON [[-3183.056069393237, -3176.0084564698554, -3172.8573178310708]]" REF_forces="_JSON [[[6.480770941096687, -0.9813931993192585, 0.18615550404269948], [5.143918181140841, 0.24302679152609666, -0.24668868512653944], [-2.190071735230696, -0.18382420254474877, 0.3554751118788159]], [[-3.137900781169846, -3.6652308169343053, 2.40791347474013], [-4.515833482800704, -3.013456100520182, -1.8825994111576214], [3.8062996785999985, -3.517731207829771, -0.08241290970593616]], [[0.8321175373809697, -0.02413666684391401, -0.6631886802106965], [-0.3748169148791097, 0.10906547431400228, 1.3646614697620971], [0.13576646273963866, -0.02742568874735134, 2.3060785526016714]], [[0.22448306900628973, -0.29335397906690075, 0.3892305204925052], [-0.1699859683194166, -0.2078386329537418, 0.30369107246250404], [0.2911135891983118, -1.0809126090557681, -1.2499904687086134]], [[0.2762478697918448, 0.2018362670447524, 0.4409693695906711], [1.110501118665175, 0.1632274773914646, -0.3138054727617309], [1.2694684889273946, 0.6780971161113711, -1.880273662429744]], [[-4.6022162548868355, 4.99488760142666, -2.7849050041459518], [-1.0214218332828484, 2.2075932147596773, 0.9349203715675946], [-2.736432538918566, 4.363671638564697, 0.5861195416891057]], [[0.060704353873646, -0.11461222653117392, 0.01099884119053561], [0.1499462161970993, 0.06463521541763319, -0.07099653790017783], [0.08344050588066901, -0.08781425647728604, -0.03688019151540939]], [[-0.004045454711459452, -0.004801268553937893, -0.12100542091896822], [-0.21040391466808814, 0.16182064078917208, -0.22115986947656927], [-0.6077879578138979, -0.3298923888097905, -0.277291541985772]], [[-0.13016128038219643, -0.11319571122408074, 0.13383139521890697], [-0.11190340205515795, 0.2719259192748398, 0.13197706263029244], [-0.05179649338449728, 0.18583159878635502, 0.2791755681751769]]]" REF_nacs="_JSON [[[0.3634638853638257, 0.005414424208166023, 0.06503594159240995], [0.49464911527518063, 0.03356491238608031, -0.040681662365456187], [-0.08052941404440642, -0.3202899993483002, 0.1369644456490379]], [[0.22973141597907623, 0.015779821575917237, -0.3288402636078551], [-0.6296113651835974, 0.06302149862516072, -0.14063229543116196], [0.9125734394128151, -0.08822546481995389, 0.1995044746960327]], [[-0.08136730447823644, 0.0007931839526589953, 0.036260460454582234], [-0.05146964258016591, 0.016192840390295286, -0.010600804561052298], [-0.11655831387290097, -0.005593599381961193, -0.016394841739128512]], [[-0.05920585177339932, 0.05754417609135704, 0.12918056332449102], [-0.020005219873844782, 0.039759580403562374, 0.0603056502602527], [-0.06519830474654911, -0.049858278392414614, -0.07020739510034509]], [[0.02736592605063579, -0.024909163919150237, -0.03735521269135266], [0.0037844867509018963, -0.031005611450413858, 0.06113415278384144], [0.06399530332791735, 0.019105699753606018, -0.08084463810468796]], [[0.06421483269213206, -0.09079800777290342, 0.11869579383941464], [0.1694053381561874, -0.1746462318498143, 0.08162847189192617], [-0.37516946380630983, 0.28269477490191053, -0.15581592036998204]], [[0.009015393473325391, 0.022547332054951474, -0.003910178734267166], [0.005248860487532175, 0.011819599816332517, -0.003957236169909921], [0.02258717260459407, 0.056711398126025075, -0.0012173759395384721]], [[0.038714932821397825, 0.04130430308861456, 0.02743107714725702], [0.012893817083445818, 0.024821299162073193, -0.0006187304086545797], [-0.011101039827775685, 0.07277596232662839, 0.0034941557652185006]], [[-0.004874731492661175, 0.0516710989590559, 0.005187348017119425], [-0.003737798479312791, 0.013925361639393084, -0.006952608308421017], [0.013146973843169485, 0.08184367552644542, -0.0082424531987656]]]" REF_dip_perm="_JSON [[-0.17596376951234943, -0.019335424226683842, -0.03776228837793862], [-0.36236223906606113, 0.0638885954048849, -0.049777183417583776], [-0.165932966479771, 0.05696821572861034, -0.050926416143607704]]" REF_dip_trans="_JSON [[-0.6792762519656093, -0.08040421673945342, 0.02700925001891223], [0.0794300872215135, -0.04289057461387621, 0.006490492051893458], [-1.1018594237182504, -0.12435421079651128, 0.042691890743834615]]" pbc="F F F"
C        0.00000000       0.00000000       0.00000000
C        1.56352811       0.00000000       0.00000000
H       -0.52078843       0.95765779       0.00000000
H        2.07907905       0.89015827      -0.35755867
C       -0.87048002      -1.22379842      -0.00000000
H        2.43706881      -1.12693679       0.45266784
H       -0.28391531      -2.13887145      -0.00000000
H       -1.52145135      -1.23484856      -0.87564365
H       -1.52139133      -1.23471640       0.87568993
9
Properties=species:S:1:pos:R:3 REF_energy="_JSON [[-3180.824972478297, -3178.2313227568648, -3178.0644845789857]]" REF_forces="_JSON [[[-7.890511459638445, 0.19053149591924648, 0.7739393133103109], [-3.0862936775140035, -0.20111359679701532, 0.2911727743819545], [-3.2356249642274375, -0.2829279388944091, 0.48198597540071597]], [[10.139344798755813, -0.0557315616528998, 2.409635840767471], [5.419074574986426, 0.14157004989833308, 2.6770543224398553], [5.9338357600496305, 0.1042919881555408, 2.747043301859347]], [[-0.27999184410869343, 0.041446728422876514, 0.13882052934980174], [-0.6735416165846688, 0.2822001444379929, 0.04733687593021632], [-0.8052347001487205, 0.3171490947889636, -0.10219891427760543]], [[1.0187750455073634, -0.08466593394188342, 0.5085572378290529], [1.1027778280980933, 0.02603762418323308, 0.37851592721149924], [1.1057725502950222, 0.14520941460686226, 0.3473292361678748]], [[-0.18796988472034548, 0.01819008379282505, -0.03509102039155244], [-0.569661420014027, -0.33911776308284963, 0.06717179672749549], [-0.5792075922979228, -0.35695542692707394, 0.15034424712250125]], [[-2.7143750883997915, 0.035688906365540576, -3.806809216580317], [-2.039485240628106, -0.06071682395097352, -3.4950353127783504], [-2.254449740771226, -0.15035416383279931, -3.651190615122825]], [[0.10194203809016547, -0.08685092013055651, 0.00344503721421569], [0.12443657594210804, 0.060863606649342455, 0.009519697241274754], [0.13996949931165306, 0.07981866556054303, 0.009208555585179266]], [[-0.10345153574654725, -0.01818578131871718, -0.10753155203641807], [-0.13326066157008049, 0.06649717298980526, -0.1567964514791175], [-0.1339356510215926, 0.10147307185129302, -0.15533649038286115]], [[-0.08376206973811881, -0.04042301745550082, 0.11503383053647093], [-0.14404636271889976, 0.023779585672029504, 0.181060370325802], [-0.17112516118653, 0.042295294689025494, 0.17281470364880577]]]" REF_nacs="_JSON [[[-0.001590341629389238, 0.0024107128555870554, 0.05181506246760577], [0.03672292321080816, 0.27249033388550264, 0.10213715733685123], [-1.5795529045091588, -3.820259503120194, 1.924908558311794]], [[0.026715368002323978, 0.10513108354893433, 0.035378219122355635], [-0.03548858392442425, -0.05361334402730456, -0.055465952028676394], [19.421635043138544, -0.9702501746219476, 4.690699596959496]], [[-0.0023678035822534663, 0.004239859945333668, -0.2098613401018754], [-0.045627488345282, -0.011646314647631951, 1.0575777303630935], [-5.610881362974048, 0.7764610117836619, -0.6509162788986522]], [[-0.0113297755525181, -0.21456607278319834, -0.005397150363004682], [0.00042315917689293616, -1.0791598411554937, 0.0019788943219691147], [-4.87168906575788, 0.06617329917393981, 0.10398354851411362]], [[-0.008581148845425364, -0.0003479918660832009, 0.19845247902118143], [0.03704776325259028, -0.018581433124982828, -1.118851454781591], [0.23418524501224974, -0.1998319014398741, -0.932063089063568]], [[-0.005163615013347478, 0.05420930585365262, -0.014680344630647922], [-0.0022325269728771, 0.8808768892944735, -0.019737617765310637], [-7.1781466630288095, 0.10004504865394541, -5.191772233492851]], [[0.0024983963772388677, 0.0009487427787829635, 0.008998130548622443], [-0.000658022754716891, -0.0030895502344646408, 0.001666206876978194], [0.7577214983144955, 1.1464052993076772, 0.02181293091039422]], [[-0.02382333354840267, 0.018109514387612536, -0.0322479402676313], [-0.14887336776409563, -0.13905975646881918, 0.015436895924318987], [-0.6705598578865212, 1.2699363718903174, 0.10527224998111309]], [[0.024727489513057872, -0.015113392004429514, -0.03338182883429249], [0.15871762730700886, 0.1504781771905081, 0.015231313403273694], [-0.50269081171919, 1.6304451930147859, -0.07194327975933718]]]" REF_dip_perm="_JSON [[-0.21899962038126386, -0.04441617930614966, -0.1289472429692362], [-0.19683733348176244, -0.0428339023645225, -0.14138893639445183], [-0.26617645656188405, -0.051484376959865706, -0.13362953355044604]]" REF_dip_trans="_JSON [[-0.007416402307394148, -0.00027492116180058136, 0.0038794941022224274], [-0.0006434546590509112, -0.006086315759065981, 0.007097673052522231], [-0.38139289135392646, -0.023166569748624945, 0.20957430052177606]]" pbc="F F F"
C        0.00000000       0.00000000       0.00000000
C        1.28184927       0.00000000       0.00000000
H       -0.52078843       0.95765779       0.00000000
H        1.79740021      -0.01017178      -0.95923224
C       -0.87048002      -1.22379842      -0.00000000
H        2.15538997       0.01287743       1.21438416
H       -0.28391531      -2.13887145      -0.00000000
H       -1.52145135      -1.23484856      -0.87564365
H       -1.52139133      -1.23471640       0.87568993
9
Properties=species:S:1:pos:R:3 REF_energy="_JSON [[-3180.925947128987, -3178.2355895021933, -3177.9831535557532]]" REF_forces="_JSON [[[-7.42832044721938, -0.1611531418367928, 0.6532445461078217], [-2.873795701146548, -0.2092225983567234, 0.31611013492913137], [-3.2580531673903548, 0.01612937441762263, 0.6042661357981417]], [[9.708557367452412, -0.2671271499018431, 2.492355759462748], [5.319295865222717, -0.23897287690382607, 2.67939021921907], [5.789157522922937, -0.2628808686137468, 2.5875597091995375]], [[-0.21689785489575192, 0.05527417497284364, -0.8164564168737347], [-0.7129681778329647, 0.286875810799527, 0.18827043817443365], [-0.8097549805988077, 0.29690319414591726, 1.1613468076662874]], [[0.9940865394489431, 0.8518681367936681, 0.5870413112607794], [1.0557787037814228, -0.11287526951131566, 0.37381931326229345], [1.1421158205455006, -1.129140918897299, 0.2542135948936055]], [[-0.2223862279400374, 0.03542377535344234, 0.9766810092131366], [-0.5487745256735037, -0.33883746713659474, -0.08637278142499213], [-0.5205102144000323, -0.36049186783291076, -1.1616711748621975]], [[-2.741866182220648, -0.37183620801211825, -3.8734386227313955], [-2.0863971462078856, 0.4262364036261496, -3.5012332517124696], [-2.187016625384531, 1.2416593105968783, -3.5038922319962076]], [[0.10331566713879474, -0.07831917747146648, 0.0012730223975258104], [0.13094338564483676, 0.07127781327882217, 0.006029704007920097], [0.13387696002883254, 0.06673508572844494, 0.006118739792849161]], [[0.03122766354745357, 0.10778862674910288, -0.12204386231976799], [-0.16011413201217328, 0.05236313073840996, -0.15602902193935395], [-0.3066380109150569, -0.08001399249202268, -0.1388676139185951]], [[-0.227716525312442, -0.1719190366466075, 0.10134325348323353], [-0.12396827177381649, 0.06315505346738794, 0.18001524548242828], [0.016822695189506704, 0.2111006829440274, 0.19092603342615727]]]" REF_nacs="_JSON [[[0.0003648663335785915, -0.052796051991401166, -0.029785602833790503], [-0.3851390769403481, 0.25682951976298063, 0.11377478845432193], [1.0278762940047608, 2.443817813190623, -1.3617361523350469]], [[0.2345158572534129, -0.12093062800362726, 0.001930023703030263], [0.34496198346511037, -0.060977715893314174, -0.09778332595692006], [-12.562981554356913, 0.9884591132213197, -3.022137664371817]], [[-0.06865326463044953, 0.008503185729657149, 0.1742130417261987], [-0.02741992179742041, -0.019177619798452145, 0.9368612789145985], [3.6542082985775917, -0.48724616700769396, 0.5064310848474263]], [[-0.05689393899973915, 0.23536189169660252, 0.02724458866792559], [0.009171315359371098, -0.9407940768624439, -0.07577767497962531], [3.136719722229645, -0.13016491550944354, -0.05259525354951082]], [[0.003674229242204116, -0.004437664133478428, -0.17837718261740504], [0.05082810506466789, 0.005231816610035449, -0.9821394164447583], [-0.17727997199847337, 0.1367969636286622, 0.5149679801078544]], [[-0.0846880550492949, -0.06635170519440052, -0.05691765173089802], [0.0011208382730852682, 0.7717755332056954, 0.0764366827118134], [4.660395683196876, -0.3133897350549809, 3.3830483619463094]], [[0.007225356087982487, 0.013583868794859505, -0.008810124191099838], [-0.0025385965398327243, -0.01107764086769812, 0.0010351115393728246], [-0.4946787460254151, -0.7445058115171929, -0.005225186195808026]], [[0.020065116568697583, 0.0015829421393199058, 0.0324089659619336], [-0.12974753831865304, -0.1271263346932262, 0.015173463635641938], [0.42587985336773176, -0.8526992752911053, -0.04101272419544379]], [[-0.032910204031430176, 0.03182812803228203, 0.030452116481359703], [0.1385738655784941, 0.12493060565588034, 0.012482726700191049], [0.3259169991870126, -1.0491188275330312, 0.07958708626510677]]]" REF_dip_perm="_JSON [[-0.21491901142654118, -0.030987644735761297, -0.12811030174484922], [-0.2131701790173743, -0.032640707751092825, -0.13310488382769597], [-0.2538929908308311, -0.04595057155085915, -0.13960679289177705]]" REF_dip_trans="_JSON [[-0.06672789314597295, -0.006806043227191892, 0.03601719739671599], [-0.012426439936951162, -0.006362296861760967, -0.004592919979955326], [0.3834257181998265, 0.03884888222492361, -0.20753402921087777]]" pbc="F F F"
C        0.00000000       0.00000000       0.00000000
C        1.28483345       0.00000000       0.00000000
H       -0.52078843       0.95765779       0.00000000
H        1.80038439       0.08107557      -0.95585392
C       -0.87048002      -1.22379842      -0.00000000
H        2.15837415      -0.10264134       1.21010721
H       -0.28391531      -2.13887145      -0.00000000
H       -1.52145135      -1.23484856      -0.87564365
H       -1.52139133      -1.23471640       0.87568993
9
Properties=species:S:1:pos:R:3 REF_energy="_JSON [[-3183.0758485333963, -3175.844749778281, -3172.551711380567]]" REF_forces="_JSON [[[6.300596005541603, 1.6433448847087957, 0.30560186729827754], [5.383251800336501, -1.7091014359309624, -0.489893505013132], [-2.899608007972965, 0.13369312555393567, -0.12490743582940755]], [[-2.903936321527223, 4.019920998891708, 2.3093890117252363], [-4.804787535384871, 2.286804186865731, -2.2400612219174567], [4.645646073653248, 3.127074993458137, 0.1443265580012549]], [[0.46788427602161986, -0.2129078737532426, 0.3172138202868226], [0.1292021496919683, 0.18553395938814352, -0.4094091665651457], [0.2841484051755313, -0.1204219825767936, -1.6853028099370966]], [[0.2901233726481805, 0.3606837016449891, 0.19599905263172476], [-0.23056503029051828, 0.12046325829569197, 0.399538164921029], [0.28343204774580055, 0.9357996037073969, -1.2083018208539844]], [[0.6162712892336611, 0.0801142997794743, -0.595957118224265], [0.7410265720514606, 0.195551420218129, 1.2974466884508267], [1.3131490265365542, 0.6962962312436989, 2.1804342434532606]], [[-4.842244689887657, -5.5809232379163385, -2.497221317684907], [-0.7664698802813653, -1.5852098990541357, 1.2722310320698795], [-2.9522643126021184, -4.448297635311498, 0.6411736912489396]], [[0.06237508621035465, -0.2115598098749509, 0.024341612335762066], [0.059143702569931005, 0.09397192937586432, -0.02715251273354081], [0.04499716047773855, -0.1296246048656907, 0.0034185456521673603]], [[-0.13288870309467934, -0.13490461828464997, -0.13900962349266086], [0.06779334787981993, 0.45650398666074565, -0.1364947263077047], [0.011024640786660158, 0.23979292437886104, -0.27661841900639905]], [[0.1418196848558164, 0.03623165480474357, 0.07964269512502822], [-0.578595126574048, -0.0445174058187451, 0.33379524709538944], [-0.7305250337988332, -0.43431265559161303, 0.32577744727066005]]]" REF_nacs="_JSON [[[0.4170212280869754, -0.16880824931725794, 0.11720156661659661], [0.5296344545512406, -0.15819968939497622, -0.03808026988979642], [-0.12113236429128002, -0.04330024131269966, 0.11496042053935937]], [[0.19435246495886338, -0.05864677555167377, -0.3241958964476985], [-0.675199487143382, -0.09575512432143728, -0.1724765343050855], [0.9643979181931565, 0.09190428367421244, 0.25301994022275254]], [[-0.032432672793691594, 0.025048617112547154, -0.016304109906107186], [-0.01770724778856838, 0.02919097024392024, 0.042927018772473936], [-0.12991085991954607, -0.009285968124759925, -0.07306543182039832]], [[-0.06078354639828997, -0.04910012702264394, 0.12528468653074445], [-0.026365584711726908, -0.038657060840834694, 0.06413314992392397], [-0.06399530022657045, 0.05571500736401325, -0.0848704391070977]], [[-0.015353092101016605, -0.008219945448499619, 0.010400690969445816], [-0.025996360644030346, -0.027839954704442938, -0.00817072949985625], [0.10387978868801682, 0.020555514293123765, -0.05837923817351409]], [[0.10300820798732552, 0.1294173774450813, 0.14780824523872207], [0.19970918991878495, 0.2327635408328362, 0.09805621791685694], [-0.3909060019603756, -0.3289973754200502, -0.144964844047881]], [[0.00863615080531065, 0.028498686915921546, 0.0062918469837737676], [0.000195368628065162, 0.01804568669568045, -0.0015547302754580798], [0.02385628163547037, 0.05505365890768138, 0.013700596907743872]], [[-0.009862954405287182, 0.04312519619470487, -0.006209857995361227], [0.0052883047831056755, 0.023626101866478587, 0.006507206847757161], [-0.013018519696659845, 0.06113702216273398, 0.0054806207623761816]], [[0.034477718850186204, 0.045311070257206945, -0.028420841262907108], [-0.00952855374004916, 0.017243454665054284, 0.007663200969135919], [0.025754532451101843, 0.08886949324735739, -0.0059958052297278035]]]" REF_dip_perm="_JSON [[-0.18008809927730127, -0.08093971139426176, -0.030433847806191794], [-0.3655476123827579, -0.19911081561367935, -0.04166176826171186], [-0.13210763296580202, -0.1414305752613368, -0.04028560371116509]]" REF_dip_trans="_JSON [[-0.7115222579697928, 0.016019143137259176, 0.011183762668593045], [0.0780275818723184, 0.058000144836574154, 0.005681517418427487], [-1.145063425019678, 0.018984396791419403, 0.01721263486559157]]" pbc="F F F"
C        0.00000000       0.00000000       0.00000000
C        1.56671242       0.00000000       0.00000000
H       -0.52078843       0.95765779       0.00000000
H        2.08226336      -0.91393895      -0.29145420
C       -0.87048002      -1.22379842      -0.00000000
H        2.44025312       1.15704303       0.36897984
H       -0.28391531      -2.13887145      -0.00000000
H       -1.52145135      -1.23484856      -0.87564365
H       -1.52139133      -1.23471640       0.87568993
9
Properties=species:S:1:pos:R:3 REF_energy="_JSON [[-3179.0356695586365, -3174.2776207505485, -3171.1237808374726]]" REF_forces="_JSON [[[-33.03211252683671, 1.3414636045573873, 1.0611966577961367], [-31.619297099421704, -0.3940285786760899, 0.6322051060781646], [-33.27368892861306, -1.2829618725021683, 0.9943721930139973]], [[35.635747886007785, 1.2489432854655687, 1.4848442808985716], [34.18850143844219, 1.6110233729764334, 1.0468530129373657], [35.820402795958685, 1.0510545038102495, -0.03760834021632399]], [[-0.8230753179623815, 0.042800982069158236, 2.060863775713184], [-1.3526601799589308, 0.6530292411472342, -0.860192578992393], [-1.9464384715502832, 1.1679346557301789, -4.020792032047433]], [[1.4355405442200693, -1.571934965691226, 1.5797679175171062], [1.6327899473757244, 0.80034681068681, -0.09896004543232044], [2.074286827203812, 3.4879040693415067, -1.6888895044985373]], [[-0.7541843084180364, -0.19910310454632751, -2.139545038742725], [-1.381990485589602, -0.516526406086957, 1.0001840164523932], [-1.8056788895186884, -0.6663891038779451, 4.290626118054537]], [[-2.5318991638737076, -0.8043897106554628, -4.109156177225028], [-1.4011490315542907, -2.300249977156302, -1.7804980053312833], [-0.6903724728410708, -3.9447449587145136, 0.481707704333892]], [[0.15456396157668137, -0.04520579471431298, 0.009318050476766048], [0.18146231939268015, 0.0801272900114456, 0.03797288883809919], [0.20437806889553073, 0.11131497826561533, 0.05399880565622751]], [[-0.3353336477643043, -0.2757828334573056, -0.05987962992116923], [0.018894092081591925, 0.22089707995782776, -0.15046865841864426], [0.3697130428361654, 0.6802484466980356, -0.21411139189800535]], [[0.25075257305186605, 0.263208536972438, 0.11259016348672055], [-0.266551000769463, -0.15461883286078432, 0.1729042638689341], [-0.7526019723696662, -0.60436071875343, 0.14069644760247055]]]" REF_nacs="_JSON [[[-0.023450959226426406, -0.06430810453888773, 0.01395430132949556], [-0.201188988688633, -0.011303353707461654, 0.03386200352835378], [-0.04990357898953284, 0.23246485289855878, 0.013285723749010396]], [[0.7044350967774926, 0.08151671567406808, 0.1197809205234872], [0.11886811342377626, -0.030687672362662833, -0.1167457948108066], [-1.1239941781815677, -0.2688952013364385, -0.2360730415376813]], [[-0.20156192233189726, 0.1016348199815631, -0.1297268569538264], [0.012511339194368578, -0.0020586807635409906, -0.10642109202147426], [0.34409917056550626, -0.14458402553646743, 0.004386940783009688]], [[-0.20336149594192354, -0.17688665492798172, 0.12084472459856664], [0.02150780636454887, 0.10011058644383179, -0.04011689287454678], [0.343494236573092, 0.22519448786203788, -0.18468793866832992]], [[-0.06280116961660011, -0.0023897691395470904, 0.10601827173782055], [0.0015161055436471733, 0.008303866424348676, 0.11465643009598106], [0.05878015497963816, -0.00987262626078237, 0.045234830340258686]], [[-0.2521100185722851, -0.05762244001022832, -0.2756779719545942], [0.04835799088302456, -0.04777978120356108, 0.12238109605028796], [0.41441502123621643, 0.11321884036731505, 0.41003211562582415]], [[0.01745224379446762, 0.01073221231297791, 0.007553474247980993], [-0.0017165286478641295, -0.004826783577856671, -0.0009120252794316758], [-0.02740325320883097, -0.016788664515126887, -0.006837759734625873]], [[-0.04038904691786895, 0.018741313261350062, -0.01908492169361533], [0.01666172045923727, 0.01107838091117944, 0.00018223517192658695], [0.07191681859326281, -0.01798625678022553, 0.007904198539809996]], [[0.005142983735826027, 0.020156757067536016, -0.01900391174887069], [-0.014165563715396384, -0.019995400173986464, -0.003757596382912375], [0.011770571805854653, -0.06059692744664866, 0.004181493918668817]]]" REF_dip_perm="_JSON [[-0.18152255824148697, -0.07944071218640446, -0.08774142029991427], [-0.2704652598510313, -0.17109826791684593, -0.18921742084182114], [-0.30692008780878327, -0.20054319263452078, -0.2113588883078801]]" REF_dip_trans="_JSON [[0.08901960114749272, 0.06159578756336913, 0.16547014497220508], [-0.0255019831398355, -0.025934377172403638, -0.029835035791247376], [-0.12104828782990512, -0.0854523143815258, -0.2214131430366361]]" pbc="F F F"
C        0.00000000       0.00000000       0.00000000
C        1.08160524       0.00000000       0.00000000
H       -0.52078843       0.95765779       0.00000000
H        1.59715618      -0.52965633      -0.79980881
C       -0.87048002      -1.22379842      -0.00000000
H        1.95514594       0.67054278       1.01255473
H       -0.28391531      -2.13887145      -0.00000000
H       -1.52145135      -1.23484856      -0.87564365
H       -1.52139133      -1.23471640       0.87568993
