           6
  t=         0.00000    2    2
C      -0.635752231     -0.002300640     -0.002089229
C       0.632540628     -0.003764572      0.012562402
H      -1.202428082      0.933977579     -0.002325311
H      -1.243448079     -0.907823789     -0.016515319
H       1.241331122      0.918503188     -0.054702112
H       1.242813490     -0.872385892     -0.051252178
           6
  t=         0.50000    2    2
C      -0.634203742     -0.001478493     -0.002063655
C       0.634023329     -0.005071949      0.012338920
H      -1.213125738      0.924812524     -0.000430015
H      -1.258255993     -0.904645342     -0.018361659
H       1.237419703      0.929412563     -0.056002746
H       1.236111748     -0.871526809     -0.047642363
           6
  t=         1.00000    2    2
C      -0.635190557     -0.000635606     -0.002053306
C       0.637950053     -0.006042369      0.012156621
H      -1.223671512      0.914790032      0.002447750
H      -1.272274884     -0.900517238     -0.021320436
H       1.232205226      0.938283762     -0.058309853
H       1.230859832     -0.872983955     -0.043205431
           6
  t=         1.50000    2    2
C      -0.638666010      0.000183172     -0.002053170
C       0.644200836     -0.006621760      0.012007637
H      -1.234043125      0.904356849      0.006802436
H      -1.285063562     -0.895304633     -0.025878279
H       1.225691482      0.944798543     -0.062072129
H       1.227463887     -0.877130609     -0.037466448
           6
  t=         2.00000    2    2
C      -0.644487166      0.000933307     -0.002054827
C       0.652579619     -0.006788155      0.011880047
H      -1.244295862      0.894094897      0.013186435
H      -1.296315958     -0.889056801     -0.032591959
H       1.218026421      0.948861069     -0.067790098
H       1.226158172     -0.884134657     -0.029878815
           6
  t=         2.50000    2    2
C      -0.652396128      0.001574001     -0.002047461
C       0.662798601     -0.006558191      0.011760418
H      -1.254586746      0.884682275      0.022122273
H      -1.305920485     -0.882010527     -0.041996842
H       1.209539557      0.950604931     -0.075933675
H       1.227014957     -0.893886639     -0.019928582
           6
  t=         3.00000    1    1
C      -0.662046238      0.002073300     -0.002019713
C       0.674501190     -0.005986827      0.011636877
H      -1.265155820      0.876815075      0.034015669
H      -1.313963755     -0.874559178     -0.054513496
H       1.200734263      0.950368291     -0.086860478
H       1.229975869     -0.905991807     -0.007237171
           6
  t=         3.50000    1    1
C      -0.677420977     -0.002511630     -0.006884173
C       0.681859980     -0.010052258      0.006551944
H      -1.334279824      0.812938788     -0.011454905
H      -1.378857728     -0.925853980     -0.126430266
H       1.133619238      0.890360293     -0.156797596
H       1.176072828     -0.978289259     -0.051910486
           6
  t=         4.00000    1    1
C      -0.693107141     -0.007809433     -0.011874975
C       0.688657426     -0.014630438      0.001369367
H      -1.403387121      0.753987245     -0.057620568
H      -1.438527760     -0.974296284     -0.195806923
H       1.071147174      0.835779161     -0.225458291
H       1.122685814     -1.049186688     -0.097036307
           6
  t=         4.50000    1    1
C      -0.709091229     -0.014126814     -0.017101611
C       0.694294305     -0.020653654     -0.003799605
H      -1.472295839      0.700971579     -0.104152088
H      -1.490692261     -1.017647621     -0.261429364
H       1.018162239      0.794788601     -0.294970985
H       1.069486476     -1.115333997     -0.142050474
           6
  t=         5.00000    1    1
C      -0.725353462     -0.021605117     -0.022649802
C       0.698288347     -0.028870741     -0.008776414
H      -1.540322112      0.653873988     -0.150561027
H      -1.534018261     -1.054568405     -0.322380463
H       0.977994338      0.773981882     -0.368639754
H       1.016638937     -1.174039167     -0.186160692
           6
  t=         5.50000    1    1
C      -0.741876118     -0.030249641     -0.028612702
C       0.700423286     -0.039485262     -0.013469455
H      -1.606144564      0.612003365     -0.196222919
H      -1.568049416     -1.084596116     -0.377897288
H       0.950837287      0.774259720     -0.448536417
H       0.964537486     -1.223485558     -0.228664100
           6
  t=         6.00000    1    1
C      -0.758695157     -0.039974671     -0.035085557
C       0.700747897     -0.052131410     -0.018013101
H      -1.667972318      0.574488491     -0.240337470
H      -1.592830462     -1.107997736     -0.427515703
H       0.934345175      0.790371348     -0.533754308
H       0.913629157     -1.262664439     -0.268995714
           6
  t=         6.50000    1    1
C      -0.775878668     -0.050665296     -0.042153585
C       0.699416108     -0.066201380     -0.022715619
H      -1.723994440      0.540557082     -0.282177318
H      -1.608595747     -1.125371051     -0.470902575
H       0.925552073      0.814780642     -0.621007818
H       0.864280477     -1.291281230     -0.306812994
           6
  t=         7.00000    1    1
C      -0.793471248     -0.062203126     -0.049894466
C       0.696567913     -0.081128467     -0.027918647
H      -1.772672847      0.509626319     -0.321123280
H      -1.615650845     -1.137394288     -0.507812521
H       0.921804055      0.840741560     -0.706356138
H       0.816776147     -1.309492218     -0.341924858
           6
  t=         7.50000    1    1
C      -0.811487673     -0.074496826     -0.058393868
C       0.692247722     -0.096528119     -0.033914360
H      -1.812643945      0.481371974     -0.356522659
H      -1.614159233     -1.144590124     -0.537975126
H       0.921176417      0.863544268     -0.786463031
H       0.771487641     -1.317411181     -0.374088412
           6
  t=         8.00000    1    1
C      -0.829936847     -0.087492930     -0.067736862
C       0.686428932     -0.112151425     -0.040936667
H      -1.842755903      0.455824067     -0.387664457
H      -1.604154021     -1.147297941     -0.561142801
H       0.922306058      0.880125503     -0.858825746
H       0.729082440     -1.315268539     -0.402964135
           6
  t=         8.50000    1    1
C      -0.848803876     -0.101177419     -0.077997926
C       0.679052042     -0.127849424     -0.049118792
H      -1.862345707      0.433273480     -0.413958103
H      -1.585712615     -1.145652346     -0.577070610
H       0.924288304      0.889020397     -0.922058052
H       0.690411113     -1.303697690     -0.428298853
           6
  t=         9.00000    1    1
C      -0.868016873     -0.115555875     -0.089227199
C       0.670077263     -0.143505441     -0.058505794
H      -1.871560264      0.414081138     -0.435118252
H      -1.559112122     -1.139652449     -0.585569938
H       0.926423832      0.889634033     -0.975509600
H       0.656214549     -1.283789285     -0.450082502
           6
  t=         9.50000    1    1
C      -0.887440443     -0.130629276     -0.101446740
C       0.659485965     -0.159001304     -0.069083669
H      -1.871283721      0.398642523     -0.451135269
H      -1.524937916     -1.129425164     -0.586557440
H       0.928187669      0.881767639     -1.018908544
H       0.627095886     -1.257009578     -0.468583957
           6
  t=        10.00000    1    1
C      -0.906862805     -0.146365320     -0.114633280
C       0.647269661     -0.174186601     -0.080793789
H      -1.862954423      0.387393119     -0.462235773
H      -1.484270192     -1.115654263     -0.580226956
H       0.929268512      0.865496835     -1.052218347
H       0.603462594     -1.225363048     -0.484395147
           6
  t=        10.50000    1    1
C      -0.926006268     -0.162675805     -0.128705120
C       0.633424307     -0.188850061     -0.093544583
H      -1.848354133      0.380823531     -0.468787606
H      -1.438650220     -1.099850349     -0.567234070
H       0.929534513      0.840971927     -1.075520397
H       0.585508874     -1.191548431     -0.498475872
           6
  t=        11.00000    1    1
C      -0.944534810     -0.179422496     -0.143533842
C       0.617926279     -0.202693426     -0.107241826
H      -1.829466066      0.379534369     -0.471198972
H      -1.389843828     -1.084284484     -0.548628829
H       0.928979392      0.808318199     -1.088755632
H       0.573267596     -1.159221659     -0.512079909
           6
  t=        11.50000    1    1
C      -0.962045458     -0.196370457     -0.158930760
C       0.600720636     -0.215342854     -0.121803643
H      -1.808365222      0.384164614     -0.469879578
H      -1.340039885     -1.072365060     -0.526056414
H       0.927614822      0.767503526     -1.091619100
H       0.566843915     -1.132835218     -0.526681224
           6
  t=        12.00000    1    1
C      -0.978072504     -0.213110973     -0.174631608
C       0.581741687     -0.226407651     -0.137149488
H      -1.787051865      0.395192516     -0.465254583
H      -1.292222327     -1.069425785     -0.502001115
H       0.925449652      0.718540260     -1.083761465
H       0.566446750     -1.117071486     -0.543828370
           6
  t=        12.50000    1    1
C      -0.992204309     -0.229135955     -0.190368608
C       0.560949859     -0.235600596     -0.153198840
H      -1.767115828      0.412731352     -0.457750600
H      -1.249412373     -1.081736012     -0.479032340
H       0.922505353      0.661861102     -1.065110734
H       0.572232231     -1.115683736     -0.564747537
           6
  t=        13.00000    1    1
C      -1.004183188     -0.244020791     -0.205960398
C       0.538339738     -0.242857443     -0.169921078
H      -1.749523611      0.436461505     -0.447785180
H      -1.213767559     -1.114298825     -0.458740447
H       0.918802427      0.598346538     -1.035895743
H       0.584297923     -1.130054838     -0.589727919
           6
  t=        13.50000    1    1
C      -1.013923590     -0.257652168     -0.221371099
C       0.513924766     -0.248395277     -0.187365684
H      -1.734606038      0.465622179     -0.435726430
H      -1.186136817     -1.168128350     -0.441040474
H       0.914427963      0.529384490     -0.996710386
H       0.602556916     -1.158561282     -0.617730363
           6
  t=        14.00000    1    1
C      -1.021510204     -0.270351386     -0.236685355
C       0.487743523     -0.252749888     -0.205581344
H      -1.722053700      0.498784811     -0.421901357
H      -1.166231797     -1.238484207     -0.424435337
H       0.910047551      0.457807538     -0.949398513
H       0.626295289     -1.197134645     -0.646492379
           6
  t=        14.50000    1    1
C      -1.027137578     -0.282647188     -0.251996128
C       0.459859486     -0.256648050     -0.224536177
H      -1.711081019      0.533853760     -0.406584531
H      -1.153451047     -1.317380427     -0.407367730
H       0.907182269      0.387782386     -0.897132807
H       0.654166717     -1.240871644     -0.673396218
           6
  t=        15.00000    1    1
C      -1.031046077     -0.295000552     -0.267344110
C       0.430266399     -0.260910517     -0.244059391
H      -1.700845683      0.568723670     -0.389919562
H      -1.147247446     -1.397361198     -0.388944421
H       0.908882241      0.324810791     -0.844471364
H       0.684670328     -1.285351770     -0.696183612
           6
  t=        15.50000    1    1
C      -1.033494825     -0.307699183     -0.282719756
C       0.398832853     -0.266378528     -0.263860777
H      -1.690544938      0.601228272     -0.371993195
H      -1.147381294     -1.472700131     -0.368840629
H       0.920079621      0.275358419     -0.796772411
H       0.716484958     -1.327148689     -0.713306168
           6
  t=        16.00000    1    1
C      -1.034774018     -0.320903680     -0.298092261
C       0.365453439     -0.273715600     -0.283728767
H      -1.679510620      0.629426954     -0.352902245
H      -1.153918829     -1.539348144     -0.347002206
H       0.946023203      0.244573664     -0.757702902
H       0.748473795     -1.363699371     -0.723942293
           6
  t=        16.50000    1    1
C      -1.035254106     -0.334740008     -0.313425935
C       0.330436268     -0.283179242     -0.303735835
H      -1.667262070      0.651649475     -0.332867050
H      -1.167360105     -1.594049068     -0.323500786
H       0.988426305      0.233275044     -0.726715890
H       0.779685736     -1.392838909     -0.727908632
           6
  t=        17.00000    1    1
C      -1.035523394     -0.349269699     -0.328652051
C       0.294761958     -0.294667735     -0.324124656
H      -1.653143267      0.666324394     -0.312323692
H      -1.187714235     -1.634303899     -0.299086930
H       1.043391392      0.238433326     -0.700613087
H       0.808696718     -1.412944484     -0.725144164
           6
  t=        17.50000    1    1
C      -1.036121920     -0.364400145     -0.343693771
C       0.259558097     -0.307758458     -0.345206652
H      -1.636651356      0.672228340     -0.291631696
H      -1.213983028     -1.659797065     -0.274470454
H       1.104099626      0.255043359     -0.675061158
H       0.833823468     -1.424242448     -0.716117621
           6
  t=        18.00000    1    1
C      -1.037509150     -0.379986799     -0.358475502
C       0.225852617     -0.321993260     -0.367189783
H      -1.617786257      0.668719743     -0.271240347
H      -1.245016154     -1.671292996     -0.249908486
H       1.163759364      0.278042729     -0.646716235
H       0.853933601     -1.427445933     -0.701889240
           6
  t=        18.50000    1    1
C      -1.040160167     -0.395912141     -0.372921241
C       0.194552316     -0.337041367     -0.390088901
H      -1.597060893      0.655791851     -0.251635400
H      -1.279712504     -1.669570647     -0.225703086
H       1.217160461      0.303524939     -0.614349614
H       0.868504860     -1.423204488     -0.683628555
           6
  t=        19.00000    1    1
C      -1.044599099     -0.412092687     -0.386945633
C       0.166494047     -0.352691208     -0.413816467
H      -1.575291024      0.633918921     -0.233295799
H      -1.317019839     -1.655302108     -0.202297824
H       1.260591455      0.328817670     -0.578035467
H       0.877285933     -1.412163704     -0.662399018
           6
  t=        19.50000    1    1
C      -1.051306482     -0.428479228     -0.400457353
C       0.142355611     -0.368818976     -0.438240957
H      -1.553485535      0.604161578     -0.216566109
H      -1.356040753     -1.629369282     -0.180292874
H       1.291895176      0.352341798     -0.538628225
H       0.880194896     -1.394984823     -0.639056890
           6
  t=        20.00000    1    1
C      -1.060649717     -0.445042477     -0.413371910
C       0.122618663     -0.385359291     -0.463236010
H      -1.532678854      0.567955864     -0.201605341
H      -1.396211515     -1.592995730     -0.160246581
H       1.310194920      0.373374299     -0.497216659
H       0.877217747     -1.372285276     -0.614308435
           6
  t=        20.50000    1    1
C      -1.072800608     -0.461757395     -0.425629949
C       0.107518810     -0.402280904     -0.488691916
H      -1.513859979      0.527019248     -0.188403999
H      -1.437351769     -1.547842331     -0.142481991
H       1.315535505      0.391806965     -0.454799062
H       0.868358071     -1.344684201     -0.588856379
           6
  t=        21.00000    1    1
C      -1.087688301     -0.478596496     -0.437206562
C       0.097030358     -0.419550333     -0.514507498
H      -1.497990649      0.483311302     -0.176828434
H      -1.479573890     -1.495923761     -0.127046910
H       1.308349051      0.407795663     -0.412171088
H       0.853719719     -1.313008792     -0.563493277
           6
  t=        21.50000    1    1
C      -1.105027101     -0.495517874     -0.448117977
C       0.090898627     -0.437088685     -0.540581139
H      -1.486049533      0.439140274     -0.166605992
H      -1.523132142     -1.439679364     -0.113750124
H       1.289000674      0.421470702     -0.369978314
H       0.833800955     -1.278697700     -0.539054904
           6
  t=        22.00000    1    1
C      -1.124324187     -0.512429124     -0.458458433
C       0.088625000     -0.454728304     -0.566779056
H      -1.479011695      0.397348331     -0.157226039
H      -1.568531166     -1.382553533     -0.102090223
H       1.257715605      0.432791728     -0.328975098
H       0.809925332     -1.244207123     -0.516270124
           6
  t=        22.50000    1    1
C      -1.144921004     -0.529177640     -0.468405813
C       0.089496365     -0.472184217     -0.592908789
H      -1.477752178      0.361039017     -0.147997828
H      -1.616764022     -1.328924033     -0.091306391
H       1.214504465      0.441258811     -0.290329417
H       0.784600397     -1.212976969     -0.495596202
           6
  t=        23.00000    1    1
C      -1.166117139     -0.545574602     -0.478163601
C       0.092665829     -0.489083393     -0.618790944
H      -1.482867161      0.333219104     -0.138382818
H      -1.669369240     -1.283497013     -0.080336899
H       1.159414388      0.446069190     -0.255289637
H       0.761659138     -1.189199934     -0.477098027
           6
  t=        23.50000    1    1
C      -1.187312784     -0.561433104     -0.487897455
C       0.097294369     -0.505021396     -0.644309006
H      -1.494497103      0.315680123     -0.128228882
H      -1.727930595     -1.249806007     -0.068094186
H       1.092620838      0.446496931     -0.224956857
H       0.745500741     -1.177454323     -0.460328611
           6
  t=        24.00000    1    1
C      -1.208088317     -0.576618122     -0.497672603
C       0.102670408     -0.519675898     -0.669389248
H      -1.512198460      0.308642106     -0.117855084
H      -1.793131557     -1.229316531     -0.054166681
H       1.014438651      0.441989452     -0.200350006
H       0.739529129     -1.181391730     -0.444462778
           6
  t=        24.50000    1    1
C      -1.228260143     -0.591062718     -0.507415086
C       0.108339741     -0.532933889     -0.693949918
H      -1.535078265      0.310960424     -0.108061767
H      -1.864094495     -1.221388218     -0.039230336
H       0.925341152      0.432166896     -0.182380749
H       0.744724870     -1.202272215     -0.428968004
           6
  t=        25.00000    1    1
C      -1.247844703     -0.604747888     -0.516938867
C       0.114110648     -0.544934084     -0.717852846
H      -1.562044275      0.320538739     -0.099990435
H      -1.938562839     -1.223933879     -0.024862946
H       0.826105008      0.416907215     -0.171764561
H       0.759442875     -1.238538172     -0.414272635
           6
  t=        25.50000    1    1
C      -1.266901524     -0.617699942     -0.526030513
C       0.119825469     -0.556012479     -0.740903721
H      -1.591857767      0.334628761     -0.094861845
H      -2.013568691     -1.234074581     -0.013077611
H       0.718403259      0.396633323     -0.168799965
H       0.780391425     -1.286426002     -0.401702840
           6
  t=        26.00000    1    1
C      -1.285483730     -0.629955567     -0.534512674
C       0.125291211     -0.566562841     -0.762895729
H      -1.623172161      0.350209855     -0.093792295
H      -2.086215935     -1.249088990     -0.005752428
H       0.604693902      0.372179593     -0.173461253
H       0.803802463     -1.341341664     -0.392867510
           6
  t=        26.50000    1    1
C      -1.303654713     -0.641554812     -0.542259870
C       0.130313394     -0.576935706     -0.783682296
H      -1.654666333      0.364645272     -0.097564022
H      -2.154214317     -1.266935540     -0.004344852
H       0.487667492      0.344500959     -0.185511140
H       0.826446759     -1.398990806     -0.389005952
           6
  t=        27.00000    1    1
C      -1.321475010     -0.652565288     -0.549194791
C       0.134671827     -0.587447152     -0.803227772
H      -1.685313368      0.376067684     -0.106583651
H      -2.215654079     -1.285948367     -0.009907011
H       0.369931507      0.314965880     -0.204122658
H       0.846125256     -1.455968531     -0.390832350
           6
  t=        27.50000    1    1
C      -1.338970557     -0.663081105     -0.555298909
C       0.138117733     -0.598428391     -0.821585829
H      -1.714399696      0.383233419     -0.120981934
H      -2.269133659     -1.304818814     -0.023064677
H       0.254182343      0.285745137     -0.227713806
H       0.861299798     -1.509442580     -0.398753439
           6
  t=        28.00000    1    1
C      -1.356147906     -0.673198683     -0.560606019
C       0.140434719     -0.610210410     -0.838882206
H      -1.741497736      0.385410205     -0.140733014
H      -2.313991811     -1.322809332     -0.043954295
H       0.143023889      0.259542504     -0.254144050
H       0.870934221     -1.557029167     -0.412898213
           6
  t=        28.50000    1    1
C      -1.372986411     -0.683013949     -0.565166738
C       0.141483271     -0.623026893     -0.855265753
H      -1.766388366      0.382243689     -0.165753976
H      -2.349993420     -1.339506597     -0.072397621
H       0.038149169      0.238542340     -0.281447311
H       0.874297643     -1.597044073     -0.433117102
           6
  t=        29.00000    1    1
C      -1.389521846     -0.692656406     -0.569067915
C       0.141171857     -0.636929483     -0.870797359
H      -1.788757077      0.373623160     -0.195955860
H      -2.376922627     -1.354657088     -0.107981274
H      -0.059059726      0.223946696     -0.308595307
H       0.870994552     -1.628673720     -0.459180360
           6
  t=        29.50000    1    1
C      -1.405853502     -0.702270297     -0.572443594
C       0.139450560     -0.651833566     -0.885493682
H      -1.808471031      0.359811281     -0.231123258
H      -2.394542161     -1.368178457     -0.149942876
H      -0.147153196      0.215899563     -0.335190210
H       0.860983138     -1.651696569     -0.490667861
           6
  t=        30.00000    1    1
C      -1.422027389     -0.711965659     -0.575447500
C       0.136278805     -0.667586109     -0.899366790
H      -1.825817542      0.341417993     -0.270857674
H      -2.402737503     -1.380090716     -0.197291573
H      -0.225103755      0.213412917     -0.361252336
H       0.844440462     -1.666226844     -0.526973106
           6
  t=        30.50000    1    1
C      -1.438018996     -0.721823737     -0.578242670
C       0.131598764     -0.684013070     -0.912439582
H      -1.841244223      0.319222198     -0.314649010
H      -2.401633904     -1.390498686     -0.248929891
H      -0.292262443      0.215067754     -0.386904581
H       0.821687381     -1.672625356     -0.567365242
           6
  t=        31.00000    1    1
C      -1.453737751     -0.731909073     -0.580998397
C       0.125335540     -0.700932306     -0.924754883
H      -1.855500209      0.294209948     -0.361889408
H      -2.391767016     -1.399669753     -0.303692921
H      -0.348085329      0.219448036     -0.412234205
H       0.793278012     -1.671596062     -0.611002225
           6
  t=        31.50000    1    1
C      -1.469025560     -0.742270489     -0.583887591
C       0.117395557     -0.718146748     -0.936366232
H      -1.869576934      0.267664313     -0.411928950
H      -2.374299997     -1.408237986     -0.360356264
H      -0.392057323      0.225249181     -0.437319311
H       0.760083053     -1.664249803     -0.656981992
           6
  t=        32.00000    1    1
C      -1.483662461     -0.752938870     -0.587082775
C       0.107654267     -0.735439850     -0.947318084
H      -1.884444857      0.241121030     -0.464165829
H      -2.351132483     -1.417402522     -0.417681461
H      -0.423666591      0.231470809     -0.462271112
H       0.723323841     -1.652135113     -0.704448136
           6
  t=        32.50000    1    1
C      -1.497382218     -0.763916020     -0.590733773
C       0.095949583     -0.752569150     -0.957643056
H      -1.900867843      0.216117815     -0.518133443
H      -2.324758221     -1.428852754     -0.474575377
H      -0.442511992      0.237429319     -0.487245791
H       0.684615858     -1.637284275     -0.752630320
           6
  t=        33.00000    1    1
C      -1.509901579     -0.775167152     -0.594945275
C       0.082061533     -0.769232196     -0.967368746
H      -1.919308394      0.193832759     -0.573516723
H      -2.297965250     -1.444527035     -0.530283661
H      -0.448286455      0.242686560     -0.512486463
H       0.646148538     -1.622517343     -0.800778536
           6
  t=        33.50000    1    1
C      -1.520961707     -0.786618916     -0.599773428
C       0.065708907     -0.785047820     -0.976518032
H      -1.939864758      0.174815470     -0.630071020
H      -2.273472306     -1.466363924     -0.584484210
H      -0.440713239      0.246938599     -0.538351265
H       0.610728726     -1.611557294     -0.848159771
           6
  t=        34.00000    1    1
C      -1.530382609     -0.798179942     -0.605244484
C       0.046595611     -0.799605865     -0.985089297
H      -1.962243612      0.158926255     -0.687480556
H      -2.253465871     -1.495950305     -0.637224537
H      -0.419530271      0.249925147     -0.565323058
H       0.581370930     -1.608393321     -0.894265904
           6
  t=        34.50000    1    1
C      -1.538110629     -0.809792567     -0.611388800
C       0.024486596     -0.812574869     -0.993031004
H      -1.985846340      0.145475025     -0.745256733
H      -2.239107697     -1.534017265     -0.688692661
H      -0.384430366      0.251388490     -0.593982729
H       0.560492504     -1.615983213     -0.939068957
           6
  t=        35.00000    1    1
C      -1.544219262     -0.821484679     -0.618277479
C      -0.000712584     -0.823832671     -1.000245362
H      -2.009988705      0.133521748     -0.802710560
H      -2.230229820     -1.579960062     -0.738890608
H      -0.335182785      0.251053207     -0.624890113
H       0.549011631     -1.634839559     -0.983014109
           6
  t=        35.50000    1    1
C      -1.548884986     -0.833393791     -0.626042930
C      -0.028925612     -0.833497111     -1.006618806
H      -2.034067840      0.122042824     -0.859028090
H      -2.225583685     -1.631797111     -0.787360379
H      -0.271511381      0.248684914     -0.658493766
H       0.545994261     -1.662643288     -1.026700172
           6
  t=        36.00000    1    1
C      -1.552347360     -0.845678918     -0.634848095
C      -0.059887458     -0.841878266     -1.012099007
H      -2.057646269      0.109970600     -0.913311448
H      -2.223220411     -1.686645582     -0.833262870
H      -0.193795037      0.243957966     -0.694942533
H       0.549129387     -1.695294370     -1.070397290
           6
  t=        36.50000    1    1
C      -1.554839781     -0.858473595     -0.644896050
C      -0.093245036     -0.849334699     -1.016677786
H      -2.080300013      0.096263930     -0.964599195
H      -2.221082840     -1.741448875     -0.875384811
H      -0.103098053      0.236386636     -0.734145749
H       0.555574016     -1.728458866     -1.114048497
           6
  t=        37.00000    1    1
C      -1.556651025     -0.871806439     -0.656322136
C      -0.128544444     -0.856285286     -1.020477255
H      -2.101621369      0.080069978     -1.011835273
H      -2.216990992     -1.793590751     -0.912804055
H      -0.001450268      0.226001128     -0.775606918
H       0.562802722     -1.758598173     -1.157060738
           6
  t=        37.50000    1    1
C      -1.558095859     -0.885532373     -0.669030335
C      -0.165104312     -0.863136350     -1.023707696
H      -2.120879275      0.060531322     -1.053885731
H      -2.209318121     -1.841501783     -0.946183122
H       0.107193343      0.212755202     -0.819431504
H       0.568044319     -1.783265171     -1.198438491
           6
  t=        38.00000    1    1
C      -1.559505099     -0.899570055     -0.682915203
C      -0.202178373     -0.870029484     -1.026514661
H      -2.137468348      0.037117425     -1.089970926
H      -2.197331861     -1.884179900     -0.976141310
H       0.219102413      0.195649758     -0.866068008
H       0.568741063     -1.801214331     -1.237415653
           6
  t=        38.50000    1    1
C      -1.561212315     -0.913899305     -0.697922915
C      -0.239015895     -0.876948560     -1.029027904
H      -2.151136286      0.009741478     -1.119752465
H      -2.180747518     -1.920890506     -1.002646236
H       0.330652118      0.173263855     -0.915446223
H       0.563010038     -1.812105165     -1.273528481
           6
  t=        39.00000    1    1
C      -1.563522245     -0.928517203     -0.714000367
C      -0.274897197     -0.883851688     -1.031398143
H      -2.161999844     -0.021301577     -1.143232911
H      -2.159559668     -1.951209242     -1.025441856
H       0.438286733      0.144547581     -0.966966627
H       0.549573932     -1.816140975     -1.306466841
           6
  t=        39.50000    1    1
C      -1.566718302     -0.943422811     -0.731078072
C      -0.309147036     -0.890719173     -1.033803835
H      -2.170395774     -0.055462979     -1.160551620
H      -2.133972751     -1.974982255     -1.044289774
H       0.538671934      0.109038744     -1.019732940
H       0.527639382     -1.813808047     -1.335927577
           6
  t=        40.00000    1    1
C      -1.571099298     -0.958627635     -0.749059381
C      -0.341129291     -0.897544447     -1.036444311
H      -2.176781759     -0.092034642     -1.172017130
H      -2.104406460     -1.992307620     -1.058958604
H       0.629055504      0.066780686     -1.072678883
H       0.496816684     -1.805700906     -1.361676323
           6
  t=        40.50000    1    1
C      -1.576928855     -0.974143825     -0.767794177
C      -0.370348835     -0.904347911     -1.039515272
H      -2.181840861     -0.130075813     -1.178161323
H      -2.071619182     -2.003735269     -1.069501131
H       0.707850906      0.018527339     -1.124823549
H       0.457375308     -1.792576420     -1.383566125
           6
  t=        41.00000    1    1
C      -1.584468193     -0.989989790     -0.787118136
C      -0.396361357     -0.911176111     -1.043195657
H      -2.186570151     -0.168372381     -1.179599397
H      -2.036665052     -2.010181224     -1.076046184
H       0.774377138     -0.034415258     -1.175315321
H       0.409865792     -1.775264758     -1.401530463
           6
  t=        41.50000    1    1
C      -1.593929354     -1.006185123     -0.806862099
C      -0.418786381     -0.918077548     -1.047631397
H      -2.192307452     -0.205443196     -1.177014637
H      -2.000862198     -2.012935232     -1.078861710
H       0.828575090     -0.090421601     -1.223492525
H       0.354996208     -1.754771399     -1.415556528
           6
  t=        42.00000    1    1
C      -1.605425542     -1.022739321     -0.826851384
C      -0.437349738     -0.925064097     -1.052925328
H      -2.200673446     -0.239658012     -1.171174730
H      -1.965617623     -2.013626644     -1.078447009
H       0.870657296     -0.147969433     -1.268882723
H       0.293663689     -1.732364875     -1.425705867
           6
  t=        42.50000    1    1
C      -1.618935491     -1.039624188     -0.846919856
C      -0.451928481     -0.932079632     -1.059132252
H      -2.213425556     -0.269416664     -1.162859394
H      -1.932341047     -2.014298858     -1.075482239
H       0.900776011     -0.205903303     -1.311075274
H       0.227164736     -1.709762151     -1.432255850
           6
  t=        43.00000    1    1
C      -1.634300291     -1.056736413     -0.866926154
C      -0.462613274     -0.938976608     -1.066244088
H      -2.232179386     -0.293369413     -1.152689539
H      -1.902432988     -2.017524055     -1.070787790
H       0.918944802     -0.263395627     -1.349681911
H       0.157688709     -1.689557471     -1.435934173
           6
  t=        43.50000    1    1
C      -1.651254863     -1.073885905     -0.886772758
C      -0.469735281     -0.945492084     -1.074165247
H      -2.258098696     -0.310698188     -1.140962420
H      -1.877134060     -2.026169307     -1.065293374
H       0.925001350     -0.319839023     -1.384405584
H       0.088589741     -1.675707409     -1.438111903
           6
  t=        44.00000    1    1
C      -1.669484265     -1.090825566     -0.906419066
C      -0.473794595     -0.951253946     -1.082706905
H      -2.291704018     -0.321436100     -1.127689897
H      -1.857350065     -2.042801674     -1.059868051
H       0.918675606     -0.374741201     -1.415043998
H       0.023770415     -1.673482399     -1.440844222
           6
  t=        44.50000    1    1
C      -1.688672354     -1.107297648     -0.925892338
C      -0.475361135     -0.955864564     -1.091628862
H      -2.332721020     -0.326660451     -1.112631983
H      -1.843666460     -2.068987403     -1.055067440
H       0.899800226     -0.427648924     -1.441481650
H      -0.033266887     -1.688501433     -1.446468284
           6
  t=        45.00000    1    1
C      -1.708563017     -1.123089263     -0.945271505
C      -0.474902784     -0.959084809     -1.100763016
H      -2.380020220     -0.328297690     -1.095363856
H      -1.836356366     -2.104763991     -1.050997187
H       0.868158877     -0.478180792     -1.463582547
H      -0.080638813     -1.724568019     -1.456501821
           6
  t=        45.50000    1    1
C      -1.728977815     -1.138086831     -0.964644388
C      -0.472665963     -0.961026828     -1.110131823
H      -2.431738837     -0.328708907     -1.075512340
H      -1.835456224     -2.148581731     -1.047408797
H       0.823423091     -0.526056800     -1.481091364
H      -0.119033189     -1.781167858     -1.470507783
           6
  t=        46.00000    1    1
C      -1.749795161     -1.152289198     -0.984066294
C      -0.468715350     -0.962127940     -1.119929652
H      -2.485806784     -0.330237249     -1.052982906
H      -1.841145658     -2.197853821     -1.043869231
H       0.765381687     -0.570935477     -1.493593252
H      -0.150807378     -1.853688899     -1.486453557
           6
  t=        46.50000    1    1
C      -1.770904973     -1.165796142     -1.003540777
C      -0.463169295     -0.963001860     -1.130385645
H      -2.540348493     -0.334784192     -1.028073517
H      -1.853521475     -2.249382933     -1.039962825
H       0.694838412     -0.612218212     -1.500829795
H      -0.178445408     -1.935523827     -1.501942492
           6
  t=        47.00000    1    1
C      -1.792173462     -1.178745510     -1.023033704
C      -0.456354158     -0.964294828     -1.141659229
H      -2.593672641     -0.343700687     -1.001330001
H      -1.872339653     -2.299790985     -1.035448365
H       0.613724218     -0.648978534     -1.502922477
H      -0.203518933     -2.020283342     -1.515055555
           6
  t=        47.50000    1    1
C      -1.813460874     -1.191264441     -1.042493986
C      -0.448838423     -0.966610749     -1.153784142
H      -2.644132211     -0.357990030     -0.973391541
H      -1.897158879     -2.345902859     -1.030275690
H       0.525529812     -0.679876987     -1.500706189
H      -0.226498399     -2.102767830     -1.524575578
           6
  t=        48.00000    1    1
C      -1.834626438     -1.203462830     -1.061859294
C      -0.441497852     -0.970477833     -1.166607265
H      -2.690302938     -0.378263345     -0.944978463
H      -1.927502968     -2.385207635     -1.024546791
H       0.436823757     -0.702920053     -1.496402659
H      -0.247094892     -2.179267151     -1.530025715
           6
  t=        48.50000    1    1
C      -1.855533855     -1.215424312     -1.081055193
C      -0.435559307     -0.976427234     -1.179776197
H      -2.731208621     -0.404762798     -0.916836401
H      -1.962931080     -2.415955364     -1.018456283
H       0.358580772     -0.714836959     -1.494175238
H      -0.264705392     -2.247234216     -1.531388420
           6
  t=        49.00000    1    1
C      -1.876093879     -1.227222223     -1.099979441
C      -0.432572670     -0.985106856     -1.192755002
H      -2.766203321     -0.437392241     -0.889757762
H      -2.002924469     -2.436793495     -1.012310950
H       0.306231780     -0.710446494     -1.500358663
H      -0.278521040     -2.304704911     -1.528834076
           6
  t=        49.50000    1    1
C      -1.896256431     -1.238918100     -1.118532959
C      -0.433656816     -0.997057738     -1.205082500
H      -2.794953140     -0.475644191     -0.864444984
H      -2.046645115     -2.446935862     -1.006571862
H       0.290653705     -0.685081982     -1.520220657
H      -0.287855235     -2.350459430     -1.522607309
           6
  t=        50.00000    1    1
C      -1.915997297     -1.250539529     -1.136641466
C      -0.438833713     -1.012429477     -1.216697236
H      -2.817361025     -0.518772232     -0.841457439
H      -2.092923652     -2.446390002     -1.001701873
H       0.310381708     -0.637981461     -1.554097094
H      -0.292536344     -2.383887386     -1.512967413
           6
  t=        50.50000    1    1
C      -1.935313959     -1.262105779     -1.154258140
C      -0.447061742     -1.030857529     -1.228003191
H      -2.833425784     -0.565824084     -0.821207783
H      -2.140467258     -2.435896257     -0.998113385
H       0.352174077     -0.574224794     -1.596815795
H      -0.293058265     -2.404235025     -1.500005728
           6
  t=        51.00000    1    1
C      -1.954219947     -1.273643300     -1.171340997
C      -0.457051924     -1.051731699     -1.239523068
H      -2.843284131     -0.615583428     -0.804113655
H      -2.188194623     -2.416526588     -0.996115699
H       0.400466157     -0.501703897     -1.641750087
H      -0.289998753     -2.410710495     -1.483893873
           6
  t=        51.50000    1    1
C      -1.972748895     -1.285161238     -1.187838481
C      -0.467961513     -1.074625428     -1.251591920
H      -2.847397025     -0.666764994     -0.790633895
H      -2.235425142     -2.389357325     -0.995811150
H       0.445520793     -0.426441157     -1.684571236
H      -0.283481437     -2.402474131     -1.465021372
           6
  t=        52.00000    1    1
C      -1.990879961     -1.296631083     -1.203700732
C      -0.479373151     -1.099318041     -1.264369477
H      -2.846891499     -0.718044161     -0.781401417
H      -2.281570407     -2.355906552     -0.996748741
H       0.482914073     -0.352180182     -1.722923899
H      -0.273765214     -2.378558050     -1.444252478
           6
  t=        52.50000    1    1
C      -2.008439903     -1.307989355     -1.218934123
C      -0.491111133     -1.125492592     -1.277892089
H      -2.843805265     -0.767324992     -0.777014509
H      -2.325625695     -2.319271547     -0.997837040
H       0.510501365     -0.281833882     -1.755214960
H      -0.261830400     -2.339581029     -1.423164349
           6
  t=        53.00000    1    1
C      -2.025114001     -1.319089353     -1.233709685
C      -0.503129875     -1.152510545     -1.292067405
H      -2.839949478     -0.812744324     -0.776899834
H      -2.367313700     -2.283475330     -0.998237191
H       0.525976682     -0.218645047     -1.780604588
H      -0.248130430     -2.289497063     -1.403071507
           6
  t=        53.50000    1    1
C      -2.040633262     -1.329738761     -1.248258170
C      -0.515494837     -1.179818692     -1.306767373
H      -2.836901861     -0.852712024     -0.779624174
H      -2.407238670     -2.252443436     -0.997515161
H       0.528321220     -0.164524289     -1.799184504
H      -0.231889777     -2.232943559     -1.384525735
           6
  t=        54.00000    1    1
C      -2.054761062     -1.339787705     -1.262793375
C      -0.528351219     -1.206886940     -1.321872683
H      -2.836294158     -0.885639825     -0.783605833
H      -2.446332026     -2.229644212     -0.995378481
H       0.517576728     -0.120225273     -1.811455822
H      -0.211676376     -2.175389050     -1.367774199
           6
  t=        54.50000    1    1
C      -2.067326340     -1.349198104     -1.277468246
C      -0.541885168     -1.233017859     -1.337289556
H      -2.839586607     -0.909953156     -0.787543150
H      -2.485313221     -2.217594936     -0.991757092
H       0.493975697     -0.086310417     -1.817908980
H      -0.185363288     -2.124092484     -1.352993201
           6
  t=        55.00000    1    1
C      -2.078253363     -1.358041229     -1.292351576
C      -0.556354701     -1.257461061     -1.352954611
H      -2.847646021     -0.924562525     -0.790890840
H      -2.524359513     -2.217158137     -0.986643744
H       0.457739354     -0.063285094     -1.818883221
H      -0.149955616     -2.086867616     -1.340331501
           6
  t=        55.50000    1    1
C      -2.087562309     -1.366477649     -1.307409838
C      -0.572045839     -1.279664061     -1.368827495
H      -2.860503743     -0.929010783     -0.793991731
H      -2.563139113     -2.227593901     -0.980255640
H       0.409140065     -0.051550741     -1.814674236
H      -0.102377624     -2.069180004     -1.329813733
           6
  t=        56.00000    1    1
C      -2.095386163     -1.374740547     -1.322503796
C      -0.589063457     -1.299534648     -1.384870686
H      -2.877292460     -0.923534778     -0.798032178
H      -2.600991513     -2.247069170     -0.973056651
H       0.348962116     -0.051054168     -1.805672803
H      -0.042107129     -2.070999271     -1.321505077
           6
  t=        56.50000    1    1
C      -2.101993497     -1.383087980     -1.337409901
C      -0.607200921     -1.317406839     -1.401040193
H      -2.896388456     -0.908781799     -0.804631305
H      -2.636949330     -2.273430660     -0.965885656
H       0.278584329     -0.061166400     -1.792404395
H       0.027623935     -2.087405436     -1.315609968
           6
  t=        57.00000    1    1
C      -2.107715696     -1.391729833     -1.351913318
C      -0.626086976     -1.333806579     -1.417286613
H      -2.915843756     -0.885672453     -0.815353972
H      -2.670012974     -2.304633123     -0.959475214
H       0.199722262     -0.080806145     -1.775315151
H       0.101677422     -2.111836509     -1.312533451
           6
  t=        57.50000    1    1
C      -2.112888565     -1.400823851     -1.365827414
C      -0.645289342     -1.349195323     -1.433597953
H      -2.933586028     -0.855373708     -0.831357992
H      -2.698866691     -2.338470817     -0.954722521
H       0.113378697     -0.109337870     -1.754577179
H       0.174512858     -2.138588629     -1.312415142
           6
  t=        58.00000    1    1
C      -2.117808836     -1.410477907     -1.378995417
C      -0.664395352     -1.363860529     -1.449979929
H      -2.947664911     -0.819445226     -0.853565787
H      -2.722148923     -2.372552690     -0.952496760
H       0.019754544     -0.146697957     -1.730193850
H       0.241236007     -2.163846159     -1.315259999
           6
  t=        58.50000    1    1
C      -2.122716928     -1.420779139     -1.391277274
C      -0.683126900     -1.377895628     -1.466437433
H      -2.956344646     -0.779739185     -0.882544601
H      -2.738776040     -2.404528125     -0.953822158
H      -0.081007428     -0.193298806     -1.702365332
H       0.298435610     -2.185543527     -1.320886932
           6
  t=        59.00000    1    1
C      -2.127796827     -1.431800618     -1.402573840
C      -0.701371865     -1.391299893     -1.482934288
H      -2.958264194     -0.738063625     -0.918354620
H      -2.748232385     -2.432552798     -0.959772592
H      -0.188021114     -0.249398717     -1.671807328
H       0.344205199     -2.202596705     -1.329058628
           6
  t=        59.50000    1    1
C      -2.133180042     -1.443579687     -1.412860745
C      -0.719115119     -1.404137986     -1.499388651
H      -2.952678694     -0.695995449     -0.960819572
H      -2.750632771     -2.455527443     -0.970822355
H      -0.299424583     -0.313974499     -1.639484793
H       0.377439550     -2.214335785     -1.339777696
           6
  t=        60.00000    1    1
C      -2.138949770     -1.456136349     -1.422157920
C      -0.736412122     -1.416604092     -1.515698010
H      -2.939236028     -0.655003812     -1.009601049
H      -2.746455526     -2.472704717     -0.987096017
H      -0.412599956     -0.384285918     -1.606498839
H       0.397299192     -2.220226982     -1.353140890
           6
  t=        60.50000    1    1
C      -2.145138712     -1.469483823     -1.430516494
C      -0.753382306     -1.429125154     -1.531759543
H      -2.917842986     -0.616488606     -1.064130400
H      -2.736463190     -2.483544695     -1.008552085
H      -0.524223381     -0.454790638     -1.574033449
H       0.402942368     -2.219707854     -1.369190311
           6
  t=        61.00000    1    1
C      -2.151752595     -1.483635947     -1.438021909
C      -0.770182412     -1.442418492     -1.547500945
H      -2.888699528     -0.581662319     -1.123650941
H      -2.721617038     -2.487914166     -1.034914200
H      -0.630387436     -0.516209189     -1.542986823
H       0.393558820     -2.212266335     -1.387904280
           6
  t=        61.50000    1    1
C      -2.158804463     -1.498627701     -1.444775728
C      -0.786920950     -1.457378761     -1.562915629
H      -2.852335961     -0.551612887     -1.187363500
H      -2.703066449     -2.486156964     -1.065731755
H      -0.727176315     -0.556378219     -1.513496033
H       0.368360796     -2.197556792     -1.409263796
           6
  t=        62.00000    1    1
C      -2.166234352     -1.514460029     -1.450887511
C      -0.803540792     -1.474599104     -1.578098003
H      -2.809651236     -0.527229553     -1.254396390
H      -2.682465399     -2.479116363     -1.100454937
H      -0.813152105     -0.566435953     -1.484703083
H       0.327068094     -2.175629537     -1.433117925
           6
  t=        62.50000    1    1
C      -2.173978346     -1.531092149     -1.456475743
C      -0.819898313     -1.493766935     -1.593157217
H      -2.762259656     -0.508925389     -1.323798671
H      -2.661902766     -2.468397445     -1.138378862
H      -0.888203360     -0.547613564     -1.455933797
H       0.270799473     -2.147445863     -1.459084264
           6
  t=        63.00000    1    1
C      -2.181934688     -1.548341968     -1.461707267
C      -0.835971801     -1.513895604     -1.608100513
H      -2.711782757     -0.497198083     -1.394840379
H      -2.643445645     -2.456340760     -1.178338839
H      -0.952284497     -0.509315646     -1.427397936
H       0.201726760     -2.114689293     -1.486773337
           6
  t=        63.50000    1    1
C      -2.189919285     -1.565870705     -1.466808486
C      -0.851925796     -1.533952848     -1.622841683
H      -2.659764545     -0.492587219     -1.466790962
H      -2.629350303     -2.446207441     -1.218809634
H      -1.004973915     -0.462084495     -1.400067027
H       0.122995621     -2.079353731     -1.515798924
           6
  t=        64.00000    1    1
C      -2.197714536     -1.583260697     -1.472015900
C      -0.868070939     -1.553114996     -1.637290080
H      -2.608505577     -0.495392328     -1.538855668
H      -2.622089327     -2.442114170     -1.258287722
H      -1.045052258     -0.413590059     -1.375073033
H       0.039268485     -2.044144338     -1.545589384
           6
  t=        64.50000    1    1
C      -2.205114645     -1.600102507     -1.477533242
C      -0.884920231     -1.570671480     -1.651396466
H      -2.560201001     -0.505824986     -1.610395369
H      -2.623957982     -2.448252961     -1.295593057
H      -1.071568613     -0.368568543     -1.353209621
H      -0.042254589     -2.013266941     -1.575329303
           6
  t=        65.00000    1    1
C      -2.211967344     -1.616114594     -1.483506130
C      -0.903299354     -1.585832006     -1.665133833
H      -2.516680776     -0.524247093     -1.680874739
H      -2.636744680     -2.467672770     -1.330208512
H      -1.083760717     -0.330114134     -1.335134293
H      -0.110693306     -1.992988143     -1.604000308
           6
  t=        65.50000    1    1
C      -2.218292773     -1.631236495     -1.490003452
C      -0.924064495     -1.597925496     -1.678491272
H      -2.479394265     -0.550767918     -1.749745816
H      -2.660841783     -2.500688350     -1.362422137
H      -1.081832876     -0.299789449     -1.321239631
H      -0.153559613     -1.990038109     -1.630778890
           6
  t=        66.00000    1    1
C      -2.224324985     -1.645672423     -1.497018847
C      -0.947478895     -1.606699626     -1.691424513
H      -2.449601724     -0.584888933     -1.816556898
H      -2.694822367     -2.544502651     -1.393125370
H      -1.066792133     -0.277975839     -1.311678858
H      -0.164087557     -2.007904317     -1.655675405
           6
  t=        66.50000    1    1
C      -2.230427804     -1.659771372     -1.504511702
C      -0.972907711     -1.612415101     -1.703860342
H      -2.428202674     -0.625625164     -1.880926476
H      -2.735889211     -2.594470337     -1.423287135
H      -1.040308243     -0.264860001     -1.306574923
H      -0.145734423     -2.044765428     -1.679335784
           6
  t=        67.00000    1    1
C      -2.237038524     -1.673888528     -1.512452993
C      -0.999053767     -1.615680947     -1.715730268
H      -2.415713164     -0.671784574     -1.942447357
H      -2.780711913     -2.645614705     -1.453528662
H      -1.004408619     -0.261157460     -1.306199025
H      -0.109533240     -2.094585419     -1.702436759
           6
  t=        67.50000    1    1
C      -2.244623096     -1.688350086     -1.520830101
C      -1.024555313     -1.617163395     -1.727002994
H      -2.412181269     -0.721984013     -2.000678351
H      -2.826090099     -2.693602428     -1.484100685
H      -0.961224512     -0.267511733     -1.310938044
H      -0.067179133     -2.150611808     -1.725305182
           6
  t=        68.00000    1    1
C      -2.253625749     -1.703453255     -1.529636458
C      -1.048327278     -1.617354106     -1.737672930
H      -2.417394540     -0.774662017     -2.055332792
H      -2.869604380     -2.735423697     -1.514962633
H      -0.912594471     -0.284180608     -1.321214590
H      -0.027101412     -2.207758188     -1.747990581
           6
  t=        68.50000    1    1
C      -2.264452034     -1.719454462     -1.538838733
C      -1.069552326     -1.616554678     -1.747756860
H      -2.431227157     -0.828099885     -2.106582092
H      -2.909635446     -2.769293590     -1.545919500
H      -0.860165931     -0.311108544     -1.337303300
H       0.005695502     -2.262934458     -1.770439060
           6
  t=        69.00000    1    1
C      -2.277387336     -1.736526490     -1.548378682
C      -1.087666687     -1.614967369     -1.757291968
H      -2.453839848     -0.880536702     -2.155057782
H      -2.945093860     -2.794386964     -1.576712367
H      -0.805598940     -0.348102494     -1.359235289
H       0.028625829     -2.314450855     -1.792497854
           6
  t=        69.50000    1    1
C      -2.292543023     -1.754748989     -1.558206193
C      -1.102353428     -1.612768106     -1.766313854
H      -2.484963737     -0.930346403     -2.201274286
H      -2.975245669     -2.810542977     -1.607096426
H      -0.750985342     -0.394980111     -1.387136009
H       0.040329103     -2.361231280     -1.813944785
           6
  t=        70.00000    1    1
C      -2.309863090     -1.774114879     -1.568313658
C      -1.113538399     -1.610126879     -1.774846081
H      -2.524008310     -0.976566070     -2.245474596
H      -2.999636632     -2.818019797     -1.636844511
H      -0.698231254     -0.451314806     -1.421042109
H       0.040115837     -2.402465878     -1.834537282
           6
  t=        70.50000    1    1
C      -2.329169300     -1.794539090     -1.578763733
C      -1.121351275     -1.607224797     -1.782906212
H      -2.570388090     -1.019029325     -2.287515618
H      -3.017979475     -2.817323834     -1.665671292
H      -0.648630771     -0.516136908     -1.460686986
H       0.027828707     -2.437639899     -1.854014509
           6
  t=        71.00000    1    1
C      -2.350188110     -1.815858971     -1.589690273
C      -1.126082732     -1.604287605     -1.790514436
H      -2.623441467     -1.058061656     -2.326777976
H      -3.030160595     -2.809273077     -1.693189579
H      -0.602986058     -0.587759767     -1.505510290
H       0.003698805     -2.466544756     -1.872107847
           6
  t=        71.50000    1    1
C      -2.372577282     -1.837831050     -1.601266378
C      -1.128151929     -1.601611185     -1.797704378
H      -2.682301899     -1.094179919     -2.362313837
H      -3.036345052     -2.795201204     -1.718956924
H      -0.561613867     -0.663645156     -1.554681341
H      -0.031742001     -2.489243606     -1.888574983
           6
  t=        72.00000    1    1
C      -2.395966815     -1.860137996     -1.613662125
C      -1.128058704     -1.599573241     -1.804525133
H      -2.745936172     -1.127867515     -2.393138605
H      -3.037060667     -2.777102097     -1.742556476
H      -0.524180931     -0.740366960     -1.607159340
H      -0.077785307     -2.505965896     -1.903246575
           6
  t=        72.50000    1    1
C      -2.419960619     -1.882377931     -1.627011369
C      -1.126378063     -1.598638671     -1.811035532
H      -2.813448706     -1.159542533     -2.418465278
H      -3.033377732     -2.757802545     -1.763757067
H      -0.489305870     -0.813517728     -1.661757414
H      -0.133505864     -2.517123279     -1.916031685
           6
  t=        73.00000    1    1
C      -2.444140966     -1.904069848     -1.641397938
C      -1.123748924     -1.599303366     -1.817298772
H      -2.884000975     -1.189607002     -2.437664583
H      -3.027025678     -2.741093032     -1.782607972
H      -0.454415126     -0.878357377     -1.717421460
H      -0.197950689     -2.523085984     -1.926812543
           6
  t=        73.50000    1    1
C      -2.468067594     -1.924668018     -1.656856632
C      -1.120844593     -1.601984025     -1.823380266
H      -2.956352946     -1.218440799     -2.450093677
H      -3.020397779     -2.731756458     -1.799406407
H      -0.416522027     -0.930955836     -1.773518837
H      -0.270176333     -2.524158767     -1.935373262
           6
  t=        74.00000    1    1
C      -2.491309522     -1.943615439     -1.673383480
C      -1.118224249     -1.606899281     -1.829312501
H      -3.029374651     -1.246303822     -2.455257431
H      -3.016138877     -2.734924544     -1.814642584
H      -0.373800944     -0.969057264     -1.829948390
H      -0.348966020     -2.521237760     -1.941480151
           6
  t=        74.50000    1    1
C      -2.513530480     -1.960450298     -1.690951729
C      -1.116211249     -1.613993210     -1.835101178
H      -3.102328681     -1.273405907     -2.452927788
H      -3.016244747     -2.754795722     -1.828810910
H      -0.326720350     -0.992805243     -1.886889246
H      -0.432746735     -2.515940285     -1.944938580
           6
  t=        75.00000    1    1
C      -2.534587317     -1.974935883     -1.709542327
C      -1.114934414     -1.622961613     -1.840771184
H      -3.174515081     -1.299960295     -2.443003672
H      -3.021136644     -2.793135195     -1.842074640
H      -0.277886543     -1.004363775     -1.944347106
H      -0.519361659     -2.510569216     -1.945611161
           6
  t=        75.50000    1    1
C      -2.554553755     -1.987130153     -1.729159498
C      -1.114481415     -1.633321163     -1.846380136
H      -3.245150359     -1.326163862     -2.425467640
H      -3.029372632     -2.848402221     -1.854114731
H      -0.230772316     -1.006771272     -2.001918569
H      -0.605640295     -2.508498570     -1.943500856
           6
  t=        76.00000    1    1
C      -2.573617163     -1.997340195     -1.749804664
C      -1.114998853     -1.644453878     -1.851998642
H      -3.313571831     -1.352186208     -2.400528298
H      -3.038276155     -2.916225755     -1.864390485
H      -0.188677253     -1.003222606     -2.058858858
H      -0.687642856     -2.514439431     -1.938826287
           6
  t=        76.50000    1    1
C      -2.591942384     -2.005981969     -1.771447815
C      -1.116662514     -1.655713564     -1.857699164
H      -3.379324212     -1.378169247     -2.368681773
H      -3.045035475     -2.990981769     -1.872478249
H      -0.154410424     -0.996706409     -2.114236768
H      -0.761768453     -2.533628664     -1.931940332
           6
  t=        77.00000    1    1
C      -2.609625425     -2.013465009     -1.794014310
C      -1.119582361     -1.666605780     -1.863561999
H      -3.442021410     -1.404169885     -2.330689691
H      -3.047552441     -3.067297897     -1.878202931
H      -0.130185236     -0.989748230     -2.167104181
H      -0.825833637     -2.569867930     -1.923137182
           6
  t=        77.50000    1    1
C      -2.626702240     -2.020133995     -1.817409909
C      -1.123741287     -1.676981781     -1.869681228
H      -3.501280096     -1.430090119     -2.287398304
H      -3.044676312     -3.140875878     -1.881560103
H      -0.117657828     -0.984330848     -2.216590927
H      -0.879491793     -2.623236013     -1.912447058
           6
  t=        78.00000    1    1
C      -2.643158955     -2.026271337     -1.841544566
C      -1.129040856     -1.687078249     -1.876150172
H      -3.556722612     -1.455753174     -2.239554569
H      -3.036016568     -3.208474746     -1.882681900
H      -0.117959694     -0.982023408     -2.261953963
H      -0.923717826     -2.689396150     -1.899694920
           6
  t=        78.50000    1    1
C      -2.658966318     -2.032112311     -1.866334417
C      -1.135377337     -1.697345372     -1.883035325
H      -3.607946289     -1.481064412     -2.187762980
H      -3.021672739     -3.267631879     -1.881831425
H      -0.131557393     -0.983796264     -2.302654187
H      -0.959932930     -2.761767496     -1.884759219
           6
  t=        79.00000    1    1
C      -2.674094360     -2.037858416     -1.891706219
C      -1.142687511     -1.708240769     -1.890380248
H      -3.654462851     -1.506034573     -2.132466872
H      -3.001990575     -3.316338183     -1.879332510
H      -0.158498094     -0.990134318     -2.338247658
H      -0.989342812     -2.834009681     -1.867670426
           6
  t=        79.50000    1    1
C      -2.688521176     -2.043688968     -1.917607773
C      -1.150948414     -1.720134178     -1.898220153
H      -3.695735827     -1.530702164     -2.073913386
H      -2.977580790     -3.353024750     -1.875460109
H      -0.198443428     -1.001187837     -2.368257713
H      -1.012746303     -2.900960478     -1.848585515
           6
  t=        80.00000    1    1
C      -2.702281407     -2.049793405     -1.943970939
C      -1.160143899     -1.733318817     -1.906587928
H      -3.731190270     -1.555041815     -2.012451291
H      -2.949538028     -3.376435012     -1.870386740
H      -0.250538244     -1.016811119     -2.392144375
H      -1.030258433     -2.958296344     -1.827943231
           6
  t=        80.50000    1    1
C      -2.715508717     -2.056382664     -1.970539198
C      -1.170244385     -1.747986191     -1.915467832
H      -3.760364127     -1.578824961     -1.949653251
H      -2.919411371     -3.385804812     -1.864654234
H      -0.313061540     -1.036601119     -2.409948868
H      -1.041272986     -3.002617705     -1.806832013
           6
  t=        81.00000    1    1
C      -2.728301639     -2.063579085     -1.996968726
C      -1.181284802     -1.764191527     -1.924786505
H      -3.783031052     -1.601746922     -1.887626986
H      -2.888362865     -3.381378965     -1.859175556
H      -0.383784813     -1.059945648     -2.422465903
H      -1.045492463     -3.032480764     -1.786407488
           6
  t=        81.50000    1    1
C      -2.740649079     -2.071412242     -2.023016321
C      -1.193401189     -1.781931165     -1.934454402
H      -3.799030758     -1.623633148     -1.827827977
H      -2.857067750     -3.363912365     -1.854727064
H      -0.460456245     -1.085980158     -2.430683908
H      -1.043164900     -3.047860943     -1.767414319
           6
  t=        82.00000    1    1
C      -2.752509312     -2.079891151     -2.048504165
C      -1.206775989     -1.801236987     -1.944378597
H      -3.808204574     -1.644437218     -1.771293834
H      -2.826225021     -3.334191594     -1.851870960
H      -0.540505006     -1.113267486     -2.435701037
H      -1.034644093     -3.048967924     -1.750380605
           6
  t=        82.50000    1    1
C      -2.763841066     -2.088992559     -2.073284012
C      -1.221631026     -1.822190012     -1.954432235
H      -3.810480398     -1.664238169     -1.718892985
H      -2.796641805     -3.293332079     -1.851011127
H      -0.620662202     -1.139441516     -2.439122009
H      -1.020312484     -3.036285039     -1.735707344
           6
  t=        83.00000    1    1
C      -2.774591631     -2.098633252     -2.097239882
C      -1.238210288     -1.844882083     -1.964447501
H      -3.805879430     -1.683247146     -1.671384019
H      -2.769296911     -3.243241523     -1.852274289
H      -0.697181073     -1.161212079     -2.443142164
H      -1.000637616     -3.010880794     -1.723695486
           6
  t=        83.50000    1    1
C      -2.784698256     -2.108659276     -2.120282297
C      -1.256711658     -1.869353650     -1.974253874
H      -3.794537050     -1.701652875     -1.629511488
H      -2.745287558     -3.186975225     -1.855443569
H      -0.766688661     -1.175005337     -2.450121295
H      -0.976149683     -2.974437451     -1.714555636
           6
  t=        84.00000    1    1
C      -2.794102434     -2.118831020     -2.142353297
C      -1.277214648     -1.895480908     -1.983759796
H      -3.776730213     -1.719436607     -1.593989266
H      -2.725505522     -3.129067756     -1.859924912
H      -0.827180536     -1.178198603     -2.461724866
H      -0.947434075     -2.929392251     -1.708284140
           6
  t=        84.50000    1    1
C      -2.802760142     -2.128803934     -2.163456800
C      -1.299665241     -1.922858481     -1.993041881
H      -3.752845436     -1.736331433     -1.565353534
H      -2.710428890     -3.075712126     -1.864595318
H      -0.878574004     -1.170366800     -2.478037572
H      -0.914877099     -2.879180042     -1.704423472
           6
  t=        85.00000    1    1
C      -2.810652848     -2.138144649     -2.183680424
C      -1.323910632     -1.950776040     -2.002376914
H      -3.723363747     -1.751945876     -1.543890905
H      -2.700393968     -3.034552555     -1.867572542
H      -0.922318448     -1.153534852     -2.497373031
H      -0.878253635     -2.828151081     -1.701913584
           6
  t=        85.50000    1    1
C      -2.817785198     -2.146476085     -2.203160217
C      -1.349777267     -1.978373010     -2.012164664
H      -3.688992678     -1.765802944     -1.529603970
H      -2.695617133     -3.012758247     -1.866643800
H      -0.960418506     -1.131194669     -2.517121426
H      -0.836647779     -2.780868738     -1.699189853
           6
  t=        86.00000    1    1
C      -2.824150589     -2.153698054     -2.221998091
C      -1.377091401     -2.004893281     -2.022771318
H      -3.650790879     -1.777329396     -1.522201175
H      -2.696370199     -3.014213999     -1.860299659
H      -0.994620952     -1.106893980     -2.534912495
H      -0.789131291     -2.740677101     -1.694845811
           6
  t=        86.50000    1    1
C      -2.829686317     -2.160115433     -2.240155626
C      -1.405605671     -2.029825737     -2.034442223
H      -3.610238029     -1.785806975     -1.521238763
H      -2.703426969     -3.038201497     -1.848691267
H      -1.026049792     -1.083504509     -2.549044522
H      -0.736021301     -2.708598493     -1.688410105
           6
  t=        87.00000    1    1
C      -2.834330723     -2.166297259     -2.257504681
C      -1.434949612     -2.052975190     -2.047242903
H      -3.569086668     -1.790538922     -1.526006288
H      -2.717450603     -3.080075394     -1.833569747
H      -1.055503887     -1.063048508     -2.558612739
H      -0.679252324     -2.683498102     -1.680492953
           6
  t=        87.50000    1    1
C      -2.838055791     -2.172860863     -2.273898488
C      -1.464671414     -2.074366161     -2.061099501
H      -3.529044664     -1.790829687     -1.535581947
H      -2.738764344     -3.133796876     -1.817499371
H      -1.083627612     -1.046845945     -2.563311366
H      -0.621866324     -2.663142230     -1.672386552
           6
  t=        88.00000    1    1
C      -2.840905409     -2.180347012     -2.289245893
C      -1.494286388     -2.094111798     -2.075860683
H      -3.491540377     -1.785976986     -1.548886029
H      -2.767209611     -3.193691183     -1.802927136
H      -1.110972934     -1.035650146     -2.563164420
H      -0.567293983     -2.645362743     -1.665589040
           6
  t=        88.50000    1    1
C      -2.843013621     -2.189167956     -2.303537937
C      -1.523315617     -2.112313302     -2.091355261
H      -3.457689289     -1.775306929     -1.564816920
H      -2.802211658     -3.255335841     -1.791629785
H      -1.138020928     -1.029871294     -2.558306536
H      -0.518622890     -2.628727725     -1.661437181
           6
  t=        89.00000    1    1
C      -2.844598335     -2.199614786     -2.316827021
C      -1.551293823     -2.129048676     -2.107411160
H      -3.428391077     -1.758226032     -1.582382623
H      -2.842816104     -3.315467690     -1.784733565
H      -1.165187433     -1.029681045     -2.548944108
H      -0.478439489     -2.612524144     -1.661016358
           6
  t=        89.50000    1    1
C      -2.845955637     -2.211867481     -2.329182234
C      -1.577792396     -2.144377537     -2.123873079
H      -3.404201184     -1.734380964     -1.600920593
H      -2.887989376     -3.371830756     -1.782915056
H      -1.192763482     -1.034984007     -2.535425105
H      -0.448509993     -2.596601769     -1.664991835
           6
  t=        90.00000    1    1
C      -2.847461870     -2.226024740     -2.340647465
C      -1.602401753     -2.158324614     -2.140613197
H      -3.385195965     -1.703785771     -1.620370072
H      -2.936880108     -3.422962481     -1.786529438
H      -1.220933083     -1.045500997     -2.518150286
H      -0.429821483     -2.581217555     -1.673668527
           6
  t=        90.50000    1    1
C      -2.849561047     -2.242112740     -2.351232692
C      -1.624710452     -2.170895117     -2.157514070
H      -3.370948252     -1.666993091     -1.641317523
H      -2.988736139     -3.467836821     -1.795711677
H      -1.249870589     -1.060875200     -2.497538579
H      -0.422990821     -2.566827712     -1.687186624
           6
  t=        91.00000    1    1
C      -2.852721754     -2.260088813     -2.360917144
C      -1.644318992     -2.182095392     -2.174459432
H      -3.360694969     -1.625133575     -1.664848291
H      -3.042887065     -3.505675744     -1.810466302
H      -1.279772073     -1.080687423     -2.474035675
H      -0.428432229     -2.553931633     -1.705643443
           6
  t=        91.50000    1    1
C      -2.857387902     -2.279866484     -2.369659379
C      -1.660879752     -2.191946643     -2.191339012
H      -3.353542512     -1.579820582     -1.692227910
H      -3.098784476     -3.535774040     -1.830780725
H      -1.310760504     -1.104351810     -2.448148094
H      -0.446317393     -2.542984771     -1.729087275
           6
  t=        92.00000    1    1
C      -2.863951488     -2.301349928     -2.377413027
C      -1.674128779     -2.200506103     -2.208052615
H      -3.348675886     -1.532971760     -1.724577699
H      -3.155855517     -3.557212177     -1.856720287
H      -1.342767330     -1.130939434     -2.420459223
H      -0.476576987     -2.534377775     -1.757494493
           6
  t=        92.50000    1    1
C      -2.872712166     -2.324437164     -2.384136691
C      -1.683934999     -2.207887930     -2.224516201
H      -3.345479020     -1.486690629     -1.762761746
H      -3.213371506     -3.568814892     -1.888382956
H      -1.375492753     -1.158996539     -2.391603131
H      -0.518846794     -2.528491078     -1.790763636
           6
  t=        93.00000    1    1
C      -2.883812503     -2.348988044     -2.389804465
C      -1.690368120     -2.214272885     -2.240671588
H      -3.343571640     -1.443038293     -1.807393008
H      -3.270489187     -3.569613639     -1.925745345
H      -1.408499642     -1.186495781     -2.362180921
H      -0.572258120     -2.525775492     -1.828706003
           6
  t=        93.50000    1    1
C      -2.897253324     -2.374824336     -2.394393783
C      -1.693676189     -2.219874247     -2.256497209
H      -3.342752185     -1.403924985     -1.858873770
H      -3.326393647     -3.559079076     -1.968736630
H      -1.441393558     -1.210899864     -2.332800095
H      -0.635256354     -2.526969837     -1.870908508
           6
  t=        94.00000    1    1
C      -2.912895419     -2.401691779     -2.397922878
C      -1.694347402     -2.224921487     -2.272024969
H      -3.343011761     -1.371133541     -1.917224409
H      -3.380355342     -3.537380610     -2.017078930
H      -1.473759443     -1.229422812     -2.304041066
H      -0.704836613     -2.533203250     -1.916450821
           6
  t=        94.50000    1    1
C      -2.930499414     -2.429264052     -2.400448348
C      -1.693088327     -2.229590953     -2.287353785
H      -3.344600225     -1.346383967     -1.982142693
H      -3.431815484     -3.505370105     -2.070293314
H      -1.505031908     -1.239712929     -2.276312321
H      -0.776306275     -2.546042563     -1.963852535
           6
  t=        95.00000    1    1
C      -2.949700983     -2.457116754     -2.402087864
C      -1.690849284     -2.233942672     -2.302645487
H      -3.347943867     -1.331222697     -2.053125351
H      -3.480533098     -3.464838500     -2.127491294
H      -1.534685143     -1.240570082     -2.249627819
H      -0.843023328     -2.567692301     -2.011161014
           6
  t=        95.50000    1    1
C      -2.970058810     -2.484728211     -2.403006044
C      -1.688728088     -2.237848883     -2.318105802
H      -3.353556179     -1.327056299     -2.129493238
H      -3.526812150     -3.418516335     -2.187516967
H      -1.562449646     -1.232477058     -2.223829229
H      -0.896617195     -2.601271038     -2.055956728
           6
  t=        96.00000    1    1
C      -2.991077421     -2.511490212     -2.403404492
C      -1.687765830     -2.241032773     -2.333908810
H      -3.362046898     -1.334996899     -2.210319776
H      -3.571813069     -3.370207636     -2.249120903
H      -1.588198006     -1.217467351     -2.198868993
H      -0.928943704     -2.650374779     -2.095986702
           6
  t=        96.50000    1    1
C      -3.012194634     -2.536744748     -2.403496074
C      -1.688550748     -2.243279951     -2.350054989
H      -3.373975274     -1.355564337     -2.294508737
H      -3.617980707     -3.325049551     -2.311200123
H      -1.611720804     -1.198336937     -2.174905777
H      -0.936897693     -2.716945781     -2.130749376
           6
  t=        97.00000    1    1
C      -3.032831901     -2.559880499     -2.403467307
C      -1.691021086     -2.244660380     -2.366341634
H      -3.389743234     -1.388622914     -2.380903030
H      -3.668893464     -3.288738472     -2.373162818
H      -1.632651013     -1.177887050     -2.152232995
H      -0.924495554     -2.799072781     -2.161893070
           6
  t=        97.50000    1    1
C      -3.052570068     -2.580496767     -2.403439810
C      -1.694657459     -2.245538178     -2.382468900
H      -3.409610983     -1.433781788     -2.468387180
H      -3.727828949     -3.265335971     -2.435283603
H      -1.650323952     -1.158729955     -2.131226629
H      -0.900047464     -2.890908641     -2.192006390
           6
  t=        98.00000    1    1
C      -3.071305394     -2.598530061     -2.403497149
C      -1.698888241     -2.246362644     -2.398195475
H      -3.433543940     -1.490490672     -2.555581682
H      -3.795662065     -3.255609480     -2.498467763
H      -1.663870952     -1.143291320     -2.112485040
H      -0.871629193     -2.985213373     -2.222844830
           6
  t=        98.50000    1    1
C      -3.089186799     -2.614302156     -2.403777017
C      -1.703338050     -2.247566304     -2.413427399
H      -3.461263797     -1.556350198     -2.640498155
H      -3.869756836     -3.257425112     -2.563207823
H      -1.673228869     -1.133017565     -2.096769848
H      -0.844916662     -3.076085823     -2.254621529
           6
  t=        99.00000    1    1
C      -3.106463584     -2.628313077     -2.404505282
C      -1.707867522     -2.249511297     -2.428121987
H      -3.492297079     -1.627471881     -2.721473559
H      -3.945344790     -3.267594559     -2.628669702
H      -1.679066723     -1.128892779     -2.084681532
H      -0.823172776     -3.159345426     -2.287050359
           6
  t=        99.50000    1    1
C      -3.123325880     -2.641049575     -2.405901869
C      -1.712569479     -2.252429930     -2.442225648
H      -3.526066501     -1.700319561     -2.798294565
H      -4.017711471     -3.283158470     -2.693009636
H      -1.681746155     -1.131294094     -2.076186051
H      -0.807956105     -3.232542507     -2.320240482
           6
  t=       100.00000    1    1
C      -3.139967203     -2.652904646     -2.408141958
C      -1.717520885     -2.256478261     -2.455730315
H      -3.562170732     -1.772033294     -2.870927638
H      -4.083183634     -3.302102678     -2.754520286
H      -1.681293031     -1.140187879     -2.071235249
H      -0.800092390     -3.294042444     -2.353989679
           6
  t=       100.50000    1    1
C      -3.156504794     -2.664157080     -2.411337253
C      -1.722793946     -2.261769232     -2.468667681
H      -3.600360283     -1.840380397     -2.939460352
H      -4.139378060     -3.323234710     -2.811889789
H      -1.677773134     -1.155330543     -2.069737349
H      -0.799891162     -3.342846235     -2.387905312
           6
  t=       101.00000    1    1
C      -3.172997151     -2.674976232     -2.415560136
C      -1.728443261     -2.268374250     -2.481089656
H      -3.640408811     -1.904000646     -3.003974560
H      -4.185153377     -3.345905672     -2.864195111
H      -1.671390900     -1.176175680     -2.071481208
H      -0.807168073     -3.378640562     -2.421558716
           6
  t=       101.50000    1    1
C      -3.189498509     -2.685434712     -2.420921746
C      -1.734514729     -2.276376625     -2.493030890
H      -3.681976504     -1.962171903     -3.064201547
H      -4.219788675     -3.369867421     -2.910551995
H      -1.662280883     -1.202086466     -2.076261484
H      -0.821656132     -3.401174653     -2.454570996
           6
  t=       102.00000    1    1
C      -3.206058271     -2.695564610     -2.427552342
C      -1.741062279     -2.285851080     -2.504521303
H      -3.724470518     -2.014546168     -3.119573239
H      -4.242793185     -3.395072678     -2.950163390
H      -1.650495706     -1.232338387     -2.083870466
H      -0.843155059     -3.410295548     -2.486606385
           6
  t=       102.50000    1    1
C      -3.222706407     -2.705383519     -2.435561874
C      -1.748145299     -2.296850013     -2.515601394
H      -3.767023348     -2.061021601     -3.169365653
H      -4.254062984     -3.421609985     -2.982498801
H      -1.636103354     -1.266010255     -2.094051295
H      -0.871503531     -3.406103733     -2.517383486
           6
  t=       103.00000    1    1
C      -3.239470996     -2.714903062     -2.445051127
C      -1.755825136     -2.309414665     -2.526319855
H      -3.808601114     -2.101548274     -3.212730515
H      -4.253705829     -3.449671381     -3.007177385
H      -1.619214226     -1.301925320     -2.106480761
H      -0.906451700     -3.389003935     -2.546673511
           6
  t=       103.50000    1    1
C      -3.256382578     -2.724142536     -2.456110309
C      -1.764175982     -2.323573104     -2.536733960
H      -3.848171134     -2.135989455     -3.248840363
H      -4.241850692     -3.479465616     -3.023869263
H      -1.599948799     -1.338612513     -2.120732676
H      -0.947534851     -3.359830833     -2.574302679
           6
  t=       104.00000    1    1
C      -3.273469470     -2.733132494     -2.468810957
C      -1.773292459     -2.339332578     -2.546906752
H      -3.884857612     -2.164115755     -3.277014407
H      -4.218549998     -3.511130233     -3.032275805
H      -1.578400547     -1.374430277     -2.136299034
H      -0.994017979     -3.319867396     -2.600154747
           6
  t=       104.50000    1    1
C      -3.290741812     -2.741907333     -2.483190163
C      -1.783295529     -2.356655337     -2.556901775
H      -3.918069998     -2.185720944     -3.296791913
H      -4.183802503     -3.544650901     -3.032220906
H      -1.554666908     -1.407879064     -2.152685663
H      -1.044833270     -3.270873701     -2.624161630
           6
  t=       105.00000    1    1
C      -3.308165449     -2.750498794     -2.499225215
C      -1.794360567     -2.375383793     -2.566770350
H      -3.947601406     -2.200781146     -3.308022711
H      -4.137719868     -3.579793986     -3.023828738
H      -1.528973143     -1.437937681     -2.169551679
H      -1.098167971     -3.215627983     -2.646349291
           6
  t=       105.50000    1    1
C      -3.325661242     -2.758937602     -2.516864078
C      -1.806762068     -2.395167394     -2.576520383
H      -3.973610585     -2.209391440     -3.310741816
H      -4.080584496     -3.616176228     -3.007427174
H      -1.501770805     -1.464118657     -2.186813355
H      -1.150801562     -3.158716845     -2.666964391
           6
  t=       106.00000    1    1
C      -3.343076322     -2.767239208     -2.535997822
C      -1.820935493     -2.415366799     -2.586103435
H      -3.996656023     -2.211830076     -3.305237940
H      -4.013260916     -3.653491009     -2.983789216
H      -1.473831021     -1.486483260     -2.204617953
H      -1.197172606     -3.107541500     -2.686673112
           6
  t=       106.50000    1    1
C      -3.360170711     -2.775377780     -2.556459944
C      -1.837502313     -2.435116413     -2.595418074
H      -4.017474112     -2.208568119     -3.292057371
H      -3.937225096     -3.691791109     -2.954090944
H      -1.446123136     -1.505662688     -2.223200490
H      -1.229553684     -3.071568795     -2.706710716
           6
  t=       107.00000    1    1
C      -3.376671304     -2.783302466     -2.578068215
C      -1.857072100     -2.453588776     -2.604329962
H      -4.036801333     -2.200222560     -3.271814212
H      -3.854260807     -3.731439680     -2.919649960
H      -1.419693429     -1.522597794     -2.242832218
H      -1.240369030     -3.059343459     -2.728646341
           6
  t=       107.50000    1    1
C      -3.392321828     -2.790971681     -2.600626964
C      -1.879785525     -2.470426592     -2.612754340
H      -4.055258698     -2.187577169     -3.245221533
H      -3.766321168     -3.772840203     -2.881833861
H      -1.395667203     -1.538275391     -2.263823603
H      -1.227296674     -3.073444348     -2.753430372
           6
  t=       108.00000    1    1
C      -3.406901488     -2.798377227     -2.623929059
C      -1.905148452     -2.485838218     -2.620715224
H      -4.073424044     -2.171484255     -3.213161590
H      -3.675443222     -3.816223862     -2.841990164
H      -1.375187703     -1.553538745     -2.286522182
H      -1.195097381     -3.109559676     -2.780667441
           6
  t=       108.50000    1    1
C      -3.420260703     -2.805586138     -2.647766012
C      -1.932224448     -2.500366023     -2.628338908
H      -4.091971898     -2.152687831     -3.176717203
H      -3.583489340     -3.861255845     -2.801301798
H      -1.359194412     -1.569064347     -2.311267595
H      -1.153235358     -3.159342308     -2.808731563
           6
  t=       109.00000    1    1
C      -3.432277297     -2.812757981     -2.671965712
C      -1.960149847     -2.514461243     -2.635754777
H      -4.111650329     -2.131767489     -3.136842875
H      -3.492104811     -3.906643420     -2.760706271
H      -1.348537060     -1.585366199     -2.338396297
H      -1.110214500     -3.215713249     -2.835903387
           6
  t=       109.50000    1    1
C      -3.442844642     -2.820124326     -2.696385884
C      -1.988271551     -2.528390085     -2.643059564
H      -4.133051468     -2.109387137     -3.094290166
H      -3.403090077     -3.950197091     -2.721006881
H      -1.343924184     -1.602873514     -2.368147947
H      -1.071986350     -3.273837518     -2.860931024
           6
  t=       110.00000    1    1
C      -3.451869071     -2.827915432     -2.720918419
C      -2.016171055     -2.542268950     -2.650316728
H      -4.156417499     -2.086392641     -3.049498615
H      -3.318424553     -3.989576443     -2.682918567
H      -1.345722825     -1.621896148     -2.400605377
H      -1.042065100     -3.330769135     -2.883109242
           6
  t=       110.50000    1    1
C      -3.459272986     -2.836307089     -2.745483952
C      -2.043577923     -2.556111843     -2.657577660
H      -4.181506374     -2.063984103     -3.002622617
H      -3.240432789     -4.022920336     -2.647034646
H      -1.354039411     -1.642697071     -2.435652892
H      -1.022408933     -3.384644620     -2.902139333
           6
  t=       111.00000    1    1
C      -3.465038256     -2.845397057     -2.770017702
C      -2.070316399     -2.569895140     -2.664912345
H      -4.207504418     -2.043794349     -2.953627351
H      -3.171552528     -4.048923932     -2.613769560
H      -1.368663340     -1.665467529     -2.472941013
H      -1.013914635     -3.434061357     -2.917929165
           6
  t=       111.50000    1    1
C      -3.469218067     -2.855202884     -2.794457745
C      -2.096297101     -2.583627322     -2.672420569
H      -4.233235108     -2.027615332     -2.902511567
H      -3.113653142     -4.066586084     -2.583241908
H      -1.389100950     -1.690182689     -2.511809034
H      -1.016814341     -3.477943240     -2.930570920
           6
  t=       112.00000    1    1
C      -3.471946741     -2.865662059     -2.818734313
C      -2.121503704     -2.597370793     -2.680211190
H      -4.257475342     -2.016885448     -2.849465971
H      -3.067452347     -4.075503618     -2.555404905
H      -1.414614140     -1.716410277     -2.551476809
H      -1.030945529     -3.515688570     -2.940235043
           6
  t=       112.50000    1    1
C      -3.473447111     -2.876695027     -2.842761548
C      -2.145892878     -2.611194601     -2.688376209
H      -4.279034250     -2.012668313     -2.794960052
H      -3.033120506     -4.075850721     -2.530228620
H      -1.444317420     -1.743391842     -2.591243734
H      -1.056075277     -3.546943214     -2.947109392
           6
  t=       113.00000    1    1
C      -3.474000866     -2.888225067     -2.866429854
C      -2.169370115     -2.625167665     -2.696989270
H      -4.296817123     -2.015775568     -2.739769499
H      -3.010671510     -4.068211308     -2.507769790
H      -1.477253119     -1.770126496     -2.630530424
H      -1.092011695     -3.571405461     -2.951369305
           6
  t=       113.50000    1    1
C      -3.473939252     -2.900184587     -2.889617217
C      -2.191797642     -2.639355025     -2.706102003
H      -4.309920123     -2.026733245     -2.684885710
H      -2.999961203     -4.053461111     -2.488162567
H      -1.512437482     -1.795432587     -2.668903048
H      -1.138481175     -3.588885603     -2.953161756
           6
  t=       114.00000    1    1
C      -3.473626049     -2.912525200     -2.912204532
C      -2.213005082     -2.653803131     -2.715741706
H      -4.317700573     -2.045737119     -2.631394325
H      -3.000742823     -4.032691663     -2.471571818
H      -1.548931633     -1.818017281     -2.706065920
H      -1.195007507     -3.599412246     -2.952625853
           6
  t=       114.50000    1    1
C      -3.473430658     -2.925222567     -2.934077421
C      -2.232800018     -2.668532862     -2.725919867
H      -4.319747448     -2.072716854     -2.580422194
H      -3.012786663     -4.007112241     -2.458160134
H      -1.585907863     -1.836525310     -2.741799259
H      -1.260950252     -3.603242962     -2.949917946
           6
  t=       115.00000    1    1
C      -3.473710058     -2.938278919     -2.955122272
C      -2.250963986     -2.683540219     -2.736647259
H      -4.315860843     -2.107413967     -2.533095779
H      -3.036039377     -3.977948000     -2.448076489
H      -1.622711601     -1.849609628     -2.775894244
H      -1.335566701     -3.600779176     -2.945196792
           6
  t=       115.50000    1    1
C      -3.474800012     -2.951703323     -2.975233150
C      -2.267290177     -2.698786107     -2.747936639
H      -4.306149685     -2.149312496     -2.490463939
H      -3.070524353     -3.946487311     -2.441393715
H      -1.658917731     -1.856190040     -2.808148660
H      -1.417613114     -3.592686478     -2.938653241
           6
  t=       116.00000    1    1
C      -3.477004682     -2.965489158     -2.994323392
C      -2.281626959     -2.714174382     -2.759801772
H      -4.291058184     -2.197661223     -2.453426896
H      -3.116226442     -3.914142794     -2.438016607
H      -1.694333647     -1.855770160     -2.838364946
H      -1.505035547     -3.580024367     -2.930548408
           6
  t=       116.50000    1    1
C      -3.480579154     -2.979613295     -3.012336375
C      -2.293894726     -2.729516228     -2.772254360
H      -4.271307555     -2.251518558     -2.422696208
H      -3.172933302     -3.882534863     -2.437653694
H      -1.728967095     -1.848636687     -2.866341152
H      -1.595226384     -3.564352796     -2.921199466
           6
  t=       117.00000    1    1
C      -3.485716319     -2.994028758     -3.029252438
C      -2.304129615     -2.744466903     -2.785286768
H      -4.248007325     -2.309492859     -2.398812701
H      -3.239947061     -3.853973563     -2.439786732
H      -1.762971515     -1.835825959     -2.891918028
H      -1.684891512     -3.548384616     -2.911068329
           6
  t=       117.50000    1    1
C      -3.492574421     -3.008608363     -3.045110916
C      -2.312569539     -2.758481720     -2.798862379
H      -4.222981995     -2.369246621     -2.382067509
H      -3.315664908     -3.832192988     -2.443517029
H      -1.796524790     -1.818842635     -2.915054352
H      -1.768910894     -3.537224357     -2.900771369
           6
  t=       118.00000    1    1
C      -3.501284822     -3.023167282     -3.059999320
C      -2.319600564     -2.770846023     -2.812965766
H      -4.198116834     -2.428274315     -2.372384969
H      -3.398651967     -3.821257527     -2.447717328
H      -1.829819461     -1.799389987     -2.935718307
H      -1.840476093     -3.538327845     -2.890684385
           6
  t=       118.50000    1    1
C      -3.511866302     -3.037581072     -3.074000056
C      -2.325605019     -2.780825395     -2.827605685
H      -4.174908278     -2.484603547     -2.369320800
H      -3.488266051     -3.823690463     -2.451791962
H      -1.863086138     -1.779305922     -2.953964575
H      -1.893722762     -3.559540194     -2.880706424
           6
  t=       119.00000    1    1
C      -3.524233448     -3.051822969     -3.087129972
C      -2.330798462     -2.788097862     -2.842810992
H      -4.155134738     -2.535881293     -2.372282448
H      -3.583284160     -3.840466421     -2.456255726
H      -1.896404109     -1.760513425     -2.969937273
H      -1.926465436     -3.604472266     -2.870226504
           6
  t=       119.50000    1    1
C      -3.538221335     -3.065965217     -3.099343483
C      -2.335231848     -2.793047279     -2.858604184
H      -4.140756133     -2.579315624     -2.380514012
H      -3.681243467     -3.871004345     -2.462719445
H      -1.929456642     -1.744783830     -2.983817350
H      -1.940881769     -3.669290969     -2.858483884
           6
  t=       120.00000    1    1
C      -3.553632651     -3.080204290     -3.110554812
C      -2.338823350     -2.796493544     -2.874996836
H      -4.133346717     -2.612532900     -2.392956290
H      -3.780015199     -3.913261819     -2.473380122
H      -1.961716549     -1.733394436     -2.995690558
H      -1.941379613     -3.745024303     -2.845139158
           6
  t=       120.50000    1    1
C      -3.570260099     -3.094776549     -3.120698105
C      -2.341481914     -2.799267511     -2.891974973
H      -4.134084170     -2.633870017     -2.408201846
H      -3.877982529     -3.964433631     -2.490355724
H      -1.992923710     -1.726941011     -3.005632699
H      -1.932213296     -3.822828262     -2.830357213
           6
  t=       121.00000    1    1
C      -3.587862528     -3.109851063     -3.129804028
C      -2.343279931     -2.802100234     -2.909438757
H      -4.143844202     -2.642320009     -2.424700605
H      -3.973444166     -4.021442517     -2.514938529
H      -2.022982253     -1.725278944     -3.013946494
H      -1.916315145     -3.896206064     -2.814917363
           6
  t=       121.50000    1    1
C      -3.606200583     -3.125549059     -3.137878661
C      -2.344371442     -2.805538021     -2.927275853
H      -4.162842266     -2.637685676     -2.441637879
H      -4.065114527     -4.081318522     -2.547822515
H      -2.051907628     -1.728030982     -3.020943343
H      -1.895756431     -3.960748031     -2.799895016
           6
  t=       122.00000    1    1
C      -3.625100790     -3.141945715     -3.144857352
C      -2.344970785     -2.809953078     -2.945409112
H      -4.190426227     -2.620681780     -2.459267221
H      -4.151315589     -4.141090858     -2.589431487
H      -2.079644503     -1.734746811     -3.026746814
H      -1.872435693     -4.013829600     -2.786178892
           6
  t=       122.50000    1    1
C      -3.644465852     -3.159005164     -3.150641138
C      -2.345360414     -2.815617906     -2.963784432
H      -4.224981519     -2.593002141     -2.478820340
H      -4.230518537     -4.198307164     -2.639684027
H      -2.105884013     -1.744750201     -3.031397969
H      -1.847598945     -4.054065892     -2.774401543
           6
  t=       123.00000    1    1
C      -3.664243645     -3.176584750     -3.155137281
C      -2.345843003     -2.822754591     -2.982352433
H      -4.264301470     -2.557204736     -2.501993605
H      -4.301741828     -4.251130241     -2.698041445
H      -2.130125091     -1.757193422     -3.034965603
H      -1.821949970     -4.080637387     -2.765029877
           6
  t=       123.50000    1    1
C      -3.684405637     -3.194502137     -3.158301400
C      -2.346683311     -2.831550722     -3.001059643
H      -4.306231939     -2.516215743     -2.530273373
H      -4.364384741     -4.298051775     -2.763707850
H      -2.151836524     -1.771184161     -3.037536093
H      -1.795960057     -4.092955957     -2.758453067
           6
  t=       124.00000    1    1
C      -3.704940967     -3.212587698     -3.160156192
C      -2.348077567     -2.842146737     -3.019841689
H      -4.348970781     -2.472945737     -2.564647247
H      -4.417974125     -4.337689874     -2.835727401
H      -2.170595581     -1.785842919     -3.039207944
H      -1.770118422     -4.090720228     -2.755037433
           6
  t=       124.50000    1    1
C      -3.725846283     -3.230694368     -3.160773340
C      -2.350167754     -2.854632388     -3.038624345
H      -4.391007347     -2.430094548     -2.605684085
H      -4.461998445     -4.368790585     -2.913068600
H      -2.186147672     -1.800416526     -3.040100872
H      -1.745049979     -4.073920390     -2.755156202
           6
  t=       125.00000    1    1
C      -3.747110463     -3.248698179     -3.160268985
C      -2.353045085     -2.869039010     -3.057331951
H      -4.431123788     -2.389883410     -2.653508325
H      -4.496026841     -4.390468719     -2.994649065
H      -2.198450923     -1.814412592     -3.040337240
H      -1.721490969     -4.042816603     -2.759162604
           6
  t=       125.50000    1    1
C      -3.768698468     -3.266491590     -3.158796829
C      -2.356759720     -2.885324508     -3.075890007
H      -4.468376006     -2.354133919     -2.707919332
H      -4.519873740     -4.402188054     -3.079284041
H      -2.207725448     -1.827674040     -3.040024837
H      -1.700170767     -3.998063546     -2.767390488
           6
  t=       126.00000    1    1
C      -3.790560130     -3.283979302     -3.156535679
C      -2.361329938     -2.903367294     -3.094230652
H      -4.502043534     -2.324349568     -2.768506668
H      -4.533605095     -4.403703127     -3.165714982
H      -2.214407109     -1.840441932     -3.039238211
H      -1.681688012     -3.940746531     -2.780112302
           6
  t=       126.50000    1    1
C      -3.812623015     -3.301069058     -3.153680405
C      -2.366769574     -2.922960181     -3.112296395
H      -4.531563077     -2.301711182     -2.834737746
H      -4.537595185     -4.395184236     -3.252636177
H      -2.219063560     -1.853276509     -3.038008718
H      -1.666362311     -3.872522230     -2.797498012
           6
  t=       127.00000    1    1
C      -3.834795202     -3.317667607     -3.150447136
C      -2.373115726     -2.943795594     -3.130046272
H      -4.556463541     -2.287114050     -2.905913899
H      -4.532566896     -4.377305275     -3.338726951
H      -2.222292836     -1.866925549     -3.036350727
H      -1.653997066     -3.795849809     -2.819465387
           6
  t=       127.50000    1    1
C      -3.856967008     -3.333684159     -3.147074833
C      -2.380464951     -2.965465927     -3.147465514
H      -4.576352385     -2.281224814     -2.981133157
H      -4.519500552     -4.351147098     -3.422684003
H      -2.224653656     -1.882172493     -3.034285062
H      -1.643602223     -3.714137054     -2.845527485
           6
  t=       128.00000    1    1
C      -3.879016880     -3.349040178     -3.143807346
C      -2.389007557     -2.987494650     -3.164578860
H      -4.590945072     -2.284474935     -3.059300142
H      -4.499467313     -4.317994436     -3.503344311
H      -2.226632395     -1.899731760     -3.031878169
H      -1.633085486     -3.631567350     -2.874675831
           6
  t=       128.50000    1    1
C      -3.900798836     -3.363660145     -3.140857486
C      -2.399076585     -3.009381513     -3.181461689
H      -4.600036137     -2.297052827     -3.139264713
H      -4.473625837     -4.279324814     -3.579872796
H      -2.228733004     -1.919986469     -3.029249006
H      -1.618760798     -3.552952313     -2.905342697
           6
  t=       129.00000    1    1
C      -3.922147486     -3.377459105     -3.138391424
C      -2.411053947     -3.030693572     -3.198207916
H      -4.603551568     -2.318871394     -3.219881557
H      -4.443386971     -4.237047604     -3.651888677
H      -2.231594346     -1.942868499     -3.026520641
H      -1.596072434     -3.482708885     -2.935832034
           6
  t=       129.50000    1    1
C      -3.942881846     -3.390346734     -3.136548860
C      -2.425151882     -3.051165256     -3.214864224
H      -4.601682970     -2.349504284     -3.299936878
H      -4.410460675     -4.193611111     -3.719392955
H      -2.235909798     -1.968206244     -3.023716467
H      -1.562053066     -3.423227453     -2.965112343
           6
  t=       130.00000    1    1
C      -3.962788245     -3.402238553     -3.135468040
C      -2.441268032     -3.070715583     -3.231376279
H      -4.594937468     -2.388079028     -3.378037446
H      -4.376700308     -4.151885367     -3.782698977
H      -2.242487465     -1.995609638     -3.020851301
H      -1.517299750     -3.374872116     -2.993248829
           6
  t=       130.50000    1    1
C      -3.981669386     -3.413097497     -3.135256322
C      -2.459044472     -3.089403641     -3.247595532
H      -4.584098850     -2.433217010     -3.452619074
H      -4.343568091     -4.114545608     -3.842679469
H      -2.251998049     -2.024365286     -3.018279597
H      -1.465511668     -3.336797214     -3.021069328
           6
  t=       131.00000    1    1
C      -3.999419766     -3.422987147     -3.135962023
C      -2.478035720     -3.107351962     -3.263354113
H      -4.570048487     -2.483099895     -3.522460424
H      -4.311725908     -4.083370353     -3.900426338
H      -2.264748802     -2.053531800     -3.016425888
H      -1.411403653     -3.307766296     -3.049703270
           6
  t=       131.50000    1    1
C      -4.015985237     -3.432070646     -3.137624519
C      -2.497824849     -3.124667526     -3.278523734
H      -4.553706446     -2.535563738     -3.586894976
H      -4.281370036     -4.059299946     -3.956526172
H      -2.280774973     -2.082166088     -3.015416337
H      -1.359437284     -3.286727371     -3.080163897
           6
  t=       132.00000    1    1
C      -4.031310393     -3.440573468     -3.140324536
C      -2.518034667     -3.141424716     -3.293007118
H      -4.536108004     -2.588240735     -3.645542714
H      -4.252615973     -4.042805012     -4.010881137
H      -2.299869395     -2.109350586     -3.015234822
H      -1.313823665     -3.272922159     -3.113142394
           6
  t=       132.50000    1    1
C      -4.045340443     -3.448742201     -3.144184116
C      -2.538329811     -3.157656300     -3.306732031
H      -4.518561051     -2.638782254     -3.698206020
H      -4.225659861     -4.034119537     -4.062851385
H      -2.321675054     -2.134267476     -3.015831167
H      -1.278064697     -3.265954420     -3.148932886
           6
  t=       133.00000    1    1
C      -4.058069127     -3.456830193     -3.149287205
C      -2.558472138     -3.173370847     -3.319676971
H      -4.502592240     -2.685058256     -3.745262706
H      -4.200687218     -4.033074164     -4.111568102
H      -2.345765344     -2.156348328     -3.017030695
H      -1.253787063     -3.265571071     -3.187457004
           6
  t=       133.50000    1    1
C      -4.069504759     -3.465068293     -3.155707911
C      -2.578319232     -3.188552116     -3.331843672
H      -4.489640125     -2.725348831     -3.787334835
H      -4.177782348     -4.039221752     -4.155934033
H      -2.371797673     -2.175299351     -3.018661905
H      -1.241408408     -3.271675743     -3.228457745
           6
  t=       134.00000    1    1
C      -4.079668275     -3.473646021     -3.163508019
C      -2.597801691     -3.203176162     -3.343252529
H      -4.480693719     -2.758524245     -3.825069883
H      -4.156919455     -4.051876858     -4.194778131
H      -2.399508227     -2.191068673     -3.020580254
H      -1.240806828     -3.284162550     -3.271623947
           6
  t=       134.50000    1    1
C      -4.088594709     -3.482698919     -3.172729252
C      -2.616890530     -3.217220158     -3.353939243
H      -4.476166722     -2.784110748     -3.858972731
H      -4.138024199     -4.070227884     -4.227096444
H      -2.428679992     -2.203782755     -3.022674246
H      -1.251787930     -3.302847290     -3.316643679
           6
  t=       135.00000    1    1
C      -4.096322311     -3.492310569     -3.183416230
C      -2.635559360     -3.230651870     -3.363944652
H      -4.476053953     -2.802169823     -3.889215409
H      -4.121113079     -4.093549537     -4.252115549
H      -2.459095752     -2.213711614     -3.024861069
H      -1.274416241     -3.327511939     -3.363182815
           6
  t=       135.50000    1    1
C      -4.102895495     -3.502524089     -3.195616395
C      -2.653774885     -3.243431968     -3.373309642
H      -4.480072959     -2.813185623     -3.915659704
H      -4.106309027     -4.121214644     -4.269335502
H      -2.490481887     -2.221222235     -3.027095055
H      -1.308992422     -3.357887382     -3.410872700
           6
  t=       136.00000    1    1
C      -4.108363297     -3.513355931     -3.209384592
C      -2.671497041     -3.255514093     -3.382071122
H      -4.487809088     -2.817905096     -3.937911360
H      -4.093849125     -4.152704953     -4.278478412
H      -2.522481881     -2.226786266     -3.029386048
H      -1.355943686     -3.393629630     -3.459282335
           6
  t=       136.50000    1    1
C      -4.112781250     -3.524804748     -3.224781868
C      -2.688701000     -3.266853650     -3.390260990
H      -4.498787034     -2.817212629     -3.955391656
H      -4.084043367     -4.187576616     -4.279423790
H      -2.554642930     -2.230989389     -3.031830022
H      -1.415522256     -3.434259884     -3.507907436
           6
  t=       137.00000    1    1
C      -4.116209873     -3.536865062     -3.241878196
C      -2.705400174     -3.277407140     -3.397903426
H      -4.512536419     -2.811985314     -3.967411111
H      -4.077232322     -4.225417509     -4.272082824
H      -2.586436086     -2.234541772     -3.034641454
H      -1.487505947     -3.479186627     -3.556189939
           6
  t=       137.50000    1    1
C      -4.118724929     -3.549532013     -3.260733119
C      -2.721680381     -3.287130483     -3.405014749
H      -4.528587511     -2.803066330     -3.973296006
H      -4.073723446     -4.265778152     -4.256413389
H      -2.617299555     -2.238233010     -3.038141073
H      -1.570693506     -3.527809714     -3.603621012
           6
  t=       138.00000    1    1
C      -4.120397863     -3.562810764     -3.281410961
C      -2.737717965     -3.295948799     -3.411581726
H      -4.546528757     -2.791222982     -3.972389251
H      -4.073848410     -4.308247795     -4.232374408
H      -2.646625808     -2.242860684     -3.042703393
H      -1.662819748     -3.579805702     -3.649915519
           6
  t=       138.50000    1    1
C      -4.121294744     -3.576699290     -3.303932895
C      -2.753768438     -3.303761123     -3.417558636
H      -4.566054192     -2.777303784     -3.964297178
H      -4.077986070     -4.352439857     -4.200233518
H      -2.673776732     -2.249071370     -3.048638095
H      -1.760618039     -3.635293310     -3.695182336
           6
  t=       139.00000    1    1
C      -4.121490507     -3.591175717     -3.328251548
C      -2.770146713     -3.310439527     -3.422873013
H      -4.586919545     -2.762416472     -3.948996943
H      -4.086597587     -4.397937584     -4.160671826
H      -2.698046136     -2.257274958     -3.056091216
H      -1.859932403     -3.694956664     -3.740045086
           6
  t=       139.50000    1    1
C      -4.121083168     -3.606196215     -3.354281634
C      -2.787157963     -3.315817995     -3.427440867
H      -4.609027059     -2.747872523     -3.926663397
H      -4.100277629     -4.444451814     -4.114586730
H      -2.718569053     -2.267714622     -3.064979893
H      -1.956326607     -3.760030704     -3.785531443
           6
  t=       140.00000    1    1
C      -4.120217160     -3.621670734     -3.381916021
C      -2.804954775     -3.319765230     -3.431221951
H      -4.632597902     -2.734979778     -3.897445894
H      -4.119585291     -4.492052887     -4.063002185
H      -2.734499296     -2.280324892     -3.074958751
H      -2.046327378     -3.831840245     -3.832569582
           6
  t=       140.50000    1    1
C      -4.119136981     -3.637336398     -3.410861767
C      -2.823398230     -3.322486869     -3.434354450
H      -4.658099342     -2.724848974     -3.861694495
H      -4.144068701     -4.541204971     -4.007876340
H      -2.745878830     -2.294311595     -3.085694055
H      -2.128619337     -3.910286565     -3.881029096
           6
  t=       141.00000    1    1
C      -4.118110805     -3.652892346     -3.440777736
C      -2.842193670     -3.324404635     -3.437043609
H      -4.685279084     -2.718794056     -3.819979407
H      -4.173180333     -4.592291184     -3.951266662
H      -2.752995981     -2.308665744     -3.097243423
H      -2.204029511     -3.993241462     -3.929843888
           6
  t=       141.50000    1    1
C      -4.117368204     -3.668126650     -3.471403309
C      -2.861012762     -3.326008463     -3.439547077
H      -4.713795936     -2.718055880     -3.773024371
H      -4.206591412     -4.645147105     -3.894362997
H      -2.755914509     -2.322386059     -3.109626615
H      -2.274340932     -4.077317142     -3.977116010
           6
  t=       142.00000    1    1
C      -4.117154344     -3.682913005     -3.502546795
C      -2.879549669     -3.327792543     -3.442130318
H      -4.743483932     -2.723689763     -3.721583113
H      -4.243946943     -4.698963476     -3.837648890
H      -2.754604087     -2.334434216     -3.122779576
H      -2.340827858     -4.158922250     -4.020793193
           6
  t=       142.50000    1    1
C      -4.117744204     -3.697214123     -3.534045630
C      -2.897552780     -3.330181934     -3.445019152
H      -4.774207254     -2.736504941     -3.666519230
H      -4.284745642     -4.752294426     -3.781221722
H      -2.749025509     -2.343927895     -3.136620636
H      -2.403888083     -4.234955192     -4.059242405
           6
  t=       143.00000    1    1
C      -4.119411920     -3.711074448     -3.565743931
C      -2.914824769     -3.333488860     -3.448384317
H      -4.805813593     -2.757009803     -3.608795997
H      -4.328313946     -4.803232940     -3.725107164
H      -2.739218578     -2.350404726     -3.151128734
H      -2.463392503     -4.303027043     -4.091318728
           6
  t=       143.50000    1    1
C      -4.122429270     -3.724593943     -3.597475817
C      -2.931193461     -3.337911130     -3.452341299
H      -4.838100087     -2.785473175     -3.549462016
H      -4.373823305     -4.849669519     -3.669493870
H      -2.725378976     -2.353941250     -3.166407203
H      -2.518989953     -4.361353771     -4.116282097
           6
  t=       144.00000    1    1
C      -4.126992631     -3.737897405     -3.629069345
C      -2.946569905     -3.343506195     -3.456939926
H      -4.870734995     -2.821745440     -3.489500365
H      -4.420243083     -4.889743377     -3.614869040
H      -2.707962943     -2.355076333     -3.182653049
H      -2.570306555     -4.409235306     -4.133920268
           6
  t=       144.50000    1    1
C      -4.133295792     -3.751097966     -3.660334256
C      -2.960894184     -3.350257392     -3.462192589
H      -4.903241315     -2.865491595     -3.429921113
H      -4.466394719     -4.921887107     -3.561957808
H      -2.687590421     -2.354719484     -3.200129414
H      -2.616782738     -4.446515048     -4.144354358
           6
  t=       145.00000    1    1
C      -4.141522269     -3.764277022     -3.691042954
C      -2.974135861     -3.358110050     -3.468102300
H      -4.935013614     -2.916238375     -3.371878587
H      -4.511017208     -4.944906094     -3.511715242
H      -2.665020017     -2.354056315     -3.219084092
H      -2.657702289     -4.473356820     -4.147903212
           6
  t=       145.50000    1    1
C      -4.151805905     -3.777470327     -3.720933707
C      -2.986296034     -3.366991513     -3.474676143
H      -4.965456487     -2.973342392     -3.316733997
H      -4.552898390     -4.958170120     -3.465194280
H      -2.641143017     -2.354454559     -3.239667741
H      -2.692373589     -4.490106202     -4.145036347
           6
  t=       146.00000    1    1
C      -4.164195400     -3.790696643     -3.749756165
C      -2.997400254     -3.376804557     -3.481921109
H      -4.994152597     -3.035875821     -3.265827006
H      -4.591030384     -4.961720882     -3.423416404
H      -2.616871577     -2.357195369     -3.261892742
H      -2.720424933     -4.497303115     -4.136280002
           6
  t=       146.50000    1    1
C      -4.178680281     -3.803965802     -3.777281444
C      -3.007488625     -3.387468052     -3.489851617
H      -5.020911510     -3.102716721     -3.220409963
H      -4.624631923     -4.956051690     -3.387276873
H      -2.593026943     -2.363381087     -3.285697903
H      -2.741653719     -4.495323392     -4.122103289
           6
  t=       147.00000    1    1
C      -4.195201612     -3.817273726     -3.803305998
C      -3.016636731     -3.398924618     -3.498489942
H      -5.045680083     -3.172565693     -3.181523591
H      -4.653118068     -4.942016975     -3.357572037
H      -2.570310314     -2.373831370     -3.310983048
H      -2.755798444     -4.484524689     -4.102929244
           6
  t=       147.50000    1    1
C      -4.213660761     -3.830604832     -3.827662467
C      -3.024970332     -3.411121495     -3.507855894
H      -5.068418727     -3.243975621     -3.149900746
H      -4.676025764     -4.920742699     -3.335032598
H      -2.549294700     -2.389065580     -3.337615808
H      -2.762465505     -4.465523111     -4.079184862
           6
  t=       148.00000    1    1
C      -4.233930294     -3.843935998     -3.850228932
C      -3.032661612     -3.423986557     -3.517958735
H      -5.089082212     -3.315301523     -3.125913575
H      -4.692934892     -4.893652894     -3.320345516
H      -2.530437581     -2.409333830     -3.365408065
H      -2.761129526     -4.439424448     -4.051341528
           6
  t=       148.50000    1    1
C      -4.255847145     -3.857234699     -3.870920345
C      -3.039915178     -3.437414535     -3.528795934
H      -5.107703385     -3.384769414     -3.109658517
H      -4.703514561     -4.862485008     -3.314122725
H      -2.514116043     -2.434662518     -3.394107969
H      -2.751216499     -4.407880777     -4.019986283
           6
  t=       149.00000    1    1
C      -4.279219012     -3.870439253     -3.889687015
C      -3.046952124     -3.451242515     -3.540343439
H      -5.124378744     -3.450630582     -3.101102826
H      -4.707628657     -4.829419683     -3.316749820
H      -2.500677920     -2.464902663     -3.423409032
H      -2.732075137     -4.373285337     -3.985951472
           6
  t=       149.50000    1    1
C      -4.303842877     -3.883456761     -3.906518618
C      -3.054003968     -3.465226720     -3.552538075
H      -5.139203090     -3.511194434     -3.100227459
H      -4.705397253     -4.797212706     -3.328246152
H      -2.490402525     -2.499673751     -3.452969332
H      -2.702871617     -4.338965170     -3.950454474
           6
  t=       150.00000    1    1
C      -4.329504894     -3.896182939     -3.921444580
C      -3.061320228     -3.479062916     -3.565285898
H      -5.152271702     -3.564953031     -3.107102943
H      -4.697249359     -4.768992988     -3.348181794
H      -2.483326453     -2.538011722     -3.482339526
H      -2.662620031     -4.309131144     -3.915072831
           6
  t=       150.50000    1    1
C      -4.355982781     -3.908503190     -3.934528934
C      -3.069151590     -3.492489364     -3.578521888
H      -5.163813979     -3.610631023     -3.121820632
H      -4.683878903     -4.748103793     -3.375707389
H      -2.479164415     -2.578157164     -3.510930313
H      -2.610343870     -4.287959045     -3.881165601
           6
  t=       151.00000    1    1
C      -4.383040043     -3.920258437     -3.945897386
C      -3.077686725     -3.505439271     -3.592255943
H      -5.174498225     -3.647034686     -3.144209954
H      -4.666130647     -4.738348790     -3.409503155
H      -2.477441235     -2.617856024     -3.538226978
H      -2.545575105     -4.277784375     -3.849122030
           6
  t=       151.50000    1    1
C      -4.410406404     -3.931233973     -3.955752902
C      -3.086985590     -3.518123807     -3.606544902
H      -5.185456165     -3.673176756     -3.173764127
H      -4.644723962     -4.743713295     -3.447773952
H      -2.477696493     -2.654880817     -3.564047202
H      -2.469429182     -4.277878714     -3.818330620
           6
  t=       152.00000    1    1
C      -4.437747441     -3.941238477     -3.964328789
C      -3.096933558     -3.530962708     -3.621451443
H      -5.198113633     -3.688497892     -3.209608403
H      -4.620033741     -4.767262234     -3.488789726
H      -2.479717444     -2.687170450     -3.588455650
H      -2.385668798     -4.285075846     -3.787804643
           6
  t=       152.50000    1    1
C      -4.464674802     -3.950206434     -3.971866135
C      -3.107320453     -3.544364910     -3.636993580
H      -5.214051912     -3.693107817     -3.250280058
H      -4.592280735     -4.809990077     -3.531364728
H      -2.483469390     -2.713018739     -3.611593656
H      -2.299658527     -4.295885684     -3.756963869
           6
  t=       153.00000    1    1
C      -4.490853039     -3.958301735     -3.978515271
C      -3.117915186     -3.558590774     -3.653150514
H      -5.234665182     -3.687506858     -3.294081396
H      -4.561726784     -4.870103894     -3.575628684
H      -2.489024002     -2.731238720     -3.633586018
H      -2.216421313     -4.307732521     -3.725707988
           6
  t=       153.50000    1    1
C      -4.515988048     -3.965919030     -3.984342647
C      -3.128514158     -3.573742726     -3.669870847
H      -5.261012749     -3.672493708     -3.339394982
H      -4.529091365     -4.942972476     -3.622638418
H      -2.496665515     -2.741351362     -3.654527942
H      -2.139824640     -4.319004938     -3.694323069
           6
  t=       154.00000    1    1
C      -4.539783358     -3.973570414     -3.989395310
C      -3.138971585     -3.589789748     -3.687079902
H      -5.293815454     -3.649034378     -3.384883971
H      -4.495764845     -5.022439907     -3.673431718
H      -2.506928537     -2.743726169     -3.674504604
H      -2.072492441     -4.328790953     -3.663352222
           6
  t=       154.50000    1    1
C      -4.561962764     -3.981760474     -3.993714401
C      -3.149210058     -3.606594899     -3.704684642
H      -5.333296111     -3.617971044     -3.429833104
H      -4.463358201     -5.102498978     -3.728557443
H      -2.520565703     -2.739445125     -3.693621068
H      -2.016051839     -4.336792893     -3.633475158
           6
  t=       155.00000    1    1
C      -4.582361178     -3.990904770     -3.997328942
C      -3.159168023     -3.623949161     -3.722583388
H      -5.378649524     -3.580408525     -3.474446286
H      -4.433543483     -5.177924840     -3.787906297
H      -2.538490123     -2.730062167     -3.711960967
H      -1.971423458     -4.343115737     -3.605379388
           6
  t=       155.50000    1    1
C      -4.600948245     -4.001229289     -4.000273548
C      -3.168775392     -3.641618757     -3.740688066
H      -5.428166016     -3.537945728     -3.519608149
H      -4.407939503     -5.245218042     -3.850643364
H      -2.561591645     -2.717389262     -3.729493678
H      -1.939005158     -4.347940898     -3.579682819
           6
  t=       156.00000    1    1
C      -4.617793280     -4.012777553     -4.002601775
C      -3.177993749     -3.659386799     -3.758912994
H      -5.479465461     -3.492549569     -3.566424776
H      -4.387760333     -5.302546773     -3.915534275
H      -2.590425387     -2.703312252     -3.746130326
H      -1.919039722     -4.351313191     -3.556985414
           6
  t=       156.50000    1    1
C      -4.633026434     -4.025492744     -4.004382413
C      -3.186820436     -3.677063020     -3.777162499
H      -5.529688380     -3.446754243     -3.615839137
H      -4.374079730     -5.348692817     -3.981411143
H      -2.624980014     -2.689666655     -3.761959807
H      -1.911805013     -4.353025326     -3.537743534
           6
  t=       157.00000    1    1
C      -4.646747878     -4.039286315     -4.005683781
C      -3.195293779     -3.694512322     -3.795350894
H      -5.576168112     -3.403110661     -3.668403530
H      -4.367904060     -5.382662322     -4.047406767
H      -2.664914393     -2.677900311     -3.777242389
H      -1.917652188     -4.352737264     -3.522218755
           6
  t=       157.50000    1    1
C      -4.659016672     -4.054079103     -4.006583819
C      -3.203469448     -3.711644627     -3.813407572
H      -5.616893333     -3.363599479     -3.724316730
H      -4.370026228     -5.403804738     -4.112794338
H      -2.709792365     -2.668990966     -3.792169708
H      -1.936868720     -4.350157770     -3.510660095
           6
  t=       158.00000    1    1
C      -4.669879444     -4.069797405     -4.007167719
C      -3.211400885     -3.728395111     -3.831271519
H      -5.650486786     -3.329617140     -3.783546976
H      -4.380978529     -5.411991202     -4.176948924
H      -2.759090281     -2.663507206     -3.806843632
H      -1.969630843     -4.345101348     -3.503334286
           6
  t=       158.50000    1    1
C      -4.679402842     -4.086356978     -4.007522752
C      -3.219134245     -3.744711159     -3.848889847
H      -5.675974560     -3.302222766     -3.845951475
H      -4.401047042     -5.407568071     -4.239324134
H      -2.812208346     -2.661695957     -3.821288162
H      -2.015882051     -4.337546318     -3.500496820
           6
  t=       159.00000    1    1
C      -4.687688490     -4.103651225     -4.007741920
C      -3.226722853     -3.760539040     -3.866219089
H      -5.692519365     -3.282363758     -3.911301918
H      -4.430279441     -5.391223142     -4.299402712
H      -2.868530802     -2.663600790     -3.835459534
H      -2.075181384     -4.327724346     -3.502346774
           6
  t=       159.50000    1    1
C      -4.694857085     -4.121550573     -4.007938518
C      -3.234250997     -3.775811513     -3.883226255
H      -5.699254047     -3.271012246     -3.979190389
H      -4.468507494     -5.363782245     -4.356620529
H      -2.927496549     -2.669231970     -3.849287890
H      -2.146682823     -4.316172381     -3.508969176
           6
  t=       160.00000    1    1
C      -4.701006649     -4.139898253     -4.008259096
C      -3.241883331     -3.790461310     -3.899897250
H      -5.695540656     -3.268913742     -4.048895089
H      -4.515186216     -5.326281417     -4.410324858
H      -2.988583033     -2.678595716     -3.862700531
H      -2.228961860     -4.303772193     -3.520232935
           6
  t=       160.50000    1    1
C      -4.706229472     -4.158528789     -4.008875716
C      -3.249883738     -3.804412996     -3.916252227
H      -5.681321880     -3.276269788     -4.119409392
H      -4.569407492     -5.280191570     -4.459909065
H      -3.051123158     -2.691560501     -3.875640012
H      -2.319407007     -4.291853479     -3.535518414
           6
  t=       161.00000    1    1
C      -4.710584100     -4.177271028     -4.009972573
C      -3.258673303     -3.817533344     -3.932363547
H      -5.656879034     -3.292921030     -4.189578623
H      -4.630284310     -5.227498277     -4.504899703
H      -3.114272728     -2.707846507     -3.888049205
H      -2.413753013     -4.282496734     -3.553453810
           6
  t=       161.50000    1    1
C      -4.714118876     -4.195914757     -4.011705525
C      -3.268882928     -3.829614770     -3.948399388
H      -5.622944217     -3.318223373     -4.258263478
H      -4.696842441     -5.171090695     -4.545270180
H      -3.176968320     -2.726943227     -3.899848951
H      -2.505211760     -4.278945724     -3.571423074
           6
  t=       162.00000    1    1
C      -4.716879903     -4.214207730     -4.014170216
C      -3.281321679     -3.840347941     -3.964643768
H      -5.580425650     -3.351331291     -4.324467442
H      -4.768172310     -5.114501911     -4.581621730
H      -3.238033477     -2.748164117     -3.910986041
H      -2.584771158     -4.285891035     -3.585350749
           6
  t=       162.50000    1    1
C      -4.718917447     -4.231877242     -4.017401166
C      -3.296750858     -3.849411448     -3.981434814
H      -5.530370067     -3.391017668     -4.387280827
H      -4.843443416     -5.061811652     -4.615178254
H      -3.296343637     -2.770558264     -3.921407456
H      -2.643669165     -4.308510245     -3.590535338
           6
  t=       163.00000    1    1
C      -4.720291369     -4.248677660     -4.021406645
C      -3.315475835     -3.856735866     -3.998932274
H      -5.474013401     -3.435520372     -4.445838781
H      -4.921994219     -5.017217098     -4.647467901
H      -3.350917433     -2.792779137     -3.931064208
H      -2.677960757     -4.349468964     -3.584360446
           6
  t=       163.50000    1    1
C      -4.721053667     -4.264507673     -4.026213646
C      -3.337131315     -3.862684911     -4.016935380
H      -5.413147435     -3.482505704     -4.499560345
H      -5.003397371     -4.983739768     -4.679549744
H      -3.400921785     -2.813279889     -3.939973658
H      -2.690847734     -4.406499473     -3.568401270
           6
  t=       164.00000    1    1
C      -4.721278059     -4.279486558     -4.031921551
C      -3.360931204     -3.867918885     -4.034989306
H      -5.349967730     -3.529180656     -4.548366873
H      -5.087178268     -4.962344555     -4.711106321
H      -3.445728617     -2.830691812     -3.948168313
H      -2.689725664     -4.473509383     -3.547256749
           6
  t=       164.50000    1    1
C      -4.721122378     -4.293901399     -4.038711596
C      -3.386058758     -3.873101049     -4.052621160
H      -5.286548264     -3.572488551     -4.592565988
H      -5.172281344     -4.952410107     -4.740358432
H      -3.484999749     -2.843889540     -3.955783781
H      -2.681765678     -4.543978111     -3.525738153
           6
  t=       165.00000    1    1
C      -4.720889109     -4.308097337     -4.046852698
C      -3.411809827     -3.878733417     -4.069430076
H      -5.224839373     -3.609208342     -4.632436209
H      -5.256779907     -4.952962855     -4.764590369
H      -3.518310999     -2.852174329     -3.963177174
H      -2.672154430     -4.612704569     -3.507497802
           6
  t=       165.50000    1    1
C      -4.720929129     -4.322366930     -4.056589384
C      -3.437566816     -3.885247575     -4.085091307
H      -5.167493595     -3.636333407     -4.667982631
H      -5.338046927     -4.962711617     -4.781607638
H      -3.545411606     -2.855219801     -3.971350530
H      -2.664295279     -4.675684288     -3.494678937
           6
  t=       166.00000    1    1
C      -4.721384785     -4.336937643     -4.067896127
C      -3.462993830     -3.892937262     -4.099498705
H      -5.116443450     -3.651917504     -4.700995261
H      -5.414365619     -4.979692391     -4.790106656
H      -3.566590336     -2.853177386     -3.980491174
H      -2.659989988     -4.730465568     -3.488176798
           6
  t=       166.50000    1    1
C      -4.722422368     -4.351977847     -4.080667180
C      -3.487879598     -3.901861773     -4.112638114
H      -5.072341705     -3.655410186     -4.733598625
H      -5.484787240     -5.002049925     -4.789328371
H      -3.582012914     -2.846788995     -3.990421901
H      -2.659904781     -4.775999439     -3.488231856
           6
  t=       167.00000    1    1
C      -4.724320269     -4.367534404     -4.094824051
C      -3.512011449     -3.911917126     -4.124502205
H      -5.034681104     -3.648132145     -4.766785987
H      -5.548659800     -5.028061250     -4.779184846
H      -3.591856523     -2.837565864     -4.001148129
H      -2.664238627     -4.811857535     -3.494955966
           6
  t=       167.50000    1    1
C      -4.727403064     -4.383572573     -4.110344332
C      -3.535148393     -3.922947161     -4.135089131
H      -5.003043898     -3.632443996     -4.800454709
H      -5.605218745     -5.056109731     -4.760004838
H      -3.596232020     -2.827255740     -4.012806060
H      -2.673066980     -4.837822850     -3.508275827
           6
  t=       168.00000    1    1
C      -4.732018793     -4.400001529     -4.127279961
C      -3.557036273     -3.934783463     -4.144396000
H      -4.977083297     -3.611101940     -4.833685818
H      -5.653554518     -5.084845407     -4.732145945
H      -3.595273314     -2.817722066     -4.025535828
H      -2.686393602     -4.853714712     -3.528028275
           6
  t=       168.50000    1    1
C      -4.738494549     -4.416709952     -4.145711369
C      -3.577433041     -3.947258571     -4.152421364
H      -4.956477712     -3.586750977     -4.865347359
H      -5.692817273     -5.113261877     -4.695945403
H      -3.589204263     -2.810746662     -4.039405490
H      -2.704152702     -4.859434578     -3.553998827
           6
  t=       169.00000    1    1
C      -4.747097925     -4.433596649     -4.165712005
C      -3.596115299     -3.960221570     -4.159160162
H      -4.941153152     -3.561655259     -4.894523493
H      -5.722314841     -5.140539225     -4.651766475
H      -3.578392822     -2.807851110     -4.054448993
H      -2.726215870     -4.855020667     -3.585891202
           6
  t=       169.50000    1    1
C      -4.758001397     -4.450576653     -4.187330314
C      -3.612905590     -3.973548273     -4.164606978
H      -4.931572333     -3.537869117     -4.920646026
H      -5.741419134     -5.165675556     -4.600106842
H      -3.563321579     -2.810170357     -4.070694849
H      -2.752325242     -4.840777802     -3.623234733
           6
  t=       170.00000    1    1
C      -4.771262093     -4.467562097     -4.210570123
C      -3.627708865     -3.987150516     -4.168769989
H      -4.928609478     -3.517182697     -4.943475890
H      -5.749631207     -5.187612865     -4.541726491
H      -3.544527655     -2.818436091     -4.088153271
H      -2.782020259     -4.817339684     -3.665355203
           6
  t=       170.50000    1    1
C      -4.786806701     -4.484430059     -4.235378289
C      -3.640535466     -4.000981798     -4.171684087
H      -4.933122117     -3.500833628     -4.963041266
H      -5.746909255     -5.205777175     -4.477661969
H      -3.522625578     -2.833052962     -4.106824634
H      -2.814621019     -4.785656803     -3.711405005
           6
  t=       171.00000    1    1
C      -4.804432564     -4.500997691     -4.261644337
C      -3.651505601     -4.015016616     -4.173426128
H      -4.945817414     -3.489715281     -4.979535305
H      -5.733864641     -5.220214706     -4.409210969
H      -3.498354052     -2.854118164     -4.126697895
H      -2.849052716     -4.747175011     -3.760304915
           6
  t=       171.50000    1    1
C      -4.823794155     -4.517028931     -4.289185194
C      -3.660874277     -4.029191922     -4.174161074
H      -4.967061107     -3.484489525     -4.993109496
H      -5.712066692     -5.231735218     -4.337961533
H      -3.472594909     -2.881374933     -4.147810960
H      -2.883577075     -4.704243540     -3.810493309
           6
  t=       172.00000    1    1
C      -4.844452295     -4.532228588     -4.317811107
C      -3.669018754     -4.043392941     -4.174113505
H      -4.997025769     -3.485805068     -5.003825024
H      -5.683876633     -5.241815200     -4.265368260
H      -3.446312029     -2.914290712     -4.170239955
H      -2.915434197     -4.660154773     -3.859963304
           6
  t=       172.50000    1    1
C      -4.865957149     -4.546276632     -4.347370339
C      -3.676464145     -4.057405228     -4.173561691
H      -5.035619480     -3.494404441     -5.011596658
H      -5.651952846     -5.252334380     -4.192391564
H      -3.420472633     -2.952018935     -4.194102897
H      -2.940193441     -4.619501668     -3.906213970
           6
  t=       173.00000    1    1
C      -4.887903730     -4.558874791     -4.377762209
C      -3.683868578     -4.070935858     -4.172804537
H      -5.082502947     -3.511079311     -5.016176821
H      -5.618717576     -5.265214480     -4.119395398
H      -3.395968806     -2.993239058     -4.219630458
H      -2.951863398     -4.587935844     -3.946536276
           6
  t=       173.50000    1    1
C      -4.909967233     -4.569822518     -4.408891380
C      -3.691874659     -4.083756268     -4.172098059
H      -5.137118551     -3.536426097     -5.017308584
H      -5.585829618     -5.281793748     -4.046448368
H      -3.373476405     -3.036443972     -4.247112781
H      -2.944880240     -4.570142931     -3.978913792
           6
  t=       174.00000    1    1
C      -4.931944423     -4.579090944     -4.440609329
C      -3.700829247     -4.095879249     -4.171587588
H      -5.198847441     -3.570594101     -5.014915709
H      -5.553745508     -5.302176776     -3.973900085
H      -3.353421146     -3.079951321     -4.276877421
H      -2.917269174     -4.567742928     -4.002783647
           6
  t=       174.50000    1    1
C      -4.953735016     -4.586874558     -4.472663962
C      -3.710634105     -4.107585673     -4.171307862
H      -5.267098058     -3.612851787     -5.009339058
H      -5.521895291     -5.325138948     -3.902836746
H      -3.335942932     -3.121866336     -4.309277289
H      -2.872417331     -4.578922532     -4.018955811
           6
  t=       175.00000    1    1
C      -4.975296645     -4.593521290     -4.504716457
C      -3.720876331     -4.119263809     -4.171245665
H      -5.341377728     -3.661720104     -5.001281794
H      -5.489334343     -5.348741489     -3.835087093
H      -3.320985627     -3.160425553     -4.344660180
H      -2.817242994     -4.600090716     -4.028745343
           6
  t=       175.50000    1    1
C      -4.996571828     -4.599458765     -4.536376107
C      -3.731118961     -4.131235701     -4.171409562
H      -5.421063059     -3.715079864     -4.991700019
H      -5.455327279     -5.371021425     -3.772792517
H      -3.308430918     -3.194376221     -4.383241965
H      -2.759114889     -4.627649597     -4.033392368
           6
  t=       176.00000    1    1
C      -5.017451887     -4.605120829     -4.567245548
C      -3.741037919     -4.143674984     -4.171853520
H      -5.505632680     -3.770452147     -4.981694138
H      -5.419599421     -5.390441602     -3.718011222
H      -3.298242544     -3.223232924     -4.425013145
H      -2.704021890     -4.658862099     -4.033839582
           6
  t=       176.50000    1    1
C      -5.037765792     -4.610900701     -4.596946846
C      -3.750437012     -4.156609324     -4.172671634
H      -5.594880096     -3.825377677     -4.972399834
H      -5.382392981     -5.406028760     -3.672530895
H      -3.290466824     -3.247290778     -4.469675427
H      -2.656257667     -4.691850519     -4.030844031
           6
  t=       177.00000    1    1
C      -5.057330452     -4.617098683     -4.625168378
C      -3.759203372     -4.169962725     -4.173982745
H      -5.688709807     -3.878000660     -4.964774587
H      -5.344408377     -5.417410748     -3.637617883
H      -3.285210753     -3.267397000     -4.516587964
H      -2.618636882     -4.725322838     -4.025119881
           6
  t=       177.50000    1    1
C      -5.076021918     -4.623872596     -4.651700911
C      -3.767303681     -4.183589417     -4.175927261
H      -5.786436823     -3.927636674     -4.959237414
H      -5.306588157     -5.424783602     -3.613936117
H      -3.282622469     -3.284658712     -4.564898899
H      -2.592627742     -4.758516724     -4.017256112
           6
  t=       178.00000    1    1
C      -5.093803227     -4.631259957     -4.676400435
C      -3.774745394     -4.197308364     -4.178671244
H      -5.886422313     -3.974761053     -4.955764889
H      -5.270027467     -5.428694562     -3.601761800
H      -3.282821791     -3.300180189     -4.613566880
H      -2.579005756     -4.791015437     -4.007778571
           6
  t=       178.50000    1    1
C      -5.110714858     -4.639222649     -4.699178693
C      -3.781569408     -4.210940222     -4.182393604
H      -5.986281769     -4.020507654     -4.954091429
H      -5.235866317     -5.429860319     -3.600980747
H      -3.285749323     -3.315042559     -4.661374285
H      -2.578105160     -4.822478503     -3.997204424
           6
  t=       179.00000    1    1
C      -5.126825080     -4.647689579     -4.719987029
C      -3.787847936     -4.224377741     -4.187270367
H      -6.083379973     -4.066116538     -4.953859062
H      -5.205141629     -5.428742681     -3.611245501
H      -3.291330130     -3.330095811     -4.707028538
H      -2.589925234     -4.852479144     -3.986013999
           6
  t=       179.50000    1    1
C      -5.142224773     -4.656617490     -4.738783402
C      -3.793626447     -4.237574591     -4.193445648
H      -6.175173216     -4.112555745     -4.954763092
H      -5.178745724     -5.425419576     -3.632358289
H      -3.299565219     -3.345817565     -4.749386793
H      -2.614491682     -4.880561274     -3.974636302
           6
  t=       180.00000    1    1
C      -5.157026013     -4.665983092     -4.755580284
C      -3.798947987     -4.250508634     -4.200980957
H      -6.259491059     -4.160386110     -4.956445514
H      -5.157199950     -5.419900910     -3.664166193
H      -3.310357448     -3.362624094     -4.787763575
H      -2.651702349     -4.906279149     -3.963386210
           6
  t=       180.50000    1    1
C      -5.171331439     -4.675764886     -4.770431964
C      -3.803875346     -4.263175372     -4.209878727
H      -6.334634308     -4.209878308     -4.958583609
H      -5.140793783     -5.412246693     -3.706410622
H      -3.323504031     -3.380847658     -4.821809521
H      -2.701198534     -4.929279636     -3.952518514
           6
  t=       181.00000    1    1
C      -5.185213972     -4.685937053     -4.783402249
C      -3.808503220     -4.275561237     -4.220139509
H      -6.399300692     -4.261081205     -4.961002507
H      -5.129929858     -5.402839551     -3.758532194
H      -3.338661322     -3.400703937     -4.851281981
H      -2.762226266     -4.949384869     -3.942243224
           6
  t=       181.50000    1    1
C      -5.198715089     -4.696450781     -4.794582512
C      -3.812972443     -4.287629488     -4.231777474
H      -6.452367571     -4.313912813     -4.963589683
H      -5.125288873     -5.392627625     -3.819399655
H      -3.355346130     -3.422280025     -4.876021054
H      -2.833538296     -4.966661008     -3.932706426
           6
  t=       182.00000    1    1
C      -5.211850482     -4.707221497     -4.804096357
C      -3.817475474     -4.299313086     -4.244829423
H      -6.492810519     -4.368176687     -4.966295394
H      -5.127754371     -5.383267859     -3.887224549
H      -3.372943820     -3.445527250     -4.895959607
H      -2.913409896     -4.981502806     -3.923902094
           6
  t=       182.50000    1    1
C      -5.224612234     -4.718118350     -4.812097138
C      -3.822259195     -4.310526260     -4.259356362
H      -6.519804010     -4.423537571     -4.969185271
H      -5.138077352     -5.377056605     -3.959638989
H      -3.390779234     -3.470286160     -4.911122501
H      -2.999743323     -4.994689804     -3.915553391
           6
  t=       183.00000    1    1
C      -5.236975462     -4.728932838     -4.818801877
C      -3.827628752     -4.321162021     -4.275437595
H      -6.532883364     -4.479477670     -4.972473861
H      -5.156549473     -5.377205625     -4.033414874
H      -3.408150852     -3.496351738     -4.921658521
H      -3.090073593     -5.007492349     -3.906994158
           6
  t=       183.50000    1    1
C      -5.248909079     -4.739344698     -4.824516469
C      -3.833963264     -4.331062175     -4.293183670
H      -6.531892714     -4.535246762     -4.976545857
H      -5.183006811     -5.388453908     -4.104106523
H      -3.424197205     -3.523472920     -4.927846354
H      -3.181434947     -5.021873873     -3.897044492
           6
  t=       184.00000    1    1
C      -5.260348035     -4.748959790     -4.829585812
C      -3.841708546     -4.340045635     -4.312707345
H      -6.517003549     -4.589848025     -4.981814475
H      -5.216996872     -5.416555120     -4.166919513
H      -3.437816739     -3.551213060     -4.930253491
H      -3.270672834     -5.040368390     -3.884064828
           6
  t=       184.50000    1    1
C      -5.271168625     -4.757468919     -4.834283744
C      -3.851291311     -4.348032480     -4.334032964
H      -6.488763052     -4.642114022     -4.988456104
H      -5.257956371     -5.465946410     -4.218696669
H      -3.447847891     -3.578592263     -4.929942609
H      -3.355354410     -5.065322670     -3.866420250
           6
  t=       185.00000    1    1
C      -5.281214493     -4.764879244     -4.838680641
C      -3.863004556     -4.355218545     -4.356959861
H      -6.448938137     -4.690742417     -4.996815996
H      -5.304434069     -5.536380450     -4.259483048
H      -3.453254652     -3.603801414     -4.928554525
H      -3.434571811     -5.097676690     -3.843632104
           6
  t=       185.50000    1    1
C      -5.290446088     -4.771588428     -4.842631180
C      -3.876894178     -4.362095790     -4.381114596
H      -6.400523195     -4.734291465     -5.007850186
H      -5.353984424     -5.622537781     -4.292018305
H      -3.453185181     -3.624420662     -4.927635101
H      -3.508552431     -5.136011018     -3.816640258
           6
  t=       186.00000    1    1
C      -5.298823744     -4.778163236     -4.845875567
C      -3.892789170     -4.369204818     -4.406079552
H      -6.347729449     -4.771515817     -5.022748837
H      -5.404597404     -5.717595524     -4.320193600
H      -3.447057418     -3.638710606     -4.928263515
H      -3.578187461     -5.176938284     -3.787356048
           6
  t=       186.50000    1    1
C      -5.306123853     -4.785148147     -4.848181312
C      -3.910538231     -4.377031508     -4.431473261
H      -6.296043771     -4.801460269     -5.042792172
H      -5.454573601     -5.814881185     -4.347132327
H      -3.434778835     -3.645850706     -4.930893774
H      -3.644249219     -5.216629278     -3.758237530
           6
  t=       187.00000    1    1
C      -5.311976219     -4.792917722     -4.849398228
C      -3.930029799     -4.385916141     -4.457009539
H      -6.251888479     -4.823604570     -5.069569462
H      -5.502530101     -5.909243331     -4.374512403
H      -3.416976638     -3.646143629     -4.935264063
H      -3.706811590     -5.251935215     -3.731479006
           6
  t=       187.50000    1    1
C      -5.316018450     -4.801667870     -4.849438704
C      -3.951114676     -4.396021056     -4.482488774
H      -6.221429729     -4.837869209     -5.105011047
H      -5.547481019     -5.997365031     -4.402954315
H      -3.395009085     -3.641036876     -4.940540437
H      -3.765432001     -5.280536278     -3.708786054
           6
  t=       188.00000    1    1
C      -5.318095976     -4.811497185     -4.848287612
C      -3.973569403     -4.407367974     -4.507756468
H      -6.208586503     -4.844398002     -5.150839541
H      -5.588764648     -6.077152168     -4.432585171
H      -3.370804195     -3.632746378     -4.945617510
H      -3.819429590     -5.300733175     -3.691435529
           6
  t=       188.50000    1    1
C      -5.318416798     -4.822454521     -4.846064008
C      -3.997119509     -4.419868318     -4.532689796
H      -6.212962467     -4.843325036     -5.207471590
H      -5.626083623     -6.147553692     -4.463284139
H      -3.346496010     -3.623736662     -4.949432169
H      -3.868156084     -5.311451674     -3.680239654
           6
  t=       189.00000    1    1
C      -5.317516853     -4.834545611     -4.843047673
C      -4.021489312     -4.433366513     -4.557205410
H      -6.229882533     -4.834844496     -5.273400938
H      -5.659332130     -6.208213246     -4.494693691
H      -3.324148292     -3.616279832     -4.951104168
H      -3.911227489     -5.312367328     -3.675601822
           6
  t=       189.50000    1    1
C      -5.316079551     -4.847759463     -4.839632799
C      -4.046393730     -4.447683467     -4.581229377
H      -6.253021474     -4.819375171     -5.345667510
H      -5.688420745     -6.258969386     -4.526390121
H      -3.305553550     -3.612186443     -4.950074762
H      -3.948519620     -5.303677206     -3.677648462
           6
  t=       190.00000    1    1
C      -5.314758319     -4.862059372     -4.836247339
C      -4.071531648     -4.462631777     -4.604688660
H      -6.276665085     -4.797871513     -5.420761082
H      -5.713386703     -6.299659617     -4.557989414
H      -3.292152848     -3.612750900     -4.946080451
H      -3.980070325     -5.285965347     -3.686308266
           6
  t=       190.50000    1    1
C      -5.314149033     -4.877402639     -4.833303412
C      -4.096569405     -4.478015721     -4.627506892
H      -6.296400532     -4.771855797     -5.495222317
H      -5.734428360     -6.329871766     -4.589298658
H      -3.285048880     -3.618786368     -4.939143965
H      -4.005866944     -5.260149429     -3.701210005
           6
  t=       191.00000    1    1
C      -5.314798070     -4.893762195     -4.831171132
C      -4.121140631     -4.493626982     -4.649611007
H      -6.309449439     -4.742768119     -5.566336224
H      -5.751611362     -6.349258215     -4.620059764
H      -3.285029009     -3.630677024     -4.929563577
H      -4.025689910     -5.227557601     -3.721488980
           6
  t=       191.50000    1    1
C      -5.317203952     -4.911141067     -4.830160516
C      -4.144850027     -4.509236251     -4.670942647
H      -6.314513078     -4.711756588     -5.632313106
H      -5.764860436     -6.357630239     -4.649905104
H      -3.292604319     -3.648470827     -4.917864289
H      -4.039172194     -5.189878777     -3.745778833
           6
  t=       192.00000    1    1
C      -5.321818227     -4.929574051     -4.830513481
C      -4.167290260     -4.524591529     -4.691468778
H      -6.311200432     -4.679794254     -5.692027690
H      -5.774109472     -6.354897744     -4.678483952
H      -3.308075305     -3.672003757     -4.904741443
H      -4.045943564     -5.148982180     -3.772371217
           6
  t=       192.50000    1    1
C      -5.329045271     -4.949116916     -4.832414756
C      -4.188082572     -4.539434069     -4.711188935
H      -6.299461168     -4.647796124     -5.744684453
H      -5.779293928     -6.340938190     -4.705477001
H      -3.331570315     -3.700982304     -4.890971557
H      -4.045685285     -5.106787444     -3.799408826
           6
  t=       193.00000    1    1
C      -5.339205247     -4.969832485     -4.835998994
C      -4.206939966     -4.553528531     -4.730142886
H      -6.279361507     -4.616684519     -5.789619496
H      -5.780280340     -6.315429485     -4.730601019
H      -3.362982151     -3.734921854     -4.877395713
H      -4.038176612     -5.065234638     -3.824919380
           6
  t=       193.50000    1    1
C      -5.352475602     -4.991764697     -4.841359066
C      -4.223735147     -4.566712750     -4.748399041
H      -6.251089092     -4.587372359     -5.826261887
H      -5.776885760     -6.277867570     -4.753595249
H      -3.401660020     -3.772571177     -4.865270634
H      -4.023466078     -5.026574862     -3.846556059
           6
  t=       194.00000    1    1
C      -5.368852763     -5.014887938     -4.848560679
C      -4.238530355     -4.578956224     -4.766000409
H      -6.215004655     -4.560669549     -5.854193888
H      -5.769093862     -6.228123792     -4.774132655
H      -3.446382359     -3.811908663     -4.856120507
H      -4.001731723     -4.992817136     -3.862244017
           6
  t=       194.50000    1    1
C      -5.388107104     -5.039029234     -4.857630781
C      -4.251568405     -4.590391539     -4.782915037
H      -6.171774483     -4.537253457     -5.873249199
H      -5.757478043     -6.167501515     -4.791779529
H      -3.495357537     -3.850504429     -4.851197351
H      -3.973368373     -4.964891856     -3.871390906
           6
  t=       195.00000    1    1
C      -5.409789555     -5.063813265     -4.868563634
C      -4.263225708     -4.601317919     -4.799014764
H      -6.122553285     -4.517727944     -5.883605297
H      -5.743422520     -6.099301436     -4.806009558
H      -3.545950841     -3.885020942     -4.851703644
H      -3.939337609     -4.943138740     -3.874738550
           6
  t=       195.50000    1    1
C      -5.433304299     -5.088575419     -4.881354681
C      -4.273925136     -4.612174255     -4.814093536
H      -6.068995131     -4.502670019     -5.885693161
H      -5.729317781     -6.029855202     -4.816243415
H      -3.594905348     -3.911386828     -4.858737133
H      -3.900912524     -4.927410096     -3.873847129
           6
  t=       196.00000    1    1
C      -5.457946579     -5.112202359     -4.896058761
C      -4.284083328     -4.623465793     -4.827892391
H      -6.012948060     -4.492556682     -5.880160595
H      -5.719062627     -5.970690444     -4.821422171
H      -3.638880105     -3.925223293     -4.873251631
H      -3.859120355     -4.917325946     -3.870606247
           6
  t=       196.50000    1    1
C      -5.482955957     -5.133165342     -4.912818880
C      -4.294048937     -4.635634274     -4.840153621
H      -5.956012331     -4.487949809     -5.867564448
H      -5.717907451     -5.938361135     -4.819699310
H      -3.675236119     -3.922774119     -4.896015457
H      -3.814656157     -4.912479007     -3.866903967
           6
  t=       197.00000    1    1
C      -5.507656179     -5.150217631     -4.931752105
C      -4.303991724     -4.648894530     -4.850697134
H      -5.899781515     -4.489452353     -5.848542420
H      -5.729793824     -5.946122362     -4.809049192
H      -3.703559936     -3.903034171     -4.927267238
H      -3.768433434     -4.912312190     -3.864640612
           6
  t=       197.50000    1    1
C      -5.531658309     -5.163150216     -4.952809004
C      -4.313805226     -4.663177370     -4.859417237
H      -5.846356036     -4.497190040     -5.824443389
H      -5.755044977     -5.995455749     -4.788492429
H      -3.726044092     -3.868265756     -4.966798252
H      -3.721739010     -4.916270817     -3.865503824
           6
  t=       198.00000    1    1
C      -5.554876160     -5.172905978     -4.975640213
C      -4.323194552     -4.678212988     -4.866299991
H      -5.798196801     -4.510237309     -5.797626039
H      -5.790406959     -6.075203364     -4.759374569
H      -3.746430102     -3.823057025     -5.013895138
H      -3.676165204     -4.923830058     -3.870831732
           6
  t=       198.50000    1    1
C      -5.577363433     -5.180996310     -4.999621908
C      -4.331824009     -4.693676513     -4.871378323
H      -5.758027348     -4.526396394     -5.771743820
H      -5.831274197     -6.168720909     -4.725134747
H      -3.768380082     -3.772657139     -5.067317802
H      -3.633292085     -4.934444652     -3.881812781
           6
  t=       199.00000    1    1
C      -5.599080571     -5.188736878     -5.023971865
C      -4.339437294     -4.709265750     -4.874744418
H      -5.728518693     -4.542365407     -5.751748207
H      -5.874295791     -6.262884303     -4.689732102
H      -3.794646522     -3.722161535     -5.125269046
H      -3.594572411     -4.947368892     -3.899555835
           6
  t=       199.50000    1    1
C      -5.619906797     -5.197060039     -5.047918053
C      -4.345920426     -4.724755143     -4.876536776
H      -5.711499656     -4.554003569     -5.743165061
H      -5.917645472     -6.350138634     -4.656199508
H      -3.826803408     -3.675483605     -5.185911881
H      -3.561226923     -4.961963104     -3.924888114
           6
  t=       200.00000    1    1
C      -5.639764087     -5.206660386     -5.070796584
C      -4.351300075     -4.739998569     -4.876949428
H      -5.707620286     -4.557433451     -5.750646949
H      -5.960085697     -6.425806925     -4.626863901
H      -3.865161178     -3.635303923     -5.247396481
H      -3.534144619     -4.977565729     -3.958278574
