           6
  t=         0.00000    2    2
C      -0.007132293     -0.059316072     -0.019221288
C       1.352725195      0.066462070      0.020724220
H      -0.624430887      0.887775709     -0.019231797
H       1.733261745      0.918517788      0.010284268
H       1.940527366     -0.862823120     -0.171374188
H      -0.383249276     -1.028556522      0.162426648
           6
  t=         0.50000    2    2
C      -0.005560537     -0.059231190     -0.019141068
C       1.351043304      0.066229454      0.020611847
H      -0.624413045      0.887918193     -0.020583977
H       1.734982329      0.920536060      0.011883889
H       1.940771690     -0.862672091     -0.171360481
H      -0.383919689     -1.029107959      0.162548632
           6
  t=         1.00000    2    2
C      -0.004151877     -0.058980969     -0.018902443
C       1.349305555      0.065541244      0.020280489
H      -0.624361099      0.886698070     -0.024637092
H       1.740113149      0.928121756      0.016661606
H       1.941513537     -0.862206295     -0.172985391
H      -0.385922992     -1.030720382      0.164553911
           6
  t=         1.50000    2    2
C      -0.002927522     -0.058575870     -0.018509456
C       1.347544228      0.064422833      0.019742860
H      -0.624301038      0.884140451     -0.031397162
H       1.748509099      0.940927757      0.024577183
H       1.942760168     -0.861384999     -0.176314015
H      -0.389227242     -1.033290471      0.168450526
           6
  t=         2.00000    2    2
C      -0.001904728     -0.058031481     -0.017967119
C       1.345798069      0.062917106      0.019015279
H      -0.624280705      0.880294358     -0.040896757
H       1.759905678      0.958355646      0.035601458
H       1.944517146     -0.860141789     -0.181453784
H      -0.393781757     -1.036660477      0.174272926
           6
  t=         2.50000    2    2
C      -0.001096503     -0.057367872     -0.017280122
C       1.344113373      0.061087821      0.018114350
H      -0.624367793      0.875229237     -0.053204013
H       1.773904521      0.979530217      0.049733450
H       1.946789928     -0.858394018     -0.188546222
H      -0.399522557     -1.040627873      0.182089779
           6
  t=         3.00000    2    2
C      -0.000509152     -0.056608998     -0.016451863
C       1.342541302      0.059019446      0.017054830
H      -0.624646776      0.869026097     -0.068439020
H       1.789980142      1.003316284      0.067017090
H       1.949584818     -0.856050838     -0.197770692
H      -0.406380467     -1.044950402      0.192021247
           6
  t=         3.50000    2    2
C      -0.000138515     -0.055782392     -0.015483916
C       1.341129683      0.056808579      0.015848409
H      -0.625216125      0.861771546     -0.086786828
H       1.807536113      1.028436818      0.087551388
H       1.952911094     -0.853021417     -0.209349174
H      -0.414289381     -1.049351398      0.204254817
           6
  t=         4.00000    2    2
C       0.000031509     -0.054919726     -0.014376610
C       1.339913900      0.054550293      0.014502962
H      -0.626189894      0.853555157     -0.108491671
H       1.826001837      1.053652973      0.111489259
H       1.956786365     -0.849218977     -0.223538281
H      -0.423195673     -1.053523847      0.219048498
           6
  t=         4.50000    2    2
C       0.000031874     -0.054056581     -0.013129107
C       1.338907235      0.052327221      0.013020443
H      -0.627696948      0.844467125     -0.133817260
H       1.844915690      1.077907948      0.139011976
H       1.961239897     -0.844563401     -0.240581431
H      -0.433065255     -1.057141923      0.236694896
           6
  t=         5.00000    2    2
C      -0.000090748     -0.053231280     -0.011740061
C       1.338095985      0.050204150      0.011395754
H      -0.629878360      0.834593667     -0.163001137
H       1.863971607      1.100398163      0.170299328
H       1.966314620     -0.838981670     -0.260661193
H      -0.443886775     -1.059876597      0.257479030
           6
  t=         5.50000    2    2
C      -0.000277493     -0.052483046     -0.010209415
C       1.337441172      0.048226577      0.009618294
H      -0.632876844      0.824006911     -0.196183538
H       1.883028097      1.120584387      0.205468597
H       1.972061955     -0.832402225     -0.283838432
H      -0.455664380     -1.061407114      0.281610360
           6
  t=         6.00000    2    2
C      -0.000468697     -0.051850411     -0.008540242
C       1.336891710      0.046425813      0.007675753
H      -0.636824501      0.812744386     -0.233370466
H       1.902072335      1.138112555      0.244532872
H       1.978534746     -0.824737240     -0.310032954
H      -0.468408233     -1.061418687      0.309184887
           6
  t=         6.50000    2    2
C      -0.000626313     -0.051367851     -0.006738289
C       1.336411559      0.044828226      0.005558438
H      -0.641815644      0.800784922     -0.274347605
H       1.921134259      1.152684847      0.287289239
H       1.985766231     -0.815871820     -0.338945980
H      -0.482111058     -1.059610638      0.340076446
           6
  t=         7.00000    2    2
C      -0.000725499     -0.051063636     -0.004811572
C       1.335977365      0.043463075      0.003261897
H      -0.647906588      0.788046715     -0.318750955
H       1.940210580      1.163934182      0.333362451
H       1.993768719     -0.805657636     -0.370137788
H      -0.496743342     -1.055694177      0.374005099
           6
  t=         7.50000    2    2
C      -0.000747364     -0.050956999     -0.002771605
C       1.335575770      0.042366210      0.000791616
H      -0.655107759      0.774394507     -0.366094319
H       1.959204604      1.171365998      0.382202061
H       2.002527748     -0.793923303     -0.403074119
H      -0.512249416     -1.049408884      0.410572652
           6
  t=         8.00000    2    2
C      -0.000679156     -0.051055826     -0.000633402
C       1.335205829      0.041580238     -0.001833942
H      -0.663370988      0.759625011     -0.415817865
H       1.977899617      1.174345057      0.433106331
H       2.011994922     -0.780472922     -0.437188921
H      -0.528553019     -1.040525852      0.449313896
           6
  t=         8.50000    2    2
C      -0.000532147     -0.051358857      0.001586570
C       1.334899233      0.041153630     -0.004582837
H      -0.672577276      0.743408339     -0.467381340
H       1.995944973      1.172072649      0.485300826
H       2.022063308     -0.765039972     -0.471983417
H      -0.545558890     -1.028775571      0.489779844
           6
  t=         9.00000    2    2
C      -0.000347279     -0.051859513      0.003872956
C       1.334727522      0.041135546     -0.007414659
H      -0.682493490      0.725199508     -0.520376393
H       2.012855161      1.163613464      0.538090918
H       2.032489796     -0.747231707     -0.507145309
H      -0.563136124     -1.013734683      0.531645933
           6
  t=         9.50000    2    2
C      -0.000195654     -0.052555285      0.006213221
C       1.334809815      0.041571698     -0.010294524
H      -0.692671286      0.703990622     -0.574677988
H       2.027988013      1.147836064      0.591157474
H       2.042702878     -0.726356807     -0.542723293
H      -0.581091558     -0.994529754      0.574888660
           6
  t=        10.00000    2    2
C      -0.000069819     -0.053435503      0.008567278
C       1.335181220      0.042475085     -0.013184161
H      -0.702616385      0.678947923     -0.629745492
H       2.040826265      1.124156745      0.644053936
H       2.052104393     -0.701921940     -0.578588282
H      -0.599311173     -0.970518673      0.619306486
