           6
  t=         0.00000    2    2
C      -0.665602229      0.005453060     -0.006408241
C       0.650881688     -0.010451070      0.008048971
H      -1.187503412      0.905937600      0.033598160
H      -1.192305563     -0.915052651     -0.001483638
H       1.267791279      0.956092201     -0.035544780
H       1.287422822     -0.887422578     -0.016120140
           6
  t=         0.50000    2    2
C      -0.667527855      0.005263796     -0.006778769
C       0.656239475     -0.010022095      0.007294391
H      -1.201068014      0.912820706      0.038159437
H      -1.203982221     -0.922207885     -0.000500009
H       1.262612919      0.951408542     -0.033318100
H       1.276945730     -0.885323345     -0.010484933
           6
  t=         1.00000    1    1
C      -0.670825136      0.004915161     -0.007153381
C       0.663429778     -0.009183682      0.006540427
H      -1.216504422      0.921655883      0.044156998
H      -1.216844822     -0.929785254     -0.001019467
H       1.255087384      0.943285316     -0.032372057
H       1.266382104     -0.884294179     -0.003460958
           6
  t=         1.50000    1    1
C      -0.679721423     -0.000485008     -0.012411096
C       0.666621453     -0.012847230      0.000839082
H      -1.291361304      0.872836087     -0.008026570
H      -1.288723024     -0.995586845     -0.060626653
H       1.187268165      0.874177163     -0.090173444
H       1.197761204     -0.943713844     -0.054433135
           6
  t=         2.00000    1    1
C      -0.688874111     -0.006505120     -0.017704912
C       0.669492804     -0.016780825     -0.004959690
H      -1.366390283      0.825796399     -0.060667378
H      -1.357268812     -1.056467467     -0.119013733
H       1.122631125      0.809522417     -0.146992933
H       1.129669906     -1.003683165     -0.105558995
           6
  t=         2.50000    1    1
C      -0.698468911     -0.013377081     -0.023156205
C       0.671358559     -0.022024813     -0.010775226
H      -1.440358615      0.780603201     -0.113357205
H      -1.419930149     -1.109809833     -0.175095754
H       1.067719650      0.759405370     -0.204255718
H       1.062158339     -1.061810373     -0.156421409
           6
  t=         3.00000    1    1
C      -0.708693740     -0.021197378     -0.028889160
C       0.671580465     -0.029664078     -0.016412646
H      -1.511631484      0.736893184     -0.165499705
H      -1.474882933     -1.154199044     -0.227821659
H       1.028673435      0.734017313     -0.265079007
H       0.995472311     -1.115261489     -0.206392948
           6
  t=         3.50000    1    1
C      -0.719733001     -0.030002598     -0.035027966
C       0.669827732     -0.040274540     -0.021697185
H      -1.578456869      0.694113602     -0.216284615
H      -1.520889541     -1.188771212     -0.276280950
H       1.008082485      0.737985862     -0.332567889
H       0.930170987     -1.161676851     -0.254691918
           6
  t=         4.00000    1    1
C      -0.731698325     -0.039742134     -0.041675161
C       0.666216513     -0.053550390     -0.026684581
H      -1.639112061      0.651716608     -0.264809151
H      -1.557581289     -1.213485853     -0.319998213
H       1.003046469      0.766473908     -0.406970807
H       0.867009493     -1.199958924     -0.300562099
           6
  t=         4.50000    1    1
C      -0.744659685     -0.050310439     -0.048934152
C       0.661084288     -0.068673470     -0.031686597
H      -1.692046809      0.609228691     -0.310212094
H      -1.585004305     -1.228794291     -0.358610204
H       1.008135805      0.808964704     -0.485093396
H       0.806725690     -1.229672689     -0.343475315
           6
  t=         5.00000    1    1
C      -0.758693190     -0.061604954     -0.056924117
C       0.654771812     -0.084877832     -0.037037636
H      -1.735929170      0.566213666     -0.351746321
H      -1.603334040     -1.235108723     -0.391684675
H       1.018503806      0.855995122     -0.562912245
H       0.749856389     -1.250855504     -0.383229622
           6
  t=         5.50000    1    1
C      -0.773858493     -0.073563381     -0.065776790
C       0.647497731     -0.101630770     -0.042992515
H      -1.769651655      0.522442008     -0.388716782
H      -1.612624521     -1.232628258     -0.418688010
H       1.030770650      0.901035487     -0.637104172
H       0.696833422     -1.263638903     -0.419770842
           6
  t=         6.00000    1    1
C      -0.790164576     -0.086162773     -0.075617539
C       0.639360945     -0.118550492     -0.049770069
H      -1.792377614      0.478037327     -0.420536613
H      -1.612842232     -1.221621831     -0.438978629
H       1.042653193      0.939387923     -0.704835376
H       0.647998333     -1.268002442     -0.453059810
           6
  t=         6.50000    1    1
C      -0.807472103     -0.099404679     -0.086451507
C       0.630322477     -0.135342278     -0.057585185
H      -1.804388174      0.434422070     -0.447129631
H      -1.604029916     -1.203193128     -0.452343446
H       1.052562236      0.967678654     -0.763896153
H       0.604068344     -1.264384421     -0.482973695
           6
  t=         7.00000    1    1
C      -0.825554877     -0.113341842     -0.098248337
C       0.620291765     -0.151794100     -0.066564557
H      -1.806815511      0.393671641     -0.468731776
H      -1.586400748     -1.178681152     -0.458679571
H       1.059572523      0.984310091     -0.813045440
H       0.565697890     -1.253821668     -0.509472587
           6
  t=         7.50000    1    1
C      -0.844197842     -0.127994189     -0.110900846
C       0.609154341     -0.167881331     -0.076678986
H      -1.801315196      0.357822409     -0.485829391
H      -1.560053804     -1.149536633     -0.458376417
H       1.063607782      0.989635843     -0.852856599
H       0.533519301     -1.237309409     -0.532732452
           6
  t=         8.00000    1    1
C      -0.863115405     -0.143348723     -0.124317812
C       0.596852795     -0.183572692     -0.087837549
H      -1.789980710      0.328586893     -0.499078122
H      -1.525784036     -1.117578175     -0.451816162
H       1.064678870      0.984370003     -0.884022167
H       0.507691203     -1.215983239     -0.553193315
           6
  t=         8.50000    1    1
C      -0.881974761     -0.159339746     -0.138388144
C       0.583376084     -0.198749381     -0.099956985
H      -1.775391319      0.307700128     -0.509266748
H      -1.485047415     -1.085234357     -0.439526282
H       1.062717366      0.968872887     -0.906844618
H       0.488483257     -1.191708374     -0.571552271
           6
  t=         9.00000    1    1
C      -0.900391316     -0.175806218     -0.152961145
C       0.568724334     -0.213208892     -0.112975027
H      -1.760431256      0.296912829     -0.517249759
H      -1.439839452     -1.055890905     -0.422326943
H       1.057594317      0.943123835     -0.921228517
H       0.476319944     -1.167161036     -0.588767723
           6
  t=         9.50000    1    1
C      -0.917897603     -0.192405976     -0.167826480
C       0.552886030     -0.226688850     -0.126846044
H      -1.747781980      0.297689569     -0.523838122
H      -1.393076487     -1.034751687     -0.401662297
H       1.049143363      0.906901947     -0.926833412
H       0.471532469     -1.145584506     -0.605974995
           6
  t=        10.00000    1    1
C      -0.933964770     -0.208583154     -0.182742902
C       0.535818720     -0.238897303     -0.141533454
H      -1.739240244      0.310752782     -0.529547834
H      -1.348786119     -1.029044216     -0.379581283
H       1.037216667      0.859962197     -0.923252065
H       0.474297217     -1.130331022     -0.624326925
           6
  t=        10.50000    1    1
C      -0.948153203     -0.223687236     -0.197528031
C       0.517477905     -0.249565841     -0.156993131
H      -1.735239547      0.335588457     -0.534384842
H      -1.311172267     -1.046242513     -0.358022322
H       1.021713857      0.802270262     -0.910232274
H       0.484643917     -1.124327822     -0.644830313
           6
  t=        11.00000    1    1
C      -0.960298196     -0.237248560     -0.212133412
C       0.497847066     -0.258535986     -0.173194045
H      -1.734945694      0.370322478     -0.537920574
H      -1.282945906     -1.090584100     -0.337807939
H       1.002703347      0.734307900     -0.887801130
H       0.502615183     -1.129429749     -0.668011230
           6
  t=        11.50000    1    1
C      -0.970561293     -0.249289210     -0.226650654
C       0.476915325     -0.265837420     -0.190167582
H      -1.736881663      0.412407652     -0.539542354
H      -1.263933781     -1.159846490     -0.318217281
H       0.980523882      0.657250918     -0.856216286
H       0.528276536     -1.145871074     -0.693479979
           6
  t=        12.00000    1    1
C      -0.979374020     -0.260362014     -0.241216493
C       0.454750505     -0.271805344     -0.207951792
H      -1.739343525      0.458897910     -0.538741298
H      -1.251761224     -1.245117399     -0.298025717
H       0.956032661      0.573696100     -0.816666185
H       0.561025930     -1.171633334     -0.719698952
           6
  t=        12.50000    1    1
C      -0.987170141     -0.271140118     -0.255908963
C       0.431432659     -0.277003211     -0.226550478
H      -1.740607677      0.506658143     -0.535085809
H      -1.244352467     -1.335953558     -0.276718661
H       0.930922674      0.487903510     -0.771379883
H       0.599585720     -1.203549848     -0.744410129
           6
  t=        13.00000    1    1
C      -0.994278737     -0.282126001     -0.270750860
C       0.406967702     -0.282174067     -0.245872747
H      -1.739317878      0.552961417     -0.528171659
H      -1.240516967     -1.424270420     -0.254491678
H       0.908253089      0.406047064     -0.723774857
H       0.642200690     -1.238310873     -0.765216108
           6
  t=        13.50000    1    1
C      -1.000982899     -0.293570120     -0.285722561
C       0.381185470     -0.288254213     -0.265656179
H      -1.734504204      0.595313965     -0.517671752
H      -1.239936861     -1.504900462     -0.231823510
H       0.893640359      0.336764669     -0.678860530
H       0.687367451     -1.273087060     -0.780316559
           6
  t=        14.00000    1    1
C      -1.007561461     -0.305564097     -0.300796761
C       0.353794765     -0.296226376     -0.285532955
H      -1.725676737      0.631626056     -0.503325729
H      -1.242726680     -1.574578855     -0.209290310
H       0.894660795      0.289547565     -0.642089816
H       0.733926597     -1.305743121     -0.788650957
           6
  t=        14.50000    1    1
C      -1.014322657     -0.318182929     -0.315937154
C       0.324753364     -0.306741451     -0.305300627
H      -1.712638855      0.660254190     -0.485119895
H      -1.249161622     -1.630729796     -0.187577531
H       0.917016676      0.270298456     -0.616198098
H       0.780430374     -1.334464604     -0.789657036
           6
  t=        15.00000    1    1
C      -1.021466912     -0.331473660     -0.331059857
C       0.294537100     -0.319717094     -0.325113360
H      -1.695520536      0.680286178     -0.463761363
H      -1.259190952     -1.672077832     -0.167241428
H       0.959613464      0.276995406     -0.598754629
H       0.824770880     -1.358013457     -0.783664764
           6
  t=        15.50000    1    1
C      -1.029156036     -0.345389831     -0.346082511
C       0.264099304     -0.334533246     -0.345332063
H      -1.674609162      0.691049615     -0.439951094
H      -1.272433346     -1.698453346     -0.148677959
H       1.014825407      0.301608189     -0.584740834
H       0.865048446     -1.375798656     -0.771276669
           6
  t=        16.00000    1    1
C      -1.037611822     -0.359846631     -0.360933762
C       0.234543249     -0.350503424     -0.366213682
H      -1.650362073      0.692177960     -0.414199114
H      -1.288423243     -1.710224036     -0.132287206
H       1.073482430      0.335357298     -0.570479687
H       0.899921459     -1.387496965     -0.753048208
           6
  t=        16.50000    1    1
C      -1.047104883     -0.374762986     -0.375537606
C       0.206801152     -0.367154847     -0.387852317
H      -1.623388910      0.683605877     -0.387000236
H      -1.306690868     -1.707881702     -0.118405592
H       1.128799579      0.371971215     -0.554352321
H       0.928431294     -1.392879271     -0.729551382
           6
  t=        17.00000    1    1
C      -1.057901287     -0.390073407     -0.389819964
C       0.181601598     -0.384200959     -0.410226941
H      -1.594467976      0.665651487     -0.358840621
H      -1.326814058     -1.691977974     -0.107330260
H       1.176295344      0.407530482     -0.536051215
H       0.949904421     -1.391987461     -0.701443678
           6
  t=        17.50000    1    1
C      -1.070213057     -0.405747768     -0.403705709
C       0.159488870     -0.401474198     -0.433251240
H      -1.564554574      0.639099757     -0.330218927
H      -1.348535738     -1.663123627     -0.099342603
H       1.213195298      0.439798552     -0.515941641
H       0.963854366     -1.385114774     -0.669503440
           6
  t=        18.00000    1    1
C      -1.084158363     -0.421791253     -0.417124132
C       0.140800829     -0.418886401     -0.456807104
H      -1.534819804      0.605308800     -0.301659861
H      -1.371765738     -1.622145951     -0.094594751
H       1.238214812      0.467676795     -0.494613069
H       0.970028940     -1.372682156     -0.634714260
           6
  t=        18.50000    1    1
C      -1.099748081     -0.438223064     -0.430015838
C       0.125694347     -0.436408564     -0.480776694
H      -1.506662465      0.566283927     -0.273670177
H      -1.396589262     -1.570350171     -0.093025244
H       1.251151337      0.490876299     -0.472593389
H       0.968375029     -1.355217575     -0.598214830
           6
  t=        19.00000    1    1
C      -1.116870644     -0.455043544     -0.442347937
C       0.114191586     -0.454031711     -0.505057083
H      -1.481699860      0.524714455     -0.246663325
H      -1.423385793     -1.509927842     -0.094245246
H       1.252282272      0.509508910     -0.450240727
H       0.959018590     -1.333433499     -0.561240753
           6
  t=        19.50000    1    1
C      -1.135267227     -0.472219075     -0.454146521
C       0.106160029     -0.471714054     -0.529551008
H      -1.461426197      0.483500995     -0.220635200
H      -1.452835693     -1.443815700     -0.097655741
H       1.241938751      0.523687406     -0.427987062
H       0.942297982     -1.308305106     -0.524811237
           6
  t=        20.00000    1    1
C      -1.154512220     -0.489611698     -0.465545462
C       0.101264060     -0.489336322     -0.554127458
H      -1.446805144      0.445545570     -0.195006441
H      -1.486008075     -1.376486699     -0.102364635
H       1.220387319      0.533255142     -0.406683715
H       0.918907103     -1.281169865     -0.489512308
           6
  t=        20.50000    1    1
C      -1.174043966     -0.506853079     -0.476797053
C       0.099044433     -0.506720998     -0.578616374
H      -1.438497165      0.413459445     -0.169143428
H      -1.524861926     -1.314808713     -0.106460292
H       1.187781130      0.537768467     -0.387353085
H       0.890091962     -1.253831736     -0.455886938
           6
  t=        21.00000    1    1
C      -1.193243954     -0.523394294     -0.488210216
C       0.098984022     -0.523651483     -0.602854936
H      -1.436879284      0.389327988     -0.142853270
H      -1.572359028     -1.267048422     -0.106951822
H       1.144209540      0.536627276     -0.370864327
H       0.857893938     -1.228631001     -0.424508888
           6
  t=        21.50000    1    1
C      -1.211534772     -0.538705387     -0.500051869
C       0.100504261     -0.539860508     -0.626710909
H      -1.441820296      0.373834496     -0.116435146
H      -1.631682864     -1.239752908     -0.100895993
H       1.089726044      0.529111188     -0.358025619
H       0.825325541     -1.208482971     -0.395609147
           6
  t=        22.00000    1    1
C      -1.228588223     -0.552561669     -0.512371402
C       0.103041283     -0.555051762     -0.650117775
H      -1.452771243      0.366243548     -0.090690320
H      -1.704069633     -1.234335960     -0.087363475
H       1.024314521      0.514583427     -0.349551260
H       0.795898344     -1.196809723     -0.368805628
           6
  t=        22.50000    1    1
C      -1.244424351     -0.565097708     -0.524926343
C       0.106108214     -0.568957121     -0.673069032
H      -1.468919223      0.364966514     -0.066847856
H      -1.787369995     -1.247045387     -0.068375072
H       0.947958570      0.492614671     -0.346076516
H       0.772706742     -1.196936914     -0.343179830
           6
  t=        23.00000    1    1
C      -1.259330147     -0.576605911     -0.537311463
C       0.109357413     -0.581458676     -0.695567290
H      -1.489343991      0.367920559     -0.046305130
H      -1.876867573     -1.271790199     -0.047691914
H       0.861054100      0.463253078     -0.348100461
H       0.757280289     -1.210841600     -0.317871710
           6
  t=        23.50000    1    1
C      -1.273620595     -0.587365265     -0.549139562
C       0.112508308     -0.592670511     -0.717555116
H      -1.513089830      0.372871140     -0.030363975
H      -1.967307074     -1.302746688     -0.029111640
H       0.764903712      0.427371031     -0.355860278
H       0.749201813     -1.238301618     -0.292842666
           6
  t=        24.00000    1    1
C      -1.287546123     -0.597572680     -0.560123089
C       0.115359323     -0.602879745     -0.738898749
H      -1.539182142      0.377615687     -0.020072317
H      -2.054436855     -1.335567492     -0.015563084
H       0.661555178      0.386342414     -0.369449295
H       0.746583241     -1.277068104     -0.269042862
           6
  t=        24.50000    1    1
C      -1.301265248     -0.607361242     -0.570089339
C       0.117740882     -0.612487847     -0.759444642
H      -1.566816865      0.380377454     -0.016142097
H      -2.135439682     -1.367471180     -0.008859093
H       0.553744113      0.342063043     -0.388612644
H       0.746977118     -1.323671972     -0.248089864
           6
  t=        25.00000    1    1
C      -1.314867606     -0.616849511     -0.578958393
C       0.119425447     -0.622010879     -0.779107569
H      -1.595353950      0.380069166     -0.018963475
H      -2.208365063     -1.396704618     -0.009990649
H       0.444865429      0.297884577     -0.412244602
H       0.748177307     -1.374568813     -0.231676081
           6
  t=        25.50000    1    1
C      -1.328385523     -0.626138055     -0.586732370
C       0.120147486     -0.632102612     -0.797931190
H      -1.624187589      0.376167200     -0.028642740
H      -2.272091831     -1.422336912     -0.019221139
H       0.338397057      0.259269821     -0.438057280
H       0.748528125     -1.426640244     -0.221174237
           6
  t=        26.00000    1    1
C      -1.341836482     -0.635328884     -0.593439961
C       0.119701535     -0.643504990     -0.816061824
H      -1.652902916      0.368415506     -0.045061954
H      -2.326157921     -1.443899521     -0.036544392
H       0.237457087      0.233042925     -0.463022475
H       0.746691071     -1.476866591     -0.217651273
           6
  t=        26.50000    1    1
C      -1.355248427     -0.644560770     -0.599112445
C       0.118022182     -0.656805025     -0.833656793
H      -1.681426959      0.356712214     -0.067927912
H      -2.370518877     -1.461058573     -0.061861228
H       0.144188337      0.224914670     -0.484566140
H       0.741518332     -1.522542466     -0.221826332
           6
  t=        27.00000    1    1
C      -1.368661101     -0.653993611     -0.603806035
C       0.115158384     -0.672107694     -0.850757182
H      -1.709638523      0.341122299     -0.096895264
H      -2.405096679     -1.473470410     -0.094872225
H       0.059029940      0.235883989     -0.501964867
H       0.732261739     -1.561919261     -0.233908210
           6
  t=        27.50000    1    1
C      -1.382145674     -0.663821828     -0.607615264
C       0.111105203     -0.689018617     -0.867229299
H      -1.737277484      0.322060438     -0.131553864
H      -2.429525704     -1.480866123     -0.135193895
H      -0.017366223      0.261874639     -0.516578422
H       0.718550564     -1.593986942     -0.253797367
           6
  t=        28.00000    1    1
C      -1.395758665     -0.674260609     -0.610660671
C       0.105740725     -0.706924856     -0.882865147
H      -1.764377997      0.300493148     -0.171284359
H      -2.443282587     -1.483135995     -0.182432031
H      -0.083331289      0.296656451     -0.530729863
H       0.700352888     -1.618331078     -0.281226454
           6
  t=        28.50000    1    1
C      -1.409490944     -0.685485662     -0.613077926
C       0.098894199     -0.725249027     -0.897512555
H      -1.791319456      0.277734148     -0.215340974
H      -2.446031972     -1.480415088     -0.236034854
H      -0.137225862      0.334470547     -0.546422361
H       0.677999151     -1.635157644     -0.315686466
           6
  t=        29.00000    1    1
C      -1.423279302     -0.697626997     -0.615016578
C       0.090386968     -0.743528885     -0.911098259
H      -1.818511256      0.255182270     -0.262987256
H      -2.437616469     -1.472994535     -0.295280808
H      -0.178031123      0.370938684     -0.564928463
H       0.652098199     -1.645154934     -0.356453871
           6
  t=        29.50000    1    1
C      -1.437019164     -0.710762102     -0.616651743
C       0.080062191     -0.761392520     -0.923611553
H      -1.846329485      0.234112027     -0.313493925
H      -2.418245355     -1.461348346     -0.359180873
H      -0.205394713      0.402897844     -0.586937881
H       0.623505830     -1.649468643     -0.402598196
           6
  t=        30.00000    1    1
C      -1.450575563     -0.724904563     -0.618181155
C       0.067798616     -0.778533005     -0.935088931
H      -1.875101692      0.215528636     -0.366179828
H      -2.388782234     -1.446302487     -0.426452943
H      -0.219359590      0.428138369     -0.612707981
H       0.593292701     -1.649563742     -0.453034366
           6
  t=        30.50000    1    1
C      -1.463758282     -0.739968675     -0.619813014
C       0.053512684     -0.794704231     -0.945610453
H      -1.904939012      0.200191439     -0.420496555
H      -2.351394978     -1.429598627     -0.495546047
H      -0.220269614      0.445434700     -0.642106839
H       0.562810813     -1.647186128     -0.506558851
           6
  t=        31.00000    1    1
C      -1.476297650     -0.755746936     -0.621740272
C       0.037100661     -0.809660930     -0.955270344
H      -1.935570763      0.188503458     -0.476096832
H      -2.309746276     -1.414187806     -0.564914414
H      -0.208485000      0.454117317     -0.674875038
H       0.533835108     -1.644513318     -0.561902222
           6
  t=        31.50000    1    1
C      -1.487859418     -0.771896499     -0.624103173
C       0.018409362     -0.823123073     -0.964160278
H      -1.966373978      0.180222578     -0.532807617
H      -2.268474356     -1.403976082     -0.633446608
H      -0.184312067      0.453560308     -0.710784152
H       0.508529688     -1.644193207     -0.617813924
           6
  t=        32.00000    1    1
C      -1.498056533     -0.787938092     -0.626986459
C      -0.002723743     -0.834798082     -0.972356059
H      -1.996569565      0.174358483     -0.590401945
H      -2.232945910     -1.403673292     -0.700696416
H      -0.148010209      0.442991499     -0.749634936
H       0.489066187     -1.648950595     -0.673253365
           6
  t=        32.50000    1    1
C      -1.506549687     -0.803358042     -0.630432141
C      -0.026392849     -0.844449603     -0.979897736
H      -2.025244139      0.169459686     -0.648414843
H      -2.208193324     -1.417899784     -0.766943509
H      -0.100010270      0.421577895     -0.791172399
H       0.477073755     -1.660817730     -0.727683024
           6
  t=        33.00000    1    1
C      -1.513247153     -0.817823894     -0.634468689
C      -0.052541675     -0.851983573     -0.986774042
H      -2.051472848      0.164039928     -0.706150551
H      -2.196665543     -1.449103278     -0.832781207
H      -0.041083028      0.388714280     -0.835086126
H       0.473083691     -1.680337648     -0.781310783
           6
  t=        33.50000    1    1
C      -1.518392616     -0.831312073     -0.639160581
C      -0.080922028     -0.857557813     -0.992960931
H      -2.074595004      0.156862201     -0.762901461
H      -2.196776968     -1.496001242     -0.898187773
H       0.027368224      0.344678648     -0.880834688
H       0.476199237     -1.706234254     -0.834925642
           6
  t=        34.00000    1    1
C      -1.522467828     -0.844029373     -0.644626706
C      -0.111107229     -0.861555982     -0.998468144
H      -2.094104098      0.147045420     -0.817949764
H      -2.204229704     -1.554509780     -0.962171136
H       0.103308098      0.290683119     -0.927773446
H       0.484307640     -1.735886835     -0.889349407
           6
  t=        34.50000    1    1
C      -1.525992683     -0.856253729     -0.651009774
C      -0.142569028     -0.864498375     -1.003358580
H      -2.109575268      0.133931060     -0.870690880
H      -2.214278517     -1.619595910     -1.023091292
H       0.184318558      0.228687228     -0.975188633
H       0.494557250     -1.766117913     -0.945090447
           6
  t=        35.00000    1    1
C      -1.529438809     -0.868219465     -0.658441210
C      -0.174746675     -0.866877338     -1.007727544
H      -2.120664975      0.116884292     -0.920602401
H      -2.223269260     -1.686871866     -1.079232623
H       0.268259097      0.160826410     -1.022475041
H       0.504028949     -1.794157120     -1.002290375
           6
  t=        35.50000    1    1
C      -1.533228534     -0.880088897     -0.666999937
C      -0.207039340     -0.869107887     -1.011708164
H      -2.127288698      0.095491799     -0.967247833
H      -2.228740096     -1.753012605     -1.129223672
H       0.353133969      0.089144946     -1.069114385
H       0.510045175     -1.818081157     -1.060748681
           6
  t=        36.00000    1    1
C      -1.537755587     -0.891972151     -0.676731046
C      -0.238795169     -0.871508015     -1.015460050
H      -2.129680381      0.069678061     -1.010160955
H      -2.229051369     -1.815559094     -1.172034058
H       0.436796787      0.015234053     -1.114651109
H       0.510270840     -1.836763415     -1.119978390
           6
  t=        36.50000    1    1
C      -1.543359886     -0.903931100     -0.687663627
C      -0.269346918     -0.874329357     -1.019152871
H      -2.128491400      0.039746131     -1.048639228
H      -2.223229183     -1.872714537     -1.207134727
H       0.516739300     -0.059725493     -1.158802559
H       0.502991358     -1.849748870     -1.179125382
           6
  t=        37.00000    1    1
C      -1.550309858     -0.915992164     -0.699800929
C      -0.298081753     -0.877772479     -1.022961230
H      -2.124817396      0.006455918     -1.081829815
H      -2.210974903     -1.923407889     -1.234553080
H       0.590498012     -0.134829675     -1.201445560
H       0.487363432     -1.857067797     -1.237019042
           6
  t=        37.50000    1    1
C      -1.558749627     -0.928204495     -0.713072243
C      -0.324529103     -0.881937233     -1.027076474
H      -2.119816999     -0.029099132     -1.109448439
H      -2.192649494     -1.967247762     -1.254625776
H       0.656033192     -0.209516636     -1.242188429
H       0.463056504     -1.858991407     -1.292561203
           6
  t=        38.00000    1    1
C      -1.568706954     -0.940662609     -0.727332536
C      -0.348405333     -0.886808837     -1.031681920
H      -2.114312196     -0.065744323     -1.132084477
H      -2.168924192     -2.004240403     -1.267686793
H       0.711814393     -0.283344510     -1.280210766
H       0.430045355     -1.856179932     -1.345192720
           6
  t=        38.50000    1    1
C      -1.580164971     -0.953484144     -0.742451855
C      -0.369510915     -0.892359294     -1.036928292
H      -2.109186740     -0.102155407     -1.150450562
H      -2.140553166     -2.034410118     -1.273947665
H       0.756671859     -0.355541270     -1.314666829
H       0.388559153     -1.849637215     -1.394587668
           6
  t=        39.00000    1    1
C      -1.593085841     -0.966799028     -0.758326641
C      -0.387651682     -0.898582612     -1.042946800
H      -2.105652209     -0.136729359     -1.165110658
H      -2.108529731     -2.057892273     -1.273631420
H       0.789753834     -0.425021166     -1.344849476
H       0.338890065     -1.840439862     -1.440336707
           6
  t=        39.50000    1    1
C      -1.607377795     -0.980754765     -0.774861461
C      -0.402691474     -0.905457748     -1.049847220
H      -2.105091002     -0.167766785     -1.176659546
H      -2.074014757     -2.074883597     -1.266992315
H       0.810564868     -0.490757322     -1.370113926
H       0.281360899     -1.829610576     -1.482064705
           6
  t=        40.00000    1    1
C      -1.622896686     -0.995504497     -0.791957533
C      -0.414591302     -0.912932972     -1.057706083
H      -2.108978609     -0.193646025     -1.185769551
H      -2.038069081     -2.085503254     -1.254357550
H       0.818959775     -0.552041163     -1.389917391
H       0.216470949     -1.818151999     -1.519580032
           6
  t=        40.50000    1    1
C      -1.639452931     -1.011167423     -0.809523747
C      -0.423425300     -0.920939913     -1.066569745
H      -2.118705990     -0.212980731     -1.192944729
H      -2.001552290     -2.089846855     -1.236217137
H       0.815038959     -0.608306652     -1.403851342
H       0.144994718     -1.807315291     -1.552830422
           6
  t=        41.00000    1    1
C      -1.656819599     -1.027777773     -0.827473812
C      -0.429385322     -0.929396305     -1.076442010
H      -2.135338959     -0.224875568     -1.198445062
H      -1.965479350     -2.088306760     -1.213306610
H       0.799160542     -0.659010638     -1.411659488
H       0.068236912     -1.798718939     -1.582059575
           6
  t=        41.50000    1    1
C      -1.674760686     -1.045227939     -0.845725551
C      -0.432746946     -0.938215934     -1.087283251
H      -2.159419136     -0.229232742     -1.202183553
H      -1.931239085     -2.081978565     -1.186672012
H       0.771995233     -0.703535928     -1.413251528
H      -0.012071192     -1.794291855     -1.607850083
           6
  t=        42.00000    1    1
C      -1.693054172     -1.063224884     -0.864199100
C      -0.433838850     -0.947318903     -1.099009893
H      -2.190855373     -0.227015823     -1.203717597
H      -1.900503397     -2.072952866     -1.157719879
H       0.734622421     -0.741161532     -1.408746054
H      -0.094157343     -1.796144629     -1.631066905
           6
  t=        42.50000    1    1
C      -1.711488517     -1.081273146     -0.882814101
C      -0.433050749     -0.956643964     -1.111496923
H      -2.228920823     -0.220202615     -1.202381794
H      -1.875726637     -2.064713089     -1.127969810
H       0.688677614     -0.771149817     -1.398499221
H      -0.175806434     -1.806187225     -1.652946860
           6
  t=        43.00000    1    1
C      -1.729862955     -1.098759442     -0.901506996
C      -0.430864377     -0.966191563     -1.124603816
H      -2.272523810     -0.211222429     -1.197478074
H      -1.859289452     -2.061533662     -1.098623646
H       0.636583088     -0.792892295     -1.383108886
H      -0.254803889     -1.825626788     -1.674820058
           6
  t=        43.50000    1    1
C      -1.748010850     -1.115082124     -0.920245963
C      -0.427872049     -0.976072592     -1.138212630
H      -2.320421889     -0.202436118     -1.188430674
H      -1.852022399     -2.067286152     -1.070508072
H       0.581799773     -0.805998329     -1.363481655
H      -0.329950245     -1.854469204     -1.697313558
           6
  t=        44.00000    1    1
C      -1.765805244     -1.129753428     -0.939032624
C      -0.424825180     -0.986504517     -1.152228568
H      -2.371196188     -0.196007758     -1.174884241
H      -1.854097626     -2.084784423     -1.043841717
H       0.529546586     -0.810040370     -1.340969691
H      -0.400270330     -1.891384850     -1.720322123
           6
  t=        44.50000    1    1
C      -1.783148100     -1.142510883     -0.957899683
C      -0.422624655     -0.997790603     -1.166585796
H      -2.423332298     -0.193841914     -1.156730162
H      -1.865617019     -2.114791906     -1.018178721
H       0.486974016     -0.804121675     -1.317134958
H      -0.464760666     -1.934116422     -1.743233073
           6
  t=        45.00000    1    1
C      -1.799972849     -1.153366451     -0.976887904
C      -0.422202226     -1.010289816     -1.181263049
H      -2.475409907     -0.197425715     -1.134087359
H      -1.886491506     -2.155449176     -0.992718268
H       0.461854176     -0.786782494     -1.293212239
H      -0.522393521     -1.980076071     -1.765261128
           6
  t=        45.50000    1    1
C      -1.816264439     -1.162544046     -0.996008887
C      -0.424231416     -1.024338944     -1.196299164
H      -2.526152351     -0.207718634     -1.107299148
H      -1.916134359     -2.202930837     -0.966815814
H       0.459074725     -0.756762714     -1.269625602
H      -0.572073815     -2.026708726     -1.785682480
           6
  t=        46.00000    1    1
C      -1.832063136     -1.170379932     -1.015223688
C      -0.428826321     -1.040120148     -1.211775636
H      -2.574400324     -0.225126014     -1.076929821
H      -1.953393624     -2.252679967     -0.940338518
H       0.477039067     -0.714478367     -1.246102239
H      -0.612676901     -2.071572511     -1.803831460
           6
  t=        46.50000    1    1
C      -1.847449494     -1.177224743     -1.034450382
C      -0.435582193     -1.057594892     -1.227768289
H      -2.619153554     -0.249652955     -1.043609627
H      -1.996796872     -2.300398982     -0.913708960
H       0.508312099     -0.662686339     -1.222360267
H      -0.643103354     -2.112484198     -1.819009836
           6
  t=        47.00000    1    1
C      -1.862526328     -1.183360229     -1.053576618
C      -0.443908618     -1.076558091     -1.244299839
H      -2.659612970     -0.281135693     -1.007971029
H      -2.044967249     -2.342779152     -0.887633220
H       0.544186911     -0.605148272     -1.198449686
H      -0.662632249     -2.148241113     -1.830897096
           6
  t=        47.50000    1    1
C      -1.877396573     -1.188989434     -1.072483429
C      -0.453306782     -1.096753361     -1.261328852
H      -2.695186857     -0.319196558     -0.970647072
H      -2.096650279     -2.377664746     -0.862890038
H       0.577522170     -0.545746690     -1.174969481
H      -0.670685623     -2.178129705     -1.839393780
           6
  t=        48.00000    1    1
C      -1.892154699     -1.194290135     -1.091058219
C      -0.463444460     -1.117950891     -1.278768845
H      -2.725528358     -0.363108265     -0.932293877
H      -2.150481491     -2.403660629     -0.840368258
H       0.603498216     -0.487878691     -1.152896336
H      -0.666988157     -2.201495328     -1.844350387
           6
  t=        48.50000    1    1
C      -1.906884119     -1.199439990     -1.109190766
C      -0.474119092     -1.139964006     -1.296515991
H      -2.750501317     -0.411837664     -0.893572307
H      -2.205067509     -2.419834826     -0.821072532
H       0.619331780     -0.434035304     -1.133233189
H      -0.651705833     -2.217919525     -1.845649004
           6
  t=        49.00000    1    1
C      -1.921643154     -1.204609694     -1.126780778
C      -0.485201777     -1.162599045     -1.314451663
H      -2.770110052     -0.464105617     -0.855105106
H      -2.259160085     -2.425806519     -0.805972563
H       0.623486317     -0.386018246     -1.116855278
H      -0.625387028     -2.227534182     -1.843430507
           6
  t=        49.50000    1    1
C      -1.936452544     -1.209959037     -1.143745734
C      -0.496613445     -1.185617571     -1.332439621
H      -2.784455046     -0.518504716     -0.817493137
H      -2.311667203     -2.421704774     -0.795853981
H       0.615145645     -0.345269896     -1.104453816
H      -0.588902148     -2.231112406     -1.838223891
           6
  t=        50.00000    1    1
C      -1.951278892     -1.215657183     -1.160020632
C      -0.508344585     -1.208741894     -1.350337924
H      -2.793734385     -0.573583809     -0.781309035
H      -2.361492419     -2.407845612     -0.791410108
H       0.594108277     -0.312937737     -1.096491933
H      -0.543459333     -2.229934987     -1.830765924
           6
  t=        50.50000    1    1
C      -1.966049474     -1.221877865     -1.175563435
C      -0.520445638     -1.231677348     -1.368013550
H      -2.798330749     -0.627768605     -0.746941604
H      -2.407697243     -2.384772209     -0.793224429
H       0.560769103     -0.289728201     -1.093193643
H      -0.490274812     -2.225767618     -1.821946253
           6
  t=        51.00000    1    1
C      -1.980675264     -1.228784581     -1.190364626
C      -0.532981035     -1.254107980     -1.385338351
H      -2.798781237     -0.679189306     -0.714511411
H      -2.449615395     -2.353610706     -0.801732616
H       0.515818660     -0.275979377     -1.094622271
H      -0.430461359     -2.220832461     -1.812785683
           6
  t=        51.50000    1    1
C      -1.995060785     -1.236520614     -1.204444410
C      -0.546008904     -1.275706148     -1.402182959
H      -2.795503110     -0.726136631     -0.683955491
H      -2.486871756     -2.315739639     -0.817274175
H       0.459945843     -0.271853406     -1.100795866
H      -0.365110771     -2.217494903     -1.804290368
           6
  t=        52.00000    1    1
C      -2.009109260     -1.245185828     -1.217837203
C      -0.559572779     -1.296187171     -1.418435966
H      -2.788811493     -0.767163116     -0.655074747
H      -2.519401943     -2.272739100     -0.840131792
H       0.393680972     -0.277463934     -1.111765709
H      -0.295137057     -2.217710872     -1.797242867
           6
  t=        52.50000    1    1
C      -2.022724648     -1.254809294     -1.230590682
C      -0.573685546     -1.315377104     -1.434036826
H      -2.779067634     -0.800801902     -0.627467584
H      -2.547485115     -2.226817307     -0.870496060
H       0.317442337     -0.292887618     -1.127588577
H      -0.221308950     -2.222388623     -1.791950739
           6
  t=        53.00000    1    1
C      -2.035805600     -1.265343322     -1.242765382
C      -0.588314702     -1.333250709     -1.448992449
H      -2.766593240     -0.825758934     -0.600587173
H      -2.571850137     -2.180763269     -0.908428064
H       0.231792045     -0.317997908     -1.148245601
H      -0.144732888     -2.231028739     -1.788114947
           6
  t=        53.50000    1    1
C      -2.048229455     -1.276664659     -1.254429013
C      -0.603396305     -1.349921361     -1.463362599
H      -2.751536033     -0.840988225     -0.573928828
H      -2.593812906     -2.138001709     -0.953791560
H       0.137768231     -0.352181734     -1.173535952
H      -0.067206928     -2.241983271     -1.785058298
           6
  t=        54.00000    1    1
C      -2.059822845     -1.288566947     -1.265657000
C      -0.618876488     -1.365593109     -1.477215952
H      -2.733737424     -0.845875059     -0.547260589
H      -2.615521894     -2.102585244     -1.006135726
H       0.037047324     -0.394173864     -1.203054858
H       0.008874741     -2.253107038     -1.782151298
           6
  t=        54.50000    1    1
C      -2.070367882     -1.300753919     -1.276529405
C      -0.634754394     -1.380548937     -1.490604669
H      -2.712826307     -0.840491599     -0.520939294
H      -2.639645745     -2.078702075     -1.064496174
H      -0.068117555     -0.442004383     -1.236019657
H       0.080950036     -2.262267895     -1.779208630
           6
  t=        55.00000    1    1
C      -2.079694919     -1.312872508     -1.287091833
C      -0.651074148     -1.395236805     -1.503604658
H      -2.688291840     -0.825727354     -0.496282671
H      -2.668486577     -2.069723967     -1.127426202
H      -0.174884943     -0.492361259     -1.270808577
H       0.146473115     -2.267385879     -1.776533129
           6
  t=        55.50000    1    1
C      -2.087838499     -1.324686900     -1.297303127
C      -0.667879889     -1.410266984     -1.516385393
H      -2.659395362     -0.803353928     -0.474990667
H      -2.703533244     -2.076725629     -1.193934905
H      -0.279361908     -0.539423074     -1.305044219
H       0.203238763     -2.266974163     -1.774264171
           6
  t=        56.00000    1    1
C      -2.094969495     -1.336223160     -1.307069968
C      -0.685300695     -1.426319456     -1.529157311
H      -2.625494475     -0.775572071     -0.458412638
H      -2.744924616     -2.097788555     -1.263892965
H      -0.377066539     -0.575085475     -1.336310060
H       0.249835663     -2.260441848     -1.772202718
           6
  t=        56.50000    1    1
C      -2.101417652     -1.347731319     -1.316322387
C      -0.703419313     -1.444060832     -1.542106158
H      -2.586394172     -0.744489763     -0.447629648
H      -2.790908219     -2.128823589     -1.337153953
H      -0.463965738     -0.590586300     -1.362499502
H       0.285198351     -2.247609880     -1.770141134
           6
  t=        57.00000    1    1
C      -2.107589424     -1.359566584     -1.325064348
C      -0.722137117     -1.463857127     -1.555318091
H      -2.542434079     -0.711932729     -0.443446888
H      -2.838586769     -2.164952317     -1.412970921
H      -0.537977003     -0.580381541     -1.382568851
H       0.308354669     -2.228481076     -1.767991036
           6
  t=        57.50000    1    1
C      -2.113832682     -1.372043092     -1.333364346
C      -0.741168784     -1.485426345     -1.568727490
H      -2.494388297     -0.679367114     -0.446322755
H      -2.885166354     -2.201822259     -1.490080604
H      -0.599886797     -0.546631592     -1.397204114
H       0.318816543     -2.203398409     -1.765837038
           6
  t=        58.00000    1    1
C      -2.120387681     -1.385357897     -1.341305122
C      -0.760200200     -1.507988921     -1.582178279
H      -2.443297391     -0.648114559     -0.456608058
H      -2.928620310     -2.236200225     -1.567013034
H      -0.651589758     -0.497549729     -1.408193144
H       0.316612458     -2.173001191     -1.763884259
           6
  t=        58.50000    1    1
C      -2.127399159     -1.399606705     -1.348969733
C      -0.779017469     -1.530697345     -1.595521457
H      -2.390452051     -0.619379286     -0.474493279
H      -2.967507339     -2.265821436     -1.642307351
H      -0.694524604     -0.442256171     -1.417341317
H       0.302206441     -2.138187970     -1.762383486
           6
  t=        59.00000    1    1
C      -2.134942948     -1.414818367     -1.356447164
C      -0.797522944     -1.552891803     -1.608654751
H      -2.337342746     -0.594182878     -0.499890547
H      -3.000722374     -2.289095294     -1.714594241
H      -0.729454473     -0.387762125     -1.425997708
H       0.276487094     -2.100034927     -1.761601171
           6
  t=        59.50000    1    1
C      -2.143049380     -1.430958028     -1.363824808
C      -0.815699801     -1.574141270     -1.621531385
H      -2.285693818     -0.573340003     -0.532377854
H      -3.027494541     -2.305069886     -1.782653513
H      -0.756686507     -0.338519499     -1.435052564
H       0.240875991     -2.059778662     -1.761805266
           6
  t=        60.00000    1    1
C      -2.151706387     -1.447926055     -1.371182002
C      -0.833596875     -1.594158072     -1.634147158
H      -2.237475505     -0.557512076     -0.571284603
H      -3.047345354     -2.313312929     -1.845391976
H      -0.776468918     -0.297403271     -1.445075001
H       0.197551193     -2.018930101     -1.763295159
           6
  t=        60.50000    1    1
C      -2.160861676     -1.465581548     -1.378593469
C      -0.851343636     -1.612742483     -1.646503932
H      -2.194443157     -0.547199567     -0.615864234
H      -3.060120556     -2.313839631     -1.901954107
H      -0.789334946     -0.266121897     -1.456362775
H       0.149566643     -1.979323900     -1.766462619
           6
  t=        61.00000    1    1
C      -2.170456265     -1.483793078     -1.386136891
C      -0.869164542     -1.629733391     -1.658591108
H      -2.158039361     -0.542826032     -0.665365019
H      -3.065930377     -2.306885827     -1.951657963
H      -0.795745611     -0.245501312     -1.469093979
H       0.100907953     -1.942960534     -1.771763876
           6
  t=        61.50000    1    1
C      -2.180442211     -1.502452099     -1.393894271
C      -0.887363181     -1.645014447     -1.670394569
H      -2.129452558     -0.544612943     -0.718969632
H      -3.065113675     -2.292866379     -1.993968678
H      -0.796014190     -0.235621967     -1.483321708
H       0.056461874     -1.911803021     -1.779689127
           6
  t=        62.00000    1    1
C      -2.190802473     -1.521482166     -1.401948096
C      -0.906248913     -1.658513747     -1.681905333
H      -2.109708216     -0.552527084     -0.775824575
H      -3.058061302     -2.272246661     -2.028425680
H      -0.790338822     -0.236118817     -1.498994359
H       0.021326044     -1.887551910     -1.790728174
           6
  t=        62.50000    1    1
C      -2.201562758     -1.540840333     -1.410377805
C      -0.926033537     -1.670194016     -1.693116150
H      -2.099564392     -0.566330710     -0.835169918
H      -3.045156209     -2.245535353     -2.054631123
H      -0.778827854     -0.246515095     -1.515971550
H      -0.000420138     -1.871368927     -1.805318996
           6
  t=        63.00000    1    1
C      -2.212778242     -1.560507390     -1.419252877
C      -0.946705113     -1.680064666     -1.704025020
H      -2.099309978     -0.585473278     -0.896311507
H      -3.026970868     -2.213482113     -2.072441903
H      -0.761626346     -0.266367123     -1.534035722
H      -0.007255069     -1.863615380     -1.823712358
           6
  t=        63.50000    1    1
C      -2.224495222     -1.580466565     -1.428621591
C      -0.967946118     -1.688189270     -1.714654842
H      -2.108920578     -0.608799404     -0.958369962
H      -3.004617398     -2.177331865     -2.082220965
H      -0.739128369     -0.295265191     -1.552902842
H      -0.000928798     -1.864053769     -1.845860594
           6
  t=        64.00000    1    1
C      -2.236709614     -1.600679612     -1.438494197
C      -0.989170657     -1.694688083     -1.725074007
H      -2.128365712     -0.634300997     -1.020064025
H      -2.980083276     -2.139000361     -2.085054594
H      -0.712171675     -0.332688677     -1.572206304
H       0.014323450     -1.872319877     -1.871388208
           6
  t=        64.50000    1    1
C      -2.249361365     -1.621090667     -1.448825159
C      -1.009658328     -1.699705594     -1.735391545
H      -2.157713184     -0.659229889     -1.079831339
H      -2.956223470     -2.100953175     -2.082791452
H      -0.682001353     -0.378081144     -1.591530775
H       0.033369867     -1.888196695     -1.899667675
           6
  t=        65.00000    1    1
C      -2.262308604     -1.641624976     -1.459471309
C      -1.028703420     -1.703383564     -1.745723855
H      -2.196873990     -0.680453385     -1.136209780
H      -2.936803113     -2.066156282     -2.078344798
H      -0.650151990     -0.431045852     -1.610460710
H       0.051321647     -1.911449270     -1.929982378
           6
  t=        65.50000    1    1
C      -2.275323521     -1.662163130     -1.470185752
C      -1.045742973     -1.705839034     -1.756157681
H      -2.245652968     -0.695386844     -1.188229914
H      -2.925969896     -2.037687628     -2.075506773
H      -0.618227975     -0.491440575     -1.628662781
H       0.064313176     -1.941754706     -1.961751216
           6
  t=        66.00000    1    1
C      -2.288166732     -1.682522845     -1.480680848
C      -1.060383090     -1.707176293     -1.766750305
H      -2.303516163     -0.702679266     -1.235515885
H      -2.927448951     -2.018362840     -2.078165363
H      -0.587864905     -0.559139073     -1.645768370
H       0.069625259     -1.978704004     -1.994575582
           6
  t=        66.50000    1    1
C      -2.300664998     -1.702483768     -1.490719237
C      -1.072367705     -1.707518820     -1.777543709
H      -2.369577054     -0.702424465     -1.278209062
H      -2.943925165     -2.010271536     -2.089290593
H      -0.560552973     -0.633610265     -1.661261282
H       0.065430972     -2.021799132     -2.028188310
           6
  t=        67.00000    1    1
C      -2.312806016     -1.721844621     -1.500224178
C      -1.081589618     -1.707062065     -1.788564690
H      -2.442559576     -0.696092200     -1.316747701
H      -2.976076309     -2.014185825     -2.109815775
H      -0.537265331     -0.713241167     -1.674536926
H       0.050681224     -2.070480635     -2.062417544
           6
  t=        67.50000    1    1
C      -2.324795449     -1.740455306     -1.509327817
C      -1.088137291     -1.706108213     -1.799824628
H      -2.520240542     -0.686291131     -1.351673156
H      -3.021890785     -2.029435233     -2.138246279
H      -0.518405981     -0.794822184     -1.684967362
H       0.025049938     -2.124207723     -2.097134312
           6
  t=        68.00000    1    1
C      -2.336976778     -1.758204870     -1.518297483
C      -1.092291254     -1.705066876     -1.811347057
H      -2.600394842     -0.676074590     -1.383292827
H      -3.077355540     -2.054515362     -2.171557557
H      -0.502879603     -0.873682975     -1.691952148
H      -0.011360877     -2.182543056     -2.132190357
           6
  t=        68.50000    1    1
C      -2.349737250     -1.775004776     -1.527430818
C      -1.094487687     -1.704443175     -1.823189848
H      -2.681112562     -0.668301669     -1.411692330
H      -3.137547563     -2.087578154     -2.206308949
H      -0.488084796     -0.944269625     -1.694765054
H      -0.058173834     -2.245065647     -2.167430786
           6
  t=        69.00000    1    1
C      -2.363422299     -1.790767297     -1.537005079
C      -1.095251673     -1.704774880     -1.835427061
H      -2.760716395     -0.665320224     -1.437025258
H      -3.197722878     -2.126885581     -2.239242807
H      -0.470545737     -1.001153491     -1.692212252
H      -0.114913264     -2.311231753     -2.202967283
           6
  t=        69.50000    1    1
C      -2.378288089     -1.805412461     -1.547241917
C      -1.095096907     -1.706511500     -1.848124569
H      -2.837808775     -0.668881885     -1.459311345
H      -3.253966790     -2.170902942     -2.267875762
H      -0.446973130     -1.040528354     -1.683214390
H      -0.181007309     -2.380227377     -2.238916814
           6
  t=        70.00000    1    1
C      -2.394478138     -1.818887443     -1.558303330
C      -1.094397201     -1.709872377     -1.861315678
H      -2.911197506     -0.679967438     -1.478374527
H      -3.303477730     -2.218545526     -2.290660512
H      -0.415722066     -1.061688829     -1.667265235
H      -0.255930326     -2.450877667     -2.275181798
           6
  t=        70.50000    1    1
C      -2.412062924     -1.831157352     -1.570294775
C      -1.093310919     -1.714835399     -1.874978318
H      -2.979816469     -0.699110186     -1.493938479
H      -3.344319490     -2.269037491     -2.306793787
H      -0.377638115     -1.067120692     -1.644834902
H      -0.339112250     -2.521618608     -2.311378079
           6
  t=        71.00000    1    1
C      -2.431063829     -1.842207621     -1.583277676
C      -1.091847680     -1.721239270     -1.889036639
H      -3.042744027     -0.726663276     -1.505729340
H      -3.374997500     -2.321540172     -2.315901981
H      -0.335615061     -1.061328608     -1.617464961
H      -0.429706121     -2.590526585     -2.346783481
           6
  t=        71.50000    1    1
C      -2.451381689     -1.852073056     -1.597268913
C      -1.090025648     -1.728873027     -1.903387477
H      -3.099375140     -0.762663383     -1.513549191
H      -3.394611562     -2.374961672     -2.318028281
H      -0.293511139     -1.049349940     -1.587353869
H      -0.526324120     -2.655718487     -2.380382389
           6
  t=        72.00000    1    1
C      -2.472817969     -1.860817540     -1.612256736
C      -1.087944492     -1.737542005     -1.917927275
H      -3.149372623     -0.806855615     -1.517270259
H      -3.402956728     -2.428211934     -2.313528714
H      -0.254904808     -1.035538322     -1.556651514
H      -0.627107947     -2.715743975     -2.411170630
           6
  t=        72.50000    1    1
C      -2.495141810     -1.868518785     -1.628220008
C      -1.085793104     -1.747115375     -1.932552534
H      -3.192621315     -0.858676128     -1.516871740
H      -3.400186740     -2.480358744     -2.302839279
H      -0.222381621     -1.023245064     -1.527201031
H      -0.729933559     -2.769380733     -2.438374993
           6
  t=        73.00000    1    1
C      -2.518126928     -1.875270251     -1.645124124
C      -1.083806591     -1.757527522     -1.947173754
H      -3.229393626     -0.917218790     -1.512424484
H      -3.386601824     -2.530653880     -2.286437889
H      -0.197362256     -1.014692680     -1.500370916
H      -0.832702497     -2.815728809     -2.461557032
           6
  t=        73.50000    1    1
C      -2.541517573     -1.881176724     -1.662925047
C      -1.082256416     -1.768741397     -1.961718179
H      -3.260404905     -0.981287249     -1.503941821
H      -3.362730336     -2.578553987     -2.264974113
H      -0.180515900     -1.011573877     -1.477296688
H      -0.933314645     -2.854028075     -2.480309967
           6
  t=        74.00000    1    1
C      -2.565024605     -1.886358223     -1.681566186
C      -1.081427071     -1.780724491     -1.976118431
H      -3.286743362     -1.049290918     -1.491315135
H      -3.329454679     -2.623817831     -2.239363932
H      -0.172099941     -1.015213256     -1.458983909
H      -1.029597370     -2.883742998     -2.494298055
           6
  t=        74.50000    1    1
C      -2.588333732     -1.890951405     -1.700981532
C      -1.081573068     -1.793451315     -1.990309917
H      -3.309983244     -1.119212350     -1.474242984
H      -3.288163688     -2.666524057     -2.210787810
H      -0.172143762     -1.026606712     -1.446377656
H      -1.119270542     -2.904491845     -2.503253439
           6
  t=        75.00000    1    1
C      -2.611091022     -1.895113612     -1.721111652
C      -1.082893085     -1.806902116     -2.004230591
H      -3.332339522     -1.188651745     -1.452162830
H      -3.240874412     -2.707089152     -2.180604282
H      -0.180511496     -1.046378426     -1.440328582
H      -1.200087949     -2.915994301     -2.506976912
           6
  t=        75.50000    1    1
C      -2.632904420     -1.899003399     -1.741866760
C      -1.085553025     -1.821047411     -2.017821494
H      -3.356450280     -1.254833844     -1.424530981
H      -3.190091164     -2.746399217     -2.150182227
H      -0.197067770     -1.074760905     -1.441416616
H      -1.269737352     -2.918369005     -2.505835813
           6
  t=        76.00000    1    1
C      -2.653389258     -1.902735899     -1.763084699
C      -1.089736723     -1.835836922     -2.031031423
H      -3.384682771     -1.315173817     -1.391243783
H      -3.138515960     -2.785656154     -2.120722443
H      -0.221676229     -1.111617921     -1.449881898
H      -1.325678863     -2.912362350     -2.501035157
           6
  t=        76.50000    1    1
C      -2.672202809     -1.906379354     -1.784552881
C      -1.095684642     -1.851159039     -2.043801612
H      -3.418093881     -1.368083680     -1.353083825
H      -3.088103414     -2.826093879     -2.093075451
H      -0.253936029     -1.156316272     -1.465471315
H      -1.366520397     -2.899478336     -2.494428310
           6
  t=        77.00000    1    1
C      -2.689129155     -1.909951593     -1.806137517
C      -1.103601317     -1.866832300     -2.056063281
H      -3.456003776     -1.413649169     -1.311191966
H      -3.039509418     -2.868719168     -2.067728871
H      -0.292936858     -1.207747939     -1.487501433
H      -1.393331831     -2.881682299     -2.487483980
           6
  t=        77.50000    1    1
C      -2.704197974     -1.913457765     -1.827704017
C      -1.113642239     -1.882699918     -2.067778501
H      -3.496321177     -1.453196490     -1.267214032
H      -2.993413473     -2.913453493     -2.044787517
H      -0.337067600     -1.264360293     -1.515086572
H      -1.406929642     -2.861086040     -2.481392887
           6
  t=        78.00000    1    1
C      -2.717578028     -1.916973479     -1.849091898
C      -1.125946062     -1.898619572     -2.078942378
H      -3.536246466     -1.488299629     -1.223327933
H      -2.950367863     -2.959153794     -2.024121474
H      -0.384068321     -1.324146513     -1.546966641
H      -1.408158027     -2.840060378     -2.477337718
           6
  t=        78.50000    1    1
C      -2.729456089     -1.920650586     -1.870142278
C      -1.140686169     -1.914468817     -2.089593832
H      -3.573010199     -1.520277252     -1.181804724
H      -2.910808096     -3.004004308     -2.005544693
H      -0.430777340     -1.384392912     -1.581164012
H      -1.398221126     -2.821465701     -2.476640519
           6
  t=        79.00000    1    1
C      -2.739967641     -1.924685325     -1.890720767
C      -1.158128290     -1.930158647     -2.099834884
H      -3.604310608     -1.550035868     -1.144635789
H      -2.875227434     -3.046032428     -1.988920843
H      -0.472580554     -1.441244899     -1.614525095
H      -1.378760810     -2.808944958     -2.480985507
           6
  t=        79.50000    1    1
C      -2.749197134     -1.929273291     -1.910719910
C      -1.178595525     -1.945614510     -2.109812812
H      -3.628470442     -1.578170515     -1.113391544
H      -2.844176489     -3.083539881     -1.974264410
H      -0.503741450     -1.490105922     -1.643043985
H      -1.351783987     -2.806755614     -2.492319176
           6
  t=        80.00000    1    1
C      -2.757213920     -1.934581919     -1.930045083
C      -1.202350295     -1.960747925     -2.119641186
H      -3.644389697     -1.605024665     -1.089235769
H      -2.818204975     -3.115177318     -1.961739523
H      -0.519540263     -1.527513282     -1.663552624
H      -1.318607413     -2.818425448     -2.512255940
           6
  t=        80.50000    1    1
C      -2.764114963     -1.940743008     -1.948604395
C      -1.229443629     -1.975489498     -2.129335247
H      -3.651449042     -1.630688631     -1.072964666
H      -2.797768240     -3.139893488     -1.951650258
H      -0.518318377     -1.552421110     -1.675201100
H      -1.279290277     -2.845217690     -2.541458741
           6
  t=        81.00000    1    1
C      -2.770020115     -1.947863990     -1.966319206
C      -1.259614590     -1.989866318     -2.138834847
H      -3.649339943     -1.655065793     -1.065059457
H      -2.783199020     -3.156885068     -1.944379630
H      -0.502279560     -1.566237209     -1.679673300
H      -1.233285712     -2.885021557     -2.579033224
           6
  t=        81.50000    1    1
C      -2.775034912     -1.956058719     -1.983135259
C      -1.292298443     -2.004014502     -2.148084289
H      -3.637978839     -1.677908519     -1.065770953
H      -2.774733675     -3.165598121     -1.940329548
H      -0.476477934     -1.571843539     -1.680097390
H      -1.180858441     -2.932778088     -2.622508681
           6
  t=        82.00000    1    1
C      -2.779259221     -1.965423725     -1.999020505
C      -1.326695479     -2.018118269     -2.157087366
H      -3.617737633     -1.698803544     -1.075033400
H      -2.772499076     -3.166089599     -1.939936090
H      -0.447042381     -1.572482938     -1.679804087
H      -1.123719936     -2.982255438     -2.668520755
           6
  t=        82.50000    1    1
C      -2.782818187     -1.975996026     -2.013956151
C      -1.361962556     -2.032327932     -2.165885008
H      -3.589209549     -1.717305224     -1.092602602
H      -2.776399222     -3.159115174     -1.943677053
H      -0.419280393     -1.570644404     -1.681310866
H      -1.064620877     -3.028422411     -2.714054575
           6
  t=        83.00000    1    1
C      -2.785856984     -1.987752173     -2.027951374
C      -1.397347873     -2.046725612     -2.174524797
H      -3.553201847     -1.732975274     -1.117963467
H      -2.786193172     -3.145919240     -1.951952128
H      -0.396979141     -1.567827997     -1.686078350
H      -1.006436169     -3.068273730     -2.757088627
           6
  t=        83.50000    1    1
C      -2.788532546     -2.000615969     -2.041046969
C      -1.432209338     -2.061353231     -2.183066649
H      -3.510908740     -1.745297215     -1.150185680
H      -2.801775214     -3.128160865     -1.964940262
H      -0.382607001     -1.564866050     -1.694765561
H      -0.951389882     -3.100242871     -2.796515212
           6
  t=        84.00000    1    1
C      -2.790998286     -2.014461842     -2.053324576
C      -1.465965175     -2.076227852     -2.191590056
H      -3.464180008     -1.753453942     -1.187642751
H      -2.823043376     -3.108168844     -1.982768877
H      -0.377797825     -1.562251480     -1.707557607
H      -0.901204622     -3.123618212     -2.831728283
           6
  t=        84.50000    1    1
C      -2.793390699     -2.029129217     -2.064912586
C      -1.498057790     -2.091332356     -2.200185334
H      -3.415414952     -1.756333771     -1.228009605
H      -2.850020061     -3.088979196     -2.005554651
H      -0.383693448     -1.560303132     -1.724372449
H      -0.857334515     -3.138273866     -2.862412234
           6
  t=        85.00000    1    1
C      -2.795832473     -2.044424716     -2.075999434
C      -1.527970976     -2.106627981     -2.208939919
H      -3.367168716     -1.752896654     -1.268430228
H      -2.883082850     -3.073892682     -2.033214362
H      -0.400978934     -1.559242391     -1.744989671
H      -0.820850809     -3.144493883     -2.888439534
           6
  t=        85.50000    1    1
C      -2.798450504     -2.060168670     -2.086826803
C      -1.555202203     -2.122083887     -2.217948600
H      -3.322101789     -1.742035458     -1.305505718
H      -2.922913639     -3.065993716     -2.065541141
H      -0.429979188     -1.559225697     -1.769099909
H      -0.792562160     -3.142652884     -2.909716014
           6
  t=        86.00000    1    1
C      -2.801409087     -2.076253649     -2.097648119
C      -1.579261115     -2.137683341     -2.227318660
H      -3.282707690     -1.722437580     -1.335654195
H      -2.970234333     -3.067550321     -2.102324295
H      -0.470723912     -1.560395974     -1.796299387
H      -0.773108674     -3.133132000     -2.926139968
           6
  t=        86.50000    1    1
C      -2.804946005     -2.092676330     -2.108650699
C      -1.599731723     -2.153416582     -2.237150044
H      -3.250556730     -1.692890728     -1.356138860
H      -3.025477019     -3.079294853     -2.143370474
H      -0.522970471     -1.562924147     -1.826137380
H      -0.762854042     -3.116396167     -2.937669295
           6
  t=        87.00000    1    1
C      -2.809420543     -2.109527591     -2.119855119
C      -1.616283192     -2.169283646     -2.247537331
H      -3.225821839     -1.652837801     -1.366375003
H      -3.088452686     -3.100008299     -2.188327330
H      -0.586247367     -1.566979781     -1.858009361
H      -0.761946823     -3.092968624     -2.944473481
           6
  t=        87.50000    1    1
C      -2.815313423     -2.126916438     -2.131096278
C      -1.628677796     -2.185303107     -2.258565132
H      -3.207462849     -1.603080486     -1.368234211
H      -3.158124284     -3.126763081     -2.236687704
H      -0.659653836     -1.572590000     -1.891256258
H      -0.770469575     -3.063427920     -2.946806235
           6
  t=        88.00000    1    1
C      -2.823159286     -2.144886760     -2.142111456
C      -1.636788546     -2.201532989     -2.270337859
H      -3.193994421     -1.546244300     -1.365511581
H      -3.232676128     -3.155519914     -2.287231641
H      -0.741434069     -1.579422015     -1.924819015
H      -0.788621645     -3.028306273     -2.945037824
           6
  t=        88.50000    1    1
C      -2.833345016     -2.163418139     -2.152637780
C      -1.640685010     -2.218078820     -2.282979610
H      -3.184021806     -1.486027431     -1.362377230
H      -3.310215631     -3.182251797     -2.338644473
H      -0.828989293     -1.586158704     -1.957307970
H      -0.816850202     -2.988235490     -2.939356048
           6
  t=        89.00000    1    1
C      -2.846042738     -2.182455317     -2.162483406
C      -1.640710978     -2.235089435     -2.296601379
H      -3.176189320     -1.425910316     -1.361811762
H      -3.388937923     -3.203841011     -2.390336314
H      -0.919219538     -1.590037220     -1.987321681
H      -0.855268333     -2.944500613     -2.929735037
           6
  t=        89.50000    1    1
C      -2.861274382     -2.201926965     -2.171516140
C      -1.637589174     -2.252778590     -2.311298698
H      -3.169393698     -1.369264140     -1.366011071
H      -3.466824949     -3.217547870     -2.441848232
H      -1.007626897     -1.586665390     -2.013242147
H      -0.902622164     -2.899165244     -2.916492658
           6
  t=        90.00000    1    1
C      -2.878693446     -2.221734676     -2.179714749
C      -1.632536838     -2.271374754     -2.327055896
H      -3.163356138     -1.318804030     -1.376751444
H      -3.542189601     -3.221757199     -2.492199305
H      -1.088856428     -1.570901378     -2.032918015
H      -0.955857164     -2.854721476     -2.901424662
           6
  t=        90.50000    1    1
C      -2.897873507     -2.241753379     -2.187139084
C      -1.626707201     -2.290919810     -2.343668178
H      -3.158313926     -1.276540470     -1.395164513
H      -3.613762464     -3.215915740     -2.540274649
H      -1.159808839     -1.538669481     -2.044544926
H      -1.010444317     -2.814779042     -2.888045746
           6
  t=        91.00000    1    1
C      -2.918373708     -2.261836952     -2.193884448
C      -1.621152229     -2.310953813     -2.360564829
H      -3.154764132     -1.244208140     -1.421855200
H      -3.680481952     -3.199902821     -2.585061656
H      -1.221040533     -1.489920337     -2.048240562
H      -1.059109966     -2.784994953     -2.882310778
           6
  t=        91.50000    1    1
C      -2.939782127     -2.281819517     -2.200045213
C      -1.616834211     -2.330508830     -2.376812004
H      -3.153601290     -1.223227655     -1.457130241
H      -3.741604662     -3.173903957     -2.625669364
H      -1.275385291     -1.429459610     -2.046058533
H      -1.092311215     -2.772467594     -2.892753236
           6
  t=        92.00000    1    1
C      -2.961792722     -2.301530449     -2.205774722
C      -1.614437685     -2.348528407     -2.391480672
H      -3.155654804     -1.214795063     -1.500815243
H      -3.796627935     -3.138618193     -2.661205205
H      -1.325253904     -1.364932687     -2.041030817
H      -1.102800469     -2.782277921     -2.926650987
           6
  t=        92.50000    1    1
C      -2.984182845     -2.320829206     -2.211269717
C      -1.614115190     -2.364427007     -2.404170687
H      -3.161695155     -1.219657509     -1.552210446
H      -3.845189415     -3.095188424     -2.690943821
H      -1.371248800     -1.303783517     -2.036101104
H      -1.090402589     -2.813743675     -2.984909145
           6
  t=        93.00000    1    1
C      -3.006761292     -2.339688022     -2.216719978
C      -1.615520754     -2.378251958     -2.415222844
H      -3.171830457     -1.237597887     -1.610020712
H      -3.887025739     -3.044950913     -2.714825559
H      -1.412862157     -1.251077038     -2.033488095
H      -1.062181462     -2.860447668     -3.060341622
           6
  t=        93.50000    1    1
C      -3.029331087     -2.358136349     -2.222251502
C      -1.618182479     -2.390430262     -2.425342899
H      -3.185887865     -1.267502941     -1.672822731
H      -3.921959801     -2.989162018     -2.733265630
H      -1.449702607     -1.208887453     -2.034103730
H      -1.026848481     -2.914733649     -3.143133687
           6
  t=        94.00000    1    1
C      -3.051683429     -2.376172801     -2.227982279
C      -1.621811032     -2.401335363     -2.435089797
H      -3.204101492     -1.307851274     -1.739054237
H      -3.950244341     -2.929487462     -2.746778979
H      -1.480934287     -1.178828286     -2.038705702
H      -0.990688260     -2.970410426     -3.225508853
           6
  t=        94.50000    1    1
C      -3.073573748     -2.393805042     -2.234017527
C      -1.626308984     -2.411195979     -2.444806416
H      -3.226420387     -1.356613981     -1.806916031
H      -3.972689031     -2.867925002     -2.756291383
H      -1.506062811     -1.161963563     -2.047842110
H      -0.957511626     -3.023628483     -3.302453032
           6
  t=        95.00000    1    1
C      -3.094726932     -2.411078964     -2.240466010
C      -1.631689300     -2.420170679     -2.454709486
H      -3.252482646     -1.411098602     -1.874432352
H      -3.990483865     -2.806503232     -2.762879565
H      -1.525123074     -1.158883935     -2.061750111
H      -0.929579255     -3.072024728     -3.370749663
           6
  t=        95.50000    1    1
C      -3.114844658     -2.428159779     -2.247459823
C      -1.638015928     -2.428399802     -2.464940271
H      -3.282013591     -1.467028598     -1.939249469
H      -4.005210280     -2.747269086     -2.767713762
H      -1.538329456     -1.169612566     -2.080329601
H      -0.908162715     -3.114164788     -3.428425070
           6
  t=        96.00000    1    1
C      -3.133610214     -2.445373818     -2.255122145
C      -1.645366625     -2.436042651     -2.475602434
H      -3.314787939     -1.517715609     -1.998527941
H      -4.019051512     -2.692671503     -2.772463916
H      -1.545924657     -1.193449815     -2.103144317
H      -0.893908687     -3.149201038     -3.474382049
           6
  t=        96.50000    1    1
C      -3.150767727     -2.463106588     -2.263512147
C      -1.653801852     -2.443244320     -2.486755800
H      -3.350920060     -1.556370164     -2.050001090
H      -4.034017103     -2.644607867     -2.778772999
H      -1.548083055     -1.229139229     -2.129595346
H      -0.886847340     -3.176959563     -3.508425292
           6
  t=        97.00000    1    1
C      -3.166139604     -2.481647979     -2.272627401
C      -1.663363101     -2.450136443     -2.498444940
H      -3.390614497     -1.577924116     -2.092248603
H      -4.051736655     -2.604536439     -2.788084786
H      -1.544706786     -1.275241409     -2.159113936
H      -0.886864124     -3.197466899     -3.530597928
           6
  t=        97.50000    1    1
C      -3.179671448     -2.501014595     -2.282418749
C      -1.674061842     -2.456876837     -2.510728253
H      -3.433493504     -1.580839605     -2.124807089
H      -4.073213084     -2.573594313     -2.801414851
H      -1.535704024     -1.330099374     -2.191095060
H      -0.893937199     -3.210702441     -3.540842684
           6
  t=        98.00000    1    1
C      -3.191472541     -2.520901970     -2.292825679
C      -1.685877345     -2.463670013     -2.523680353
H      -3.478373136     -1.567619038     -2.148008559
H      -4.098387247     -2.552488180     -2.819066616
H      -1.521199343     -1.391763777     -2.224858466
H      -0.908129921     -3.216597490     -3.539036361
           6
  t=        98.50000    1    1
C      -3.201790078     -2.540814651     -2.303817344
C      -1.698778077     -2.470782017     -2.537389464
H      -3.523501232     -1.543323063     -2.162571694
H      -4.126125445     -2.541548642     -2.840615385
H      -1.501367986     -1.457602178     -2.259525775
H      -0.929583171     -3.215126766     -3.525079648
           6
  t=        99.00000    1    1
C      -3.210937277     -2.560234032     -2.315401738
C      -1.712768551     -2.478577300     -2.551963677
H      -3.566922585     -1.513643819     -2.169328081
H      -4.154569312     -2.540860039     -2.865137259
H      -1.476068856     -1.523467928     -2.293733639
H      -0.958465621     -3.206497301     -3.499045000
           6
  t=        99.50000    1    1
C      -3.219216735     -2.578732363     -2.327603532
C      -1.727916156     -2.487491937     -2.567513702
H      -3.606921075     -1.483467011     -2.169127612
H      -4.181554178     -2.550315098     -2.891527085
H      -1.444677037     -1.583929901     -2.325690933
H      -0.994874345     -3.191262591     -3.461365623
           6
  t=       100.00000    1    1
C      -3.226881921     -2.595991231     -2.340429353
C      -1.744336848     -2.497911633     -2.584103519
H      -3.642181753     -1.456497214     -2.162874638
H      -4.205039543     -2.569638435     -2.918788327
H      -1.406311036     -1.633793241     -2.353616866
H      -1.038644341     -3.170386457     -3.413073165
           6
  t=       100.50000    1    1
C      -3.234140281     -2.611761162     -2.353858587
C      -1.762142461     -2.510024183     -2.601712337
H      -3.671704537     -1.435532647     -2.151476655
H      -4.223389813     -2.598526430     -2.946153414
H      -1.360367339     -1.669833653     -2.376168602
H      -1.089210350     -3.145333569     -3.355863919
           6
  t=       101.00000    1    1
C      -3.241164450     -2.625870334     -2.367850750
C      -1.781372251     -2.523643522     -2.620170577
H      -3.695033725     -1.422525311     -2.135841479
H      -4.235465419     -2.636576715     -2.972989662
H      -1.307290081     -1.692422153     -2.392888393
H      -1.145198703     -3.118447711     -3.292423536
           6
  t=       101.50000    1    1
C      -3.248081794     -2.638232855     -2.382354425
C      -1.802024805     -2.538185478     -2.639101711
H      -3.712338114     -1.418648647     -2.116915084
H      -4.240570191     -2.683219297     -2.998726027
H      -1.248995417     -1.704857639     -2.404052587
H      -1.203719791     -3.093810831     -3.227199977
           6
  t=       102.00000    1    1
C      -3.254975478     -2.648816088     -2.397303744
C      -1.824202944     -2.552769615     -2.657923141
H      -3.724106918     -1.424528436     -2.095771681
H      -4.238190371     -2.737767242     -3.022744103
H      -1.188665202     -1.712024821     -2.410473778
H      -1.259400168     -3.077479230     -3.166651781
           6
  t=       102.50000    1    1
C      -3.261924592     -2.657605388     -2.412632532
C      -1.848148532     -2.566353785     -2.675884542
H      -3.730772257     -1.440775407     -2.073835084
H      -4.228268302     -2.799297451     -3.044179035
H      -1.130276335     -1.718488516     -2.413009946
H      -1.304064072     -3.077792879     -3.119091134
           6
  t=       103.00000    1    1
C      -3.269016852     -2.664637609     -2.428280808
C      -1.874079568     -2.578013430     -2.692347876
H      -3.732640123     -1.467782643     -2.052356435
H      -4.211307199     -2.866785186     -3.062427690
H      -1.077299949     -1.727394493     -2.412699734
H      -1.329788373     -3.102815238     -3.091148761
           6
  t=       103.50000    1    1
C      -3.276324218     -2.669993373     -2.444183031
C      -1.901845436     -2.587376631     -2.707176849
H      -3.729933433     -1.505486403     -2.032143280
H      -4.187874040     -2.939359522     -3.077366770
H      -1.032106395     -1.740347176     -2.410539355
H      -1.334350042     -3.155347573     -3.083549206
           6
  t=       104.00000    1    1
C      -3.283900307     -2.673764835     -2.460258575
C      -1.930778743     -2.594717669     -2.720680993
H      -3.722965424     -1.553590933     -2.013827991
H      -4.158559933     -3.016207826     -3.089117058
H      -0.996456487     -1.758049686     -2.407347872
H      -1.322397497     -3.231428806     -3.091992685
           6
  t=       104.50000    1    1
C      -3.291799745     -2.676109362     -2.476411057
C      -1.959791090     -2.600840140     -2.733405156
H      -3.712449709     -1.611193497     -1.997911028
H      -4.124316635     -3.096397954     -3.097945303
H      -0.971526036     -1.780729964     -2.403841812
H      -1.303407670     -3.321215354     -3.109651675
           6
  t=       105.00000    1    1
C      -3.300086873     -2.677199935     -2.492565724
C      -1.987920989     -2.606498182     -2.745765820
H      -3.699315775     -1.677137248     -1.984682466
H      -4.086083554     -3.179023905     -3.103988645
H      -0.958271392     -1.808354033     -2.400582140
H      -1.285245405     -3.415756787     -3.131466086
           6
  t=       105.50000    1    1
C      -3.308809527     -2.677273430     -2.508695125
C      -2.014515503     -2.612211685     -2.758003529
H      -3.684727762     -1.749727716     -1.974035364
H      -4.044654128     -3.263072857     -3.107238954
H      -0.957284015     -1.840683049     -2.398064776
H      -1.272571852     -3.508981857     -3.154515915
           6
  t=       106.00000    1    1
C      -3.317971985     -2.676678854     -2.524843779
C      -2.039163163     -2.618284955     -2.770233912
H      -3.670222976     -1.826341559     -1.965250530
H      -4.000629602     -3.347354356     -3.107529750
H      -0.968893926     -1.877453431     -2.396757001
H      -1.267770397     -3.597183306     -3.177311285
           6
  t=       106.50000    1    1
C      -3.327538968     -2.675898563     -2.541152522
C      -2.061580527     -2.624885308     -2.782512781
H      -3.657877321     -1.903236577     -1.956585158
H      -3.954479758     -3.430422544     -3.104579047
H      -0.993220489     -1.918411387     -2.397143885
H      -1.271973775     -3.678061686     -3.199048708
           6
  t=       107.00000    1    1
C      -3.337455092     -2.675515640     -2.557875066
C      -2.081553574     -2.632104321     -2.794872601
H      -3.650259274     -1.975835649     -1.944981477
H      -3.906625203     -3.510570558     -3.098016095
H      -1.030131291     -1.963235626     -2.399704452
H      -1.285535470     -3.750183241     -3.219267719
           6
  t=       107.50000    1    1
C      -3.347629475     -2.676088153     -2.575330457
C      -2.099027745     -2.639983766     -2.807328576
H      -3.649907321     -2.039869816     -1.926617013
H      -3.857578144     -3.586113303     -3.087513813
H      -1.078751117     -2.011371887     -2.404719392
H      -1.308012996     -3.812908794     -3.237854346
           6
  t=       108.00000    1    1
C      -3.358021753     -2.678000961     -2.593774108
C      -2.114001616     -2.648577187     -2.819896074
H      -3.658570550     -2.092906333     -1.898269270
H      -3.807962028     -3.655530465     -3.072928475
H      -1.137794557     -2.061998969     -2.412320130
H      -1.338817172     -3.865788733     -3.254816843
           6
  t=       108.50000    1    1
C      -3.368697389     -2.681374272     -2.613234194
C      -2.126543257     -2.657965381     -2.832600244
H      -3.676378845     -2.135408119     -1.859260469
H      -3.758581189     -3.717639719     -3.054416086
H      -1.205293317     -2.113853484     -2.422357525
H      -1.377390970     -3.908410741     -3.270190758
           6
  t=       109.00000    1    1
C      -3.379818216     -2.686123025     -2.633468525
C      -2.136835525     -2.668258979     -2.845498164
H      -3.701849587     -2.170149633     -1.812102730
H      -3.710434465     -3.771560978     -3.032343145
H      -1.278195360     -2.165078330     -2.434154941
H      -1.423162936     -3.940432866     -3.283979818
           6
  t=       109.50000    1    1
C      -3.391573000     -2.692113950     -2.654087819
C      -2.145211138     -2.679640044     -2.858722020
H      -3.732719139     -2.200462087     -1.761126424
H      -3.664679141     -3.816519798     -3.007124182
H      -1.351954354     -2.212994152     -2.446132951
H      -1.475571985     -3.961396295     -3.296082039
           6
  t=       110.00000    1    1
C      -3.404124943     -2.699260649     -2.674692072
C      -2.152175560     -2.692404690     -2.872512574
H      -3.766643226     -2.229041334     -1.710835433
H      -3.622566463     -3.851784402     -2.979217209
H      -1.420234765     -2.253824835     -2.455436061
H      -1.534079021     -3.970614162     -3.306288485
           6
  t=       110.50000    1    1
C      -3.417619624     -2.707541885     -2.694939667
C      -2.158352057     -2.706937176     -2.887212957
H      -3.801576642     -2.257639210     -1.665049354
H      -3.585385926     -3.876717269     -2.949122185
H      -1.475272887     -2.282844748     -2.457887561
H      -1.598042183     -3.967372117     -3.314438271
           6
  t=       111.00000    1    1
C      -3.432130729     -2.716931687     -2.714533509
C      -2.164340449     -2.723567952     -2.903151244
H      -3.835992620     -2.287082752     -1.627001035
H      -3.554212201     -3.891376475     -2.917337841
H      -1.510409855     -2.296059906     -2.449127964
H      -1.666547146     -3.951150973     -3.320790164
           6
  t=       111.50000    1    1
C      -3.447633156     -2.727378904     -2.733219102
C      -2.170386115     -2.742335555     -2.920409540
H      -3.868840317     -2.317639317     -1.599219481
H      -3.530078925     -3.896600542     -2.884493645
H      -1.524176761     -2.292516756     -2.427541960
H      -1.738455265     -3.921948698     -3.325855167
           6
  t=       112.00000    1    1
C      -3.464003307     -2.738815709     -2.750816208
C      -2.176334916     -2.762874572     -2.938690960
H      -3.899381828     -2.349206087     -1.583263168
H      -3.513955894     -3.893896873     -2.851418922
H      -1.520942610     -2.275021868     -2.395771759
H      -1.812475089     -3.880716500     -3.330288483
           6
  t=       112.50000    1    1
C      -3.481057883     -2.751150383     -2.767237198
C      -2.181902859     -2.784563044     -2.957471654
H      -3.927142457     -2.381376347     -1.579517560
H      -3.506733891     -3.885220448     -2.819016287
H      -1.507603139     -2.248564435     -2.359045620
H      -1.886862873     -3.829420846     -3.334859979
           6
  t=       113.00000    1    1
C      -3.498630037     -2.764271383     -2.782424568
C      -2.186927920     -2.806686296     -2.976202922
H      -3.951831561     -2.413644126     -1.587857979
H      -3.509060577     -3.872574711     -2.788218024
H      -1.490039930     -2.218067693     -2.322641627
H      -1.959298747     -3.771486014     -3.340707282
           6
  t=       113.50000    1    1
C      -3.516561407     -2.778009378     -2.796311273
C      -2.191496489     -2.828344733     -2.994313534
H      -3.973246773     -2.445549572     -1.608203612
H      -3.521274784     -3.858317401     -2.759988664
H      -1.472160574     -2.187494096     -2.290863377
H      -2.026596254     -3.713788615     -3.350248575
           6
  t=       114.00000    1    1
C      -3.534640966     -2.792141426     -2.808845499
C      -2.195909432     -2.848396099     -3.011177288
H      -3.991240132     -2.476618421     -1.640497936
H      -3.543454733     -3.845344031     -2.735080988
H      -1.456417812     -2.159842814     -2.266779293
H      -2.085301882     -3.667175478     -3.367798173
           6
  t=       114.50000    1    1
C      -3.552590326     -2.806424416     -2.820029295
C      -2.200533937     -2.865538775     -3.026127700
H      -4.005911479     -2.506218613     -1.684252722
H      -3.575076515     -3.836815569     -2.713983341
H      -1.444479939     -2.137375078     -2.252255149
H      -2.133113324     -3.645262967     -3.399407381
           6
  t=       115.00000    1    1
C      -3.570154011     -2.820649867     -2.829901863
C      -2.205590345     -2.878989352     -3.038712817
H      -4.017574239     -2.533552086     -1.738519670
H      -3.615256724     -3.835502509     -2.697120930
H      -1.437344483     -2.121518959     -2.248171131
H      -2.170021649     -3.656469636     -3.449637329
           6
  t=       115.50000    1    1
C      -3.587144836     -2.834715770     -2.838544924
C      -2.211143647     -2.889001225     -3.048985377
H      -4.026616048     -2.557573250     -1.801727600
H      -3.663079495     -3.843104975     -2.685049820
H      -1.435472786     -2.112913450     -2.254656817
H      -2.197549809     -3.697698086     -3.517771360
           6
  t=       116.00000    1    1
C      -3.603433031     -2.848658530     -2.846095560
C      -2.217216985     -2.896622720     -3.057486777
H      -4.033706298     -2.576825316     -1.871282784
H      -3.717697892     -3.859865808     -2.678484735
H      -1.439222001     -2.111857651     -2.271550254
H      -2.216788712     -3.756937858     -3.597765913
           6
  t=       116.50000    1    1
C      -3.618875746     -2.862658223     -2.852804572
C      -2.223848716     -2.902915186     -3.064835985
H      -4.040299396     -2.589554189     -1.943212720
H      -3.778318855     -3.884446101     -2.677894132
H      -1.449004093     -2.118662209     -2.298800089
H      -2.227910155     -3.822178872     -3.682812490
           6
  t=       117.00000    1    1
C      -3.633225783     -2.877044433     -2.859089912
C      -2.231100761     -2.908654035     -3.071527210
H      -4.048952480     -2.593780338     -2.012050729
H      -3.843832203     -3.914218733     -2.683562160
H      -1.464966569     -2.133346668     -2.336223396
H      -2.231527385     -3.884841495     -3.767407548
           6
  t=       117.50000    1    1
C      -3.646205008     -2.892208149     -2.865445767
C      -2.239032381     -2.914336302     -3.077912448
H      -4.062973066     -2.587144161     -2.071699388
H      -3.912889020     -3.946467926     -2.695780120
H      -1.486775276     -2.155527523     -2.383387231
H      -2.228623972     -3.939803190     -3.847707294
           6
  t=       118.00000    1    1
C      -3.657621441     -2.908519005     -2.872281315
C      -2.247686597     -2.920287399     -3.084256821
H      -4.085338341     -2.567202806     -2.117100194
H      -3.984794160     -3.978918960     -2.714464552
H      -1.513668654     -2.184456689     -2.439632319
H      -2.219454381     -3.984247681     -3.921478252
           6
  t=       118.50000    1    1
C      -3.667453621     -2.926234298     -2.879755753
C      -2.257127444     -2.926777459     -3.090784931
H      -4.117254110     -2.532651805     -2.146492178
H      -4.058725912     -4.009431096     -2.739370112
H      -1.544550611     -2.218989142     -2.504028262
H      -2.204223292     -4.016480484     -3.987083882
           6
  t=       119.00000    1    1
C      -3.675939764     -2.945395344     -2.887708398
C      -2.267429596     -2.934072098     -3.097716188
H      -4.157337828     -2.484615227     -2.162421232
H      -4.133300302     -4.035877614     -2.770046007
H      -1.577868867     -2.257428486     -2.575132369
H      -2.183521240     -4.035543374     -4.043172012
           6
  t=       119.50000    1    1
C      -3.683532091     -2.965820802     -2.895790025
C      -2.278702420     -2.942434351     -3.105271374
H      -4.202166717     -2.426696119     -2.170094716
H      -4.206727982     -4.056290719     -2.805851575
H      -1.611178207     -2.297115740     -2.650702598
H      -2.158313859     -4.041486643     -4.088948471
           6
  t=       120.00000    1    1
C      -3.690732656     -2.987218866     -2.903644763
C      -2.291161689     -2.952191282     -3.113729617
H      -4.247788345     -2.363579693     -2.174874199
H      -4.277152498     -4.069090828     -2.846085216
H      -1.640534316     -2.333887203     -2.727454243
H      -2.129800943     -4.034948236     -4.123952451
           6
  t=       120.50000    1    1
C      -3.697940270     -3.009271468     -2.910996859
C      -2.305134497     -2.963732388     -3.123394589
H      -4.290885866     -2.299786912     -2.181001071
H      -4.343074696     -4.073329352     -2.890015677
H      -1.660840805     -2.362368198     -2.801700687
H      -2.099245232     -4.016879321     -4.148027755
           6
  t=       121.00000    1    1
C      -3.705409875     -3.031700252     -2.917681808
C      -2.320950658     -2.977422355     -3.134492454
H      -4.329219929     -2.238719164     -2.191098996
H      -4.403384065     -4.068749578     -2.937029106
H      -1.667292480     -2.377427218     -2.870725757
H      -2.067834033     -3.988238053     -4.161146038
           6
  t=       121.50000    1    1
C      -3.713318122     -3.054269830     -2.923631343
C      -2.338677216     -2.993387242     -3.147064100
H      -4.361405381     -2.182756172     -2.206486191
H      -4.457214164     -4.055562722     -2.986585209
H      -1.658167463     -2.376839990     -2.934056937
H      -2.036637015     -3.949960484     -4.163328115
           6
  t=       122.00000    1    1
C      -3.721806675     -3.076777056     -2.928851984
C      -2.357969009     -3.011393202     -3.160998356
H      -4.386672151     -2.133581911     -2.227582758
H      -4.503902872     -4.034258586     -3.038100821
H      -1.636346727     -2.362575791     -2.992989440
H      -2.006630243     -3.903110659     -4.154688838
           6
  t=       122.50000    1    1
C      -3.730986866     -3.099038129     -2.933399118
C      -2.378208175     -3.030953930     -3.176148932
H      -4.404657019     -2.092501317     -2.254324445
H      -4.543027727     -4.005511699     -3.090904897
H      -1.607713785     -2.339246227     -3.048972860
H      -1.978751492     -3.849082233     -4.135597074
           6
  t=       123.00000    1    1
C      -3.740937174     -3.120880883     -2.937352167
C      -2.398751749     -3.051518044     -3.192395132
H      -4.415241071     -2.060583752     -2.286453317
H      -4.574427147     -3.970184377     -3.144285936
H      -1.578407293     -2.311707043     -3.102654107
H      -1.953868857     -3.789709375     -4.106867167
           6
  t=       123.50000    1    1
C      -3.751702892     -3.142135479     -2.940797244
C      -2.419078456     -3.072579810     -3.209630786
H      -4.418450530     -2.038690200     -2.323613558
H      -4.598262474     -3.929416381     -3.197606212
H      -1.553231179     -2.283736674     -3.153925549
H      -1.932662495     -3.727262810     -4.069839255
           6
  t=       124.00000    1    1
C      -3.763291102     -3.162624600     -2.943816896
C      -2.438843811     -3.093691762     -3.227711006
H      -4.414382708     -2.027545781     -2.365381891
H      -4.615056517     -3.884605398     -3.250385438
H      -1.535425643     -2.257802269     -3.202295926
H      -1.915292450     -3.664597279     -4.026651046
           6
  t=       124.50000    1    1
C      -3.775674811     -3.182158951     -2.946483622
C      -2.457896375     -3.114427110     -3.246392078
H      -4.403144289     -2.027805762     -2.411304554
H      -4.625693134     -3.837366114     -3.302339657
H      -1.527023705     -2.235356969     -3.247164627
H      -1.900861308     -3.605330767     -3.980680968
           6
  t=       125.00000    1    1
C      -3.788806033     -3.200545261     -2.948852406
C      -2.476288746     -3.134375478     -3.265324219
H      -4.384899794     -2.040018119     -2.460832426
H      -4.631410806     -3.789478875     -3.353453991
H      -1.529033900     -2.217012918     -3.287978435
H      -1.886902592     -3.553715660     -3.936558988
           6
  t=       125.50000    1    1
C      -3.802598640     -3.217615605     -2.950960391
C      -2.494249344     -3.153161670     -3.284110682
H      -4.360084591     -2.064334981     -2.513307352
H      -4.633723996     -3.742816066     -3.403932110
H      -1.541881647     -2.203088234     -3.324209703
H      -1.869345515     -3.513880993     -3.899552162
           6
  t=       126.00000    1    1
C      -3.816936941     -3.233304678     -2.952841173
C      -2.512028746     -3.170484084     -3.302391805
H      -4.329690868     -2.099640246     -2.568036845
H      -4.634182510     -3.699471371     -3.454109062
H      -1.565506599     -2.193548242     -3.354864033
H      -1.844101202     -3.489255801     -3.874897600
           6
  t=       126.50000    1    1
C      -3.831622782     -3.247647024     -2.954609430
C      -2.529841260     -3.186258112     -3.319984598
H      -4.294752659     -2.144238523     -2.623998465
H      -4.634255866     -3.661089600     -3.504338164
H      -1.599192439     -2.187423335     -3.379271837
H      -1.809189905     -3.481456807     -3.864748041
           6
  t=       127.00000    1    1
C      -3.846438312     -3.260704434     -2.956433768
C      -2.547687087     -3.200605253     -3.337000304
H      -4.256058341     -2.196816116     -2.680031767
H      -4.634935586     -3.628466125     -3.554673320
H      -1.642383177     -2.183818310     -3.397341785
H      -1.765981192     -3.489713521     -3.866966713
           6
  t=       127.50000    1    1
C      -3.861221137     -3.272650215     -2.958488979
C      -2.565278605     -3.213717201     -3.353734999
H      -4.214688775     -2.255100648     -2.734563152
H      -4.636710982     -3.601961605     -3.605119201
H      -1.694878804     -2.182463779     -3.409420393
H      -1.718467122     -3.511857809     -3.877165360
           6
  t=       128.00000    1    1
C      -3.875810195     -3.283848677     -2.960984843
C      -2.582201036     -3.225747329     -3.370474875
H      -4.172607923     -2.314538641     -2.785649336
H      -4.639776746     -3.581911980     -3.655426911
H      -1.756613715     -2.183767410     -3.415806373
H      -1.671416172     -3.545531019     -3.891327594
           6
  t=       128.50000    1    1
C      -3.890050922     -3.294865123     -2.964153333
C      -2.598059288     -3.236806570     -3.387413877
H      -4.132483571     -2.368437742     -2.831559999
H      -4.643964516     -3.568385909     -3.704836297
H      -1.827367171     -2.188587324     -3.416703602
H      -1.629099179     -3.588440883     -3.906664911
           6
  t=       129.00000    1    1
C      -3.903818075     -3.306416154     -2.968220450
C      -2.612527194     -3.246995363     -3.404652606
H      -4.097182851     -2.408524684     -2.871046338
H      -4.648816148     -3.561113738     -3.752196914
H      -1.906738276     -2.197900695     -3.412394428
H      -1.594886905     -3.638417592     -3.921402520
           6
  t=       129.50000    1    1
C      -3.917042664     -3.319212103     -2.973382828
C      -2.625385413     -3.256413822     -3.422212919
H      -4.069034521     -2.426557103     -2.903387652
H      -4.653884405     -3.559805012     -3.796243003
H      -1.993917791     -2.212529848     -3.403334915
H      -1.571142737     -3.693514619     -3.934467362
           6
  t=       130.00000    1    1
C      -3.929779211     -3.333604895     -2.979753755
C      -2.636576772     -3.265182111     -3.440071178
H      -4.048465735     -2.418711658     -2.928621246
H      -4.658834219     -3.564186917     -3.835901590
H      -2.087561261     -2.232661662     -3.390220915
H      -1.559150619     -3.752015961     -3.945131011
           6
  t=       130.50000    1    1
C      -3.942177744     -3.349382743     -2.987385149
C      -2.646175197     -3.273490272     -3.458198186
H      -4.034248520     -2.387849094     -2.947223911
H      -4.663522988     -3.574055383     -3.870288189
H      -2.185913748     -2.257381712     -3.373749975
H      -1.559367505     -3.812438468     -3.952832865
           6
  t=       131.00000    1    1
C      -3.954387998     -3.365915675     -2.996310083
C      -2.654359365     -3.281641803     -3.476551705
H      -4.025452048     -2.341792444     -2.959655117
H      -4.667973459     -3.589246012     -3.898663261
H      -2.285853991     -2.284749196     -3.354764217
H      -1.571909498     -3.872954501     -3.957120101
           6
  t=       131.50000    1    1
C      -3.966483792     -3.382514893     -3.006538998
C      -2.661397891     -3.290031999     -3.495049110
H      -4.022074265     -2.289410636     -2.966545798
H      -4.672309444     -3.609417699     -3.920563878
H      -2.383264376     -2.311632538     -3.334043301
H      -1.596692099     -3.931665067     -3.957905163
           6
  t=       132.00000    1    1
C      -3.978475625     -3.398664486     -3.018072574
C      -2.667576713     -3.299057187     -3.513600355
H      -4.024197970     -2.237869032     -2.968750852
H      -4.676544148     -3.633982591     -3.935642056
H      -2.474805860     -2.334510554     -3.311994109
H      -1.633426116     -3.986938780     -3.955339100
           6
  t=       132.50000    1    1
C      -3.990384741     -3.414044792     -3.030879354
C      -2.673182067     -3.309051959     -3.532132270
H      -4.032034747     -2.192450167     -2.967111453
H      -4.680709901     -3.662330455     -3.943788131
H      -2.557316720     -2.349820831     -3.288833285
H      -1.681365514     -4.037487832     -3.949720482
           6
  t=       133.00000    1    1
C      -4.002213573     -3.428461188     -3.044913713
C      -2.678441441     -3.320224528     -3.550570603
H      -4.046239060     -2.156521632     -2.962149606
H      -4.684975892     -3.694055976     -3.945221632
H      -2.628331749     -2.355286331     -3.264776134
H      -1.739412210     -4.082465088     -3.941520873
           6
  t=       133.50000    1    1
C      -4.013902778     -3.441793289     -3.060131801
C      -2.683514744     -3.332569107     -3.568802082
H      -4.067365815     -2.131770257     -2.954228971
H      -4.689607431     -3.728797303     -3.940329790
H      -2.687152635     -2.351549825     -3.240367467
H      -1.806245961     -4.121406196     -3.931316789
           6
  t=       134.00000    1    1
C      -4.025356027     -3.453999223     -3.076469517
C      -2.688587542     -3.345862925     -3.586664260
H      -4.095389999     -2.118846233     -2.943842944
H      -4.694988402     -3.766167494     -3.929677125
H      -2.733965949     -2.341602175     -3.216649472
H      -1.880258013     -4.154210441     -3.919707585
           6
  t=       134.50000    1    1
C      -4.036468594     -3.465074329     -3.093844161
C      -2.693911184     -3.359751200     -3.603952636
H      -4.129807000     -2.118092899     -2.931624751
H      -4.701709878     -3.805900202     -3.914003721
H      -2.768950501     -2.329199899     -3.194960093
H      -1.959435996     -4.181327338     -3.907404211
           6
  t=       135.00000    1    1
C      -4.047133912     -3.475011043     -3.112161172
C      -2.699771321     -3.373843307     -3.620451355
H      -4.169924188     -2.129817298     -2.918200295
H      -4.710538796     -3.847888793     -3.894185622
H      -2.792265458     -2.317723417     -3.176647406
H      -2.041412513     -4.203920716     -3.895255467
           6
  t=       135.50000    1    1
C      -4.057253894     -3.483787094     -3.131317722
C      -2.706477541     -3.387738408     -3.635953634
H      -4.214911423     -2.154292891     -2.904179155
H      -4.722239144     -3.892187776     -3.871133992
H      -2.804206131     -2.309810621     -3.162840816
H      -2.123438233     -4.224066398     -3.884300424
           6
  t=       136.00000    1    1
C      -4.066754419     -3.491367254     -3.151217339
C      -2.714361531     -3.401020966     -3.650268188
H      -4.263822216     -2.191734866     -2.890162001
H      -4.737393849     -3.939009662     -3.845629637
H      -2.805127247     -2.307319452     -3.154361723
H      -2.202452921     -4.244849849     -3.875765019
           6
  t=       136.50000    1    1
C      -4.075597700     -3.497720860     -3.171795562
C      -2.723739600     -3.413286809     -3.663232771
H      -4.315677671     -2.242227970     -2.876710058
H      -4.756309684     -3.988649978     -3.818111748
H      -2.795266805     -2.311420466     -3.151724530
H      -2.275571926     -4.269901630     -3.870835805
           6
  t=       137.00000    1    1
C      -4.083797602     -3.502850684     -3.193039867
C      -2.734847374     -3.424226317     -3.674738592
H      -4.369546695     -2.305580176     -2.864302892
H      -4.778897785     -4.041300106     -3.788498613
H      -2.774697537     -2.322742085     -3.155159437
H      -2.340769594     -4.302250263     -3.870330276
           6
  t=       137.50000    1    1
C      -4.091431811     -3.506826172     -3.214978463
C      -2.747793193     -3.433724731     -3.684756929
H      -4.424543330     -2.381015677     -2.853355649
H      -4.804462515     -4.096861669     -3.756220454
H      -2.743522812     -2.341559713     -3.164560602
H      -2.397307558     -4.343034461     -3.874515026
           6
  t=       138.00000    1    1
C      -4.098654816     -3.509820511     -3.237614475
C      -2.762521779     -3.441888950     -3.693364011
H      -4.479825150     -2.466904372     -2.844151399
H      -4.831734128     -4.154731801     -3.720699334
H      -2.702258719     -2.367958341     -3.179618955
H      -2.445599739     -4.391064760     -3.883048425
           6
  t=       138.50000    1    1
C      -4.105690315     -3.512142961     -3.260922304
C      -2.778846368     -3.448981038     -3.700708608
H      -4.535035770     -2.560626341     -2.836628423
H      -4.859057016     -4.213828722     -3.681575435
H      -2.651373603     -2.401870536     -3.200051471
H      -2.486749655     -4.443302614     -3.895167369
           6
  t=       139.00000    1    1
C      -4.112809992     -3.514217493     -3.284853362
C      -2.796495557     -3.455379859     -3.707020693
H      -4.589981170     -2.658399701     -2.830326132
H      -4.884382450     -4.272922428     -3.638828813
H      -2.591729867     -2.442553569     -3.225071844
H      -2.522134336     -4.495936310     -3.909977389
           6
  t=       139.50000    1    1
C      -4.120282866     -3.516500762     -3.309341752
C      -2.815151759     -3.461502491     -3.712569915
H      -4.644980605     -2.755809509     -2.824262269
H      -4.905765429     -4.330954250     -3.592898581
H      -2.524288878     -2.488694776     -3.253577078
H      -2.552996859     -4.545341002     -3.926696747
           6
  t=       140.00000    1    1
C      -4.128265180     -3.519356274     -3.334283841
C      -2.834485403     -3.467778214     -3.717634937
H      -4.700940533     -2.848710457     -2.817202965
H      -4.921715086     -4.387096172     -3.544685385
H      -2.450663199     -2.538829984     -3.284342827
H      -2.580374402     -4.588507617     -3.944797453
           6
  t=       140.50000    1    1
C      -4.136867280     -3.523008128     -3.359534496
C      -2.854185326     -3.474584066     -3.722443489
H      -4.758745820     -2.934370686     -2.808236800
H      -4.931104186     -4.440479115     -3.495270769
H      -2.372739996     -2.591638657     -3.316464284
H      -2.605015042     -4.623194662     -3.964029975
           6
  t=       141.00000    1    1
C      -4.146291270     -3.527559889     -3.384874314
C      -2.873948245     -3.482181885     -3.727164165
H      -4.818411583     -3.011570315     -2.797275693
H      -4.932962579     -4.490305148     -3.445899832
H      -2.292216726     -2.646180044     -3.349487889
H      -2.627381971     -4.648006689     -3.984296265
           6
  t=       141.50000    1    1
C      -4.156846329     -3.533039778     -3.410012125
C      -2.893465501     -3.490690734     -3.731917916
H      -4.878841560     -3.080094480     -2.784913833
H      -4.926547083     -4.535933126     -3.398180042
H      -2.210709921     -2.702071650     -3.383504993
H      -2.647691881     -4.662427198     -4.005331613
           6
  t=       142.00000    1    1
C      -4.168906704     -3.539441511     -3.434603581
C      -2.912377971     -3.500120219     -3.736809579
H      -4.938246097     -3.140116230     -2.772352415
H      -4.911517195     -4.576985729     -3.353836855
H      -2.130021965     -2.759297568     -3.418812402
H      -2.666092377     -4.666636793     -4.026766467
           6
  t=       142.50000    1    1
C      -4.182850689     -3.546751963     -3.458308852
C      -2.930309192     -3.510422936     -3.741929667
H      -4.994269478     -3.191843816     -2.760813510
H      -4.887925871     -4.613188287     -3.314845673
H      -2.052452643     -2.817975823     -3.455866090
H      -2.682564578     -4.661305115     -4.047918201
           6
  t=       143.00000    1    1
C      -4.198723893     -3.554909729     -3.480895366
C      -2.947085070     -3.521506829     -3.747303822
H      -5.045456914     -3.235738817     -2.751957361
H      -4.856313212     -4.644662390     -3.282112426
H      -1.980285943     -2.878499666     -3.494805735
H      -2.697270177     -4.647284336     -4.068546624
           6
  t=       143.50000    1    1
C      -4.216435022     -3.563874299     -3.502198478
C      -2.962615319     -3.533273745     -3.752922867
H      -5.091014733     -3.272078550     -2.747454113
H      -4.817256402     -4.671626997     -3.255948129
H      -1.915558311     -2.940970686     -3.535524118
H      -2.710552875     -4.625628832     -4.088849053
           6
  t=       144.00000    1    1
C      -4.235930478     -3.573651814     -3.522070130
C      -2.976795107     -3.545636732     -3.758792609
H      -5.130190886     -3.300786683     -2.748504585
H      -4.771276848     -4.694170061     -3.236944665
H      -1.860154399     -3.005052133     -3.577844767
H      -2.722646462     -4.597626687     -4.108904246
           6
  t=       144.50000    1    1
C      -4.257133332     -3.584250122     -3.540423174
C      -2.989556268     -3.558482559     -3.764922694
H      -5.162530598     -3.321917906     -2.755880209
H      -4.719095429     -4.712336062     -3.225474567
H      -1.815466223     -3.070179696     -3.621405700
H      -2.733621723     -4.564998735     -4.128853710
           6
  t=       145.00000    1    1
C      -4.279898360     -3.595670013     -3.557237606
C      -3.000898898     -3.571630869     -3.771289922
H      -5.187784716     -3.335759510     -2.769937246
H      -4.661808627     -4.726188173     -3.221741928
H      -1.782406528     -3.135455527     -3.665778101
H      -2.743447864     -4.530431998     -4.149080714
           6
  t=       145.50000    1    1
C      -4.304013825     -3.607907039     -3.572535533
C      -3.010887890     -3.584837902     -3.777829494
H      -5.205835116     -3.342690207     -2.790770046
H      -4.600744272     -4.735830991     -3.225861522
H      -1.761565609     -3.199615364     -3.710449898
H      -2.752074654     -4.497665035     -4.170396916
           6
  t=       146.00000    1    1
C      -4.329198462     -3.620942425     -3.586392254
C      -3.019654339     -3.597825051     -3.784437894
H      -5.216796912     -3.343184641     -2.818183936
H      -4.537296032     -4.741465622     -3.237765969
H      -1.753257182     -3.261320838     -3.754851079
H      -2.759468951     -4.470903943     -4.193970594
           6
  t=       146.50000    1    1
C      -4.355118104     -3.634747267     -3.598924505
C      -3.027376337     -3.610330346     -3.790997944
H      -5.221100042     -3.337730305     -2.851689423
H      -4.472873205     -4.743425931     -3.257246594
H      -1.757421374     -3.319217404     -3.798381148
H      -2.765711133     -4.454147899     -4.221105697
           6
  t=       147.00000    1    1
C      -4.381399450     -3.649269132     -3.610283670
C      -3.034236256     -3.622173418     -3.797430826
H      -5.219619310     -3.326829070     -2.890480579
H      -4.409201508     -4.742430864     -3.283772100
H      -1.773533400     -3.372000785     -3.840432711
H      -2.771000541     -4.450254319     -4.252882141
           6
  t=       147.50000    1    1
C      -4.407656962     -3.664424692     -3.620648370
C      -3.040368197     -3.633309510     -3.803747882
H      -5.213700992     -3.310945974     -2.933452684
H      -4.348429589     -4.739778299     -3.316348475
H      -1.800782556     -3.418562397     -3.880407699
H      -2.775648967     -4.460095107     -4.289733230
           6
  t=       148.00000    1    1
C      -4.433503394     -3.680122495     -3.630230772
C      -3.045862649     -3.643854090     -3.810064176
H      -5.205128988     -3.290394000     -2.979161797
H      -4.292729073     -4.737096004     -3.353675918
H      -1.838079571     -3.458014021     -3.917727140
H      -2.780326204     -4.482331575     -4.331082456
           6
  t=       148.50000    1    1
C      -4.458541928     -3.696301900     -3.639284837
C      -3.050811991     -3.654042808     -3.816577907
H      -5.195952212     -3.265302679     -3.025819065
H      -4.244018819     -4.735906265     -3.394348532
H      -1.883840371     -3.489623096     -3.951817770
H      -2.786276197     -4.513959096     -4.375310082
           6
  t=       149.00000    1    1
C      -4.482382224     -3.712931931     -3.648093671
C      -3.055387231     -3.664171654     -3.823511832
H      -5.188122117     -3.235644476     -3.071469995
H      -4.203686778     -4.737344665     -3.437021762
H      -1.935851074     -3.512736733     -3.982154972
H      -2.794986875     -4.551364709     -4.420212057
           6
  t=       149.50000    1    1
C      -4.504686562     -3.729999067     -3.656911442
C      -3.059871331     -3.674537985     -3.831058598
H      -5.183213010     -3.201192329     -3.114395236
H      -4.172641800     -4.742181394     -3.480519482
H      -1.991264341     -3.526750189     -4.008420165
H      -2.807474906     -4.591227918     -4.463678329
           6
  t=       150.00000    1    1
C      -4.525225280     -3.747477726     -3.665900039
C      -3.064654982     -3.685390012     -3.839343849
H      -5.182112095     -3.161801564     -3.153634729
H      -4.151504075     -4.750952476     -3.523818045
H      -2.046431069     -3.531096821     -4.030640759
H      -2.823963220     -4.631071257     -4.504239048
           6
  t=       150.50000    1    1
C      -4.543902556     -3.765283304     -3.675108490
C      -3.070206438     -3.696914681     -3.848414426
H      -5.184706586     -3.118016808     -3.189262018
H      -4.140673286     -4.764006739     -3.566068031
H      -2.096984979     -3.525224295     -4.049258825
H      -2.844093446     -4.669334099     -4.541085683
           6
  t=       151.00000    1    1
C      -4.560738633     -3.783254559     -3.684500506
C      -3.076987353     -3.709253879     -3.858261732
H      -5.189969157     -3.071369579     -3.222160342
H      -4.140368957     -4.781521768     -3.606628836
H      -2.138625417     -3.508630740     -4.065023528
H      -2.867231899     -4.705039870     -4.573761283
           6
  t=       151.50000    1    1
C      -4.575797007     -3.801185868     -3.693999012
C      -3.085356211     -3.722531750     -3.868874266
H      -5.196493490     -3.024062892     -3.253526292
H      -4.150875254     -4.803554688     -3.645017500
H      -2.168154164     -3.480810340     -4.078643394
H      -2.892670770     -4.737405123     -4.601899115
           6
  t=       152.00000    1    1
C      -4.589143110     -3.818870913     -3.703522879
C      -3.095475323     -3.736851287     -3.880269062
H      -5.202932386     -2.978518231     -3.284452405
H      -4.172637299     -4.829928570     -3.680925840
H      -2.184528294     -3.441419482     -4.090477814
H      -2.919641353     -4.765760087     -4.625119186
           6
  t=       152.50000    1    1
C      -4.600830281     -3.836127963     -3.713010010
C      -3.107278143     -3.752268090     -3.892496288
H      -5.208212075     -2.937082367     -3.315733758
H      -4.206164892     -4.860103832     -3.714198416
H      -2.189304486     -3.390694507     -4.100410511
H      -2.947308316     -4.789564174     -4.643040263
           6
  t=       153.00000    1    1
C      -4.610901122     -3.852814583     -3.722422622
C      -3.120509742     -3.768753331     -3.905620835
H      -5.211556754     -2.901899540     -3.347863984
H      -4.251901032     -4.893064972     -3.744789921
H      -2.186280977     -3.329920071     -4.107957020
H      -2.974736247     -4.808444718     -4.655375509
           6
  t=       153.50000    1    1
C      -4.619409493     -3.868816310     -3.731747471
C      -3.134823835     -3.786182738     -3.919691315
H      -5.212463110     -2.874854371     -3.381090821
H      -4.309862530     -4.927476982     -3.772717128
H      -2.180591302     -3.261962437     -4.112672729
H      -3.000762536     -4.821830504     -4.661883553
           6
  t=       154.00000    1    1
C      -4.626400241     -3.884043722     -3.740984504
C      -3.149890951     -3.804394174     -3.934749254
H      -5.210755537     -2.857488521     -3.415490909
H      -4.379851119     -4.961952881     -3.797961979
H      -2.177237525     -3.190528468     -4.114261752
H      -3.024150491     -4.828857500     -4.662307521
           6
  t=       154.50000    1    1
C      -4.631910472     -3.898432216     -3.750148344
C      -3.165466393     -3.823235637     -3.950810522
H      -5.206580841     -2.850885933     -3.450963714
H      -4.461331423     -4.995178004     -3.820569321
H      -2.179828292     -3.118681453     -4.112478394
H      -3.044153625     -4.829274142     -4.656585490
           6
  t=       155.00000    1    1
C      -4.636002815     -3.911971586     -3.759267381
C      -3.181363218     -3.842511854     -3.967837548
H      -5.200323355     -2.855494183     -3.487236282
H      -4.553351096     -5.026000624     -3.840730126
H      -2.190803941     -3.049150181     -4.107295118
H      -3.060380897     -4.823504190     -4.644936338
           6
  t=       155.50000    1    1
C      -4.638766070     -3.924728199     -3.768372988
C      -3.197447753     -3.861936325     -3.985726368
H      -5.192413300     -2.871140849     -3.523948007
H      -4.654799094     -5.053425715     -3.858770233
H      -2.211731370     -2.984588769     -4.098974234
H      -3.072480922     -4.812684039     -4.627997508
           6
  t=       156.00000    1    1
C      -4.640329268     -3.936848113     -3.777498642
C      -3.213635044     -3.881172845     -4.004304402
H      -5.183218672     -2.897137991     -3.560736312
H      -4.764655658     -5.076229786     -3.874819029
H      -2.243594098     -2.927470630     -4.088028881
H      -3.079596748     -4.798517403     -4.607146543
           6
  t=       156.50000    1    1
C      -4.640871899     -3.948516494     -3.786685446
C      -3.229887508     -3.899883864     -4.023338803
H      -5.173121848     -2.932310384     -3.597203436
H      -4.881009049     -5.092809890     -3.889041377
H      -2.287102156     -2.880017666     -4.075110852
H      -3.080856760     -4.783376337     -4.584249328
           6
  t=       157.00000    1    1
C      -4.640611632     -3.959929961     -3.795968792
C      -3.246210860     -3.917715715     -4.042551394
H      -5.162703705     -2.974925115     -3.632886439
H      -5.000896386     -5.101620488     -3.901869124
H      -2.342544563     -2.843993250     -4.060957259
H      -3.075692192     -4.770647239     -4.561492789
           6
  t=       157.50000    1    1
C      -4.639792566     -3.971326709     -3.805372115
C      -3.262656221     -3.934287599     -4.061653897
H      -5.152780202     -3.022591319     -3.667314064
H      -5.121061990     -5.101399634     -3.913722235
H      -2.409550879     -2.820518718     -4.046265497
H      -3.063395468     -4.764560818     -4.541386587
           6
  t=       158.00000    1    1
C      -4.638652967     -3.983002821     -3.814932803
C      -3.279294702     -3.949246822     -4.080404587
H      -5.144415362     -3.072164265     -3.699914580
H      -5.238475313     -5.091306621     -3.924832212
H      -2.487374284     -2.810259695     -4.031661537
H      -3.042993478     -4.769111430     -4.526079825
           6
  t=       158.50000    1    1
C      -4.637398710     -3.995295655     -3.824703203
C      -3.296167980     -3.962400824     -4.098678729
H      -5.138967828     -3.119816972     -3.730020328
H      -5.350600987     -5.071068993     -3.935306262
H      -2.575062553     -2.813558906     -4.017760336
H      -3.013665436     -4.786330448     -4.516380515
           6
  t=       159.00000    1    1
C      -4.636214799     -4.008537482     -3.834738696
C      -3.313246215     -3.973832474     -4.116494735
H      -5.137964813     -3.161521456     -3.756963262
H      -5.455161667     -5.040912538     -3.945242951
H      -2.671305601     -2.830206350     -4.005167248
H      -2.975622662     -4.815283353     -4.511373497
           6
  t=       159.50000    1    1
C      -4.635300466     -4.022991541     -3.845083617
C      -3.330420536     -3.983888980     -4.133967930
H      -5.142827628     -3.193788577     -3.780178969
H      -5.550071181     -5.001478633     -3.954740433
H      -2.774223868     -2.859102932     -3.994417678
H      -2.930332877     -4.852643151     -4.509087185
           6
  t=       160.00000    1    1
C      -4.634927572     -4.038796089     -3.855751691
C      -3.347506955     -3.993056717     -4.151246422
H      -5.154252290     -3.214440621     -3.799407426
H      -5.633623852     -4.953790623     -3.963817032
H      -2.881524155     -2.898448719     -3.985885743
H      -2.880051864     -4.893921225     -4.507460797
           6
  t=       160.50000    1    1
C      -4.635485650     -4.055927544     -3.866727324
C      -3.364284268     -4.001845509     -4.168467984
H      -5.171562195     -3.223199824     -3.814638597
H      -5.704542655     -4.899200913     -3.972464007
H      -2.990626064     -2.945831131     -3.979799107
H      -2.827307899     -4.934661587     -4.504829620
           6
  t=       161.00000    1    1
C      -4.637483275     -4.074208692     -3.877979172
C      -3.380549304     -4.010751693     -4.185737489
H      -5.192634994     -3.221613457     -3.825934592
H      -5.762017258     -4.839437521     -3.980719492
H      -3.098486977     -2.997758772     -3.976240329
H      -2.774437192     -4.971277816     -4.500134676
           6
  t=       161.50000    1    1
C      -4.641499064     -4.093373687     -3.889463612
C      -3.396143780     -4.020298387     -4.203136937
H      -5.214576340     -3.212192366     -3.833631753
H      -5.805601528     -4.776591705     -3.988512632
H      -3.201502614     -3.049329059     -3.974842988
H      -2.723375926     -5.001004808     -4.493019633
           6
  t=       162.00000    1    1
C      -4.647912636     -4.113090469     -3.901137730
C      -3.410974802     -4.031055742     -4.220753186
H      -5.234673757     -3.197736849     -3.838476605
H      -5.835423230     -4.712811160     -3.995658572
H      -3.297033422     -3.094813946     -3.974402890
H      -2.675931872     -5.021785589     -4.483603382
           6
  t=       162.50000    1    1
C      -4.656968208     -4.133088365     -3.912970759
C      -3.424968835     -4.043538304     -4.238686421
H      -5.250797705     -3.180865271     -3.841138400
H      -5.851715702     -4.649953296     -4.002083197
H      -3.383181427     -3.127955490     -3.973289673
H      -2.633865383     -5.032496436     -4.472093989
           6
  t=       163.00000    1    1
C      -4.668822523     -4.153155604     -3.924937336
C      -3.438051061     -4.058057626     -4.257007762
H      -5.261432069     -3.163677225     -3.841995742
H      -5.855098132     -4.589972311     -4.007924038
H      -3.458579677     -3.143783654     -3.970182759
H      -2.598464164     -5.032864598     -4.458750658
           6
  t=       163.50000    1    1
C      -4.683417026     -4.173092488     -3.937030413
C      -3.450186088     -4.074533364     -4.275674577
H      -5.265575058     -3.147626400     -3.841294670
H      -5.846980129     -4.534798167     -4.013382994
H      -3.523246551     -3.141868854     -3.964861503
H      -2.570421468     -5.023272925     -4.443938097
           6
  t=       164.00000    1    1
C      -4.700538749     -4.192734607     -3.949266589
C      -3.461415007     -4.092517720     -4.294511348
H      -5.263095315     -3.133655487     -3.839202183
H      -5.829189483     -4.485993885     -4.018587321
H      -3.577247698     -3.126294177     -3.958508783
H      -2.550023197     -5.004427464     -4.428072775
           6
  t=       164.50000    1    1
C      -4.719819307     -4.211932310     -3.961670584
C      -3.471885229     -4.111399136     -4.313274020
H      -5.254766056     -3.122187080     -3.835797874
H      -5.804305834     -4.444997725     -4.023675057
H      -3.620042821     -3.103207415     -3.953078403
H      -2.537089901     -4.977389915     -4.411596790
           6
  t=       165.00000    1    1
C      -4.740705780     -4.230519414     -3.974236343
C      -3.481780723     -4.130660983     -4.331761894
H      -5.241369944     -3.113387176     -3.831240761
H      -5.776351751     -4.413271406     -4.028956641
H      -3.651455565     -3.078047687     -3.950182372
H      -2.531388992     -4.943229568     -4.394892289
           6
  t=       165.50000    1    1
C      -4.762508158     -4.248301366     -3.986936495
C      -3.491261892     -4.149905844     -4.349820864
H      -5.223492219     -3.107536571     -3.825737057
H      -5.751183033     -4.392320743     -4.034841709
H      -3.671668394     -3.054920926     -3.950977599
H      -2.532607566     -4.903107662     -4.378348930
           6
  t=       166.00000    1    1
C      -4.784470888     -4.265077112     -3.999747291
C      -3.500485455     -4.168820765     -4.367319187
H      -5.201663067     -3.105090761     -3.819499380
H      -5.735594997     -4.383543358     -4.041720476
H      -3.680881796     -3.036845031     -3.956315384
H      -2.540355157     -4.858277878     -4.362365388
           6
  t=       166.50000    1    1
C      -4.805855730     -4.280676138     -4.012650703
C      -3.509630809     -4.187157433     -4.384148945
H      -5.176516442     -3.106663216     -3.812738382
H      -5.735956714     -4.387820004     -4.049926478
H      -3.679412772     -3.025875914     -3.966774272
H      -2.553970757     -4.810180701     -4.347319635
           6
  t=       167.00000    1    1
C      -4.826113184     -4.294974559     -4.025635512
C      -3.518904589     -4.204689635     -4.400220101
H      -5.148922084     -3.112987382     -3.805645154
H      -5.756413767     -4.405422412     -4.059670176
H      -3.667590299     -3.023357953     -3.982792912
H      -2.572195492     -4.760638257     -4.333578039
           6
  t=       167.50000    1    1
C      -4.845075605     -4.307911324     -4.038692221
C      -3.528536483     -4.221194667     -4.415468585
H      -5.119980483     -3.124899021     -3.798385269
H      -5.796938599     -4.435921807     -4.071006673
H      -3.645710157     -3.030033641     -4.004732476
H      -2.592921390     -4.711882164     -4.321435308
           6
  t=       168.00000    1    1
C      -4.862963409     -4.319488860     -4.051807397
C      -3.538781273     -4.236471333     -4.429867192
H      -5.090923942     -3.143233572     -3.791134453
H      -5.853255320     -4.478248146     -4.083877112
H      -3.614037020     -3.046141275     -4.032829216
H      -2.613265043     -4.666277216     -4.311022592
           6
  t=       168.50000    1    1
C      -4.880212182     -4.329758102     -4.064962830
C      -3.549900888     -4.250362744     -4.443421616
H      -5.063114070     -3.168706619     -3.784042363
H      -5.918709439     -4.530870945     -4.098191957
H      -3.572828884     -3.071533815     -4.067220159
H      -2.629950006     -4.626047855     -4.302291853
           6
  t=       169.00000    1    1
C      -4.897291952     -4.338820684     -4.078139559
C      -3.562087718     -4.262802512     -4.456178165
H      -5.038031363     -3.201684557     -3.777163496
H      -5.986157377     -4.591744927     -4.113810624
H      -3.522894349     -3.105507374     -4.107838862
H      -2.639937557     -4.593156868     -4.295069767
           6
  t=       169.50000    1    1
C      -4.914554618     -4.346833693     -4.091322876
C      -3.575378907     -4.273856541     -4.468225197
H      -5.016986687     -3.241811156     -3.770703815
H      -6.049650616     -4.658445738     -4.130403577
H      -3.466179647     -3.146716496     -4.154002387
H      -2.641283441     -4.569073224     -4.289285263
           6
  t=       170.00000    1    1
C      -4.932194594     -4.353985838     -4.104501922
C      -3.589624837     -4.283693330     -4.479655411
H      -5.001169685     -3.287995663     -3.764776305
H      -6.105137427     -4.728700208     -4.147646275
H      -3.405172554     -3.193328311     -4.204760113
H      -2.633828181     -4.554737321     -4.285125349
           6
  t=       170.50000    1    1
C      -4.950264119     -4.360528461     -4.117688636
C      -3.604544881     -4.292601176     -4.490551595
H      -4.991655753     -3.337980251     -3.759203637
H      -6.150095853     -4.800588308     -4.165288365
H      -3.342288295     -3.242715138     -4.258891377
H      -2.619324522     -4.550524545     -4.283109621
           6
  t=       171.00000    1    1
C      -4.968701543     -4.366782065     -4.130944661
C      -3.619815520     -4.300958485     -4.500980340
H      -4.989057179     -3.388173735     -3.753400538
H      -6.183226033     -4.872616135     -4.183106994
H      -3.279836411     -3.291663149     -4.314941608
H      -2.600740031     -4.556405850     -4.283972767
           6
  t=       171.50000    1    1
C      -4.987404235     -4.373112560     -4.144380735
C      -3.635151978     -4.309135759     -4.510986936
H      -4.993702855     -3.434293347     -3.746222424
H      -6.203856552     -4.943564049     -4.200926474
H      -3.219647773     -3.336984918     -4.371729033
H      -2.581202584     -4.572296194     -4.288357678
           6
  t=       172.00000    1    1
C      -5.006258988     -4.379886414     -4.158132790
C      -3.650348866     -4.317409479     -4.520596753
H      -5.005655644     -3.472385132     -3.736279372
H      -6.211712557     -5.012315896     -4.218576153
H      -3.162910932     -3.376282952     -4.428549251
H      -2.563531896     -4.598002036     -4.296607289
           6
  t=       172.50000    1    1
C      -5.025145489     -4.387374857     -4.172316328
C      -3.665256555     -4.325931750     -4.529824052
H      -5.024650184     -3.499887541     -3.722525203
H      -6.206963487     -5.077893472     -4.235872251
H      -3.110625429     -3.408440410     -4.485023649
H      -2.550040896     -4.633135629     -4.308783966
           6
  t=       173.00000    1    1
C      -5.043941721     -4.395694852     -4.186989043
C      -3.679736626     -4.334750173     -4.538674141
H      -5.050365409     -3.516107698     -3.704683386
H      -6.189927097     -5.139435353     -4.252626373
H      -3.063978538     -3.433570191     -4.540878892
H      -2.542648899     -4.677177508     -4.324875279
           6
  t=       173.50000    1    1
C      -5.062537686     -4.404805172     -4.202124859
C      -3.693642416     -4.343838156     -4.547158510
H      -5.082537865     -3.522280305     -3.683435282
H      -6.160997474     -5.196191063     -4.268660083
H      -3.024234543     -3.452716507     -4.595839894
H      -2.543019270     -4.729407312     -4.344827153
           6
  t=       174.00000    1    1
C      -5.080842451     -4.414550043     -4.217619519
C      -3.706831770     -4.353131862     -4.555306229
H      -5.120807779     -3.521106794     -3.660336459
H      -6.120662789     -5.247496394     -4.283806060
H      -2.992632361     -3.467380873     -4.649557547
H      -2.552562082     -4.788903131     -4.368496369
           6
  t=       174.50000    1    1
C      -5.098781133     -4.424725785     -4.233324576
C      -3.719194277     -4.362565844     -4.563161716
H      -5.164628664     -3.515916251     -3.637445362
H      -6.069556920     -5.292783627     -4.297905876
H      -2.970218582     -3.479060961     -4.701597249
H      -2.572351282     -4.854612759     -4.395657105
           6
  t=       175.00000    1    1
C      -5.116291915     -4.435133893     -4.249085291
C      -3.730668481     -4.372095380     -4.570778267
H      -5.213310517     -3.509873773     -3.616840228
H      -6.008566796     -5.331682451     -4.310820049
H      -2.957628492     -3.488976104     -4.751502798
H      -2.603023536     -4.925420289     -4.426035541
           6
  t=       175.50000    1    1
C      -5.133309885     -4.445607456     -4.264766027
C      -3.741227648     -4.381702224     -4.578214232
H      -5.266160751     -3.505522005     -3.600276198
H      -5.938818865     -5.364062153     -4.322435418
H      -2.955158835     -3.498059725     -4.798834071
H      -2.644940250     -5.000186640     -4.459350780
           6
  t=       176.00000    1    1
C      -5.149754185     -4.455993181     -4.280252351
C      -3.750874252     -4.391387621     -4.585533667
H      -5.322460568     -3.504779415     -3.589148559
H      -5.861877929     -5.390282561     -4.332671621
H      -2.962773116     -3.507147559     -4.843140941
H      -2.698225913     -5.077609517     -4.495338257
           6
  t=       176.50000    1    1
C      -5.165521618     -4.466133188     -4.295452888
C      -3.759653158     -4.401164626     -4.592803480
H      -5.381412713     -3.509049407     -3.584490974
H      -5.779760346     -5.411354610     -4.341492784
H      -2.980100151     -3.517093388     -4.883997936
H      -2.762727678     -5.156146514     -4.533717231
           6
  t=       177.00000    1    1
C      -5.180480530     -4.475848162     -4.310301404
C      -3.767657126     -4.411051647     -4.600087738
H      -5.442165899     -3.519275281     -3.587035163
H      -5.694906660     -5.429117055     -4.348863559
H      -3.006486955     -3.528675521     -4.921006457
H      -2.837972725     -5.234154564     -4.574215738
           6
  t=       177.50000    1    1
C      -5.194490222     -4.484925340     -4.324752409
C      -3.775019701     -4.421068906     -4.607452469
H      -5.503882634     -3.536010920     -3.597190878
H      -5.610011195     -5.446305576     -4.354745853
H      -3.041014246     -3.542455425     -4.953880345
H      -2.923108730     -5.310076907     -4.616503558
           6
  t=       178.00000    1    1
C      -5.207433272     -4.493142508     -4.338774797
C      -3.781903287     -4.431242943     -4.614963965
H      -5.565818264     -3.559583133     -3.615182995
H      -5.527418620     -5.466021080     -4.359029883
H      -3.082583113     -3.558706096     -4.982433840
H      -3.017098610     -5.382544387     -4.660232085
           6
  t=       178.50000    1    1
C      -5.219251225     -4.500344746     -4.352352570
C      -3.788500843     -4.441608222     -4.622683599
H      -5.627300682     -3.590149737     -3.641101534
H      -5.448754894     -5.490762692     -4.361479351
H      -3.129886620     -3.577449643     -5.006593119
H      -3.118692749     -5.450313308     -4.705080754
           6
  t=       179.00000    1    1
C      -5.229949954     -4.506529608     -4.365488950
C      -3.795043855     -4.452216003     -4.630666715
H      -5.687725325     -3.627665349     -3.674806470
H      -5.374914184     -5.521443824     -4.361752294
H      -3.181312287     -3.598371091     -5.026479410
H      -3.226385726     -5.512248939     -4.750712466
           6
  t=       179.50000    1    1
C      -5.239569666     -4.511890629     -4.378201605
C      -3.801784522     -4.463149210     -4.638967516
H      -5.746688330     -3.671765117     -3.715777183
H      -5.306578157     -5.557031892     -4.359505789
H      -3.234835844     -3.620648484     -5.042526139
H      -3.338439788     -5.567276492     -4.796700946
           6
  t=       180.00000    1    1
C      -5.248112367     -4.516788090     -4.390508953
C      -3.809013794     -4.474527739     -4.647636007
H      -5.804133380     -3.721680174     -3.763170008
H      -5.244830438     -5.594933770     -4.354465293
H      -3.288059976     -3.642999330     -5.055449371
H      -3.452734168     -5.614318806     -4.842633040
           6
  t=       180.50000    1    1
C      -5.255501459     -4.521667474     -4.402433921
C      -3.817065935     -4.486498883     -4.656687605
H      -5.860291407     -3.776197367     -3.815865271
H      -5.191522499     -5.631973564     -4.346484357
H      -3.338513026     -3.663890800     -5.066321241
H      -3.566587870     -5.652234437     -4.888245834
           6
  t=       181.00000    1    1
C      -5.261655314     -4.526979536     -4.413993206
C      -3.826240561     -4.499219921     -4.666109768
H      -5.915527242     -3.833657441     -3.872683931
H      -5.148132718     -5.665330898     -4.335671316
H      -3.384008929     -3.681615758     -5.076388017
H      -3.677746250     -5.679964999     -4.933314253
           6
  t=       181.50000    1    1
C      -5.266527097     -4.533237138     -4.425182522
C      -3.836707183     -4.512807298     -4.675933925
H      -5.970311064     -3.892124961     -3.932659990
H      -5.116638323     -5.692337258     -4.321765716
H      -3.422689725     -3.694501967     -5.086563586
H      -3.784158137     -5.696288098     -4.977827447
           6
  t=       182.00000    1    1
C      -5.270119062     -4.540887885     -4.435965367
C      -3.848505578     -4.527270526     -4.686184441
H      -6.025367542     -3.949395074     -3.994766473
H      -5.099119105     -5.711613732     -4.304866365
H      -3.453377896     -3.701385818     -5.097959767
H      -3.883695729     -5.700504231     -5.021746373
           6
  t=       182.50000    1    1
C      -5.272495113     -4.550174890     -4.446324669
C      -3.861592489     -4.542542293     -4.696866817
H      -6.081491180     -4.003507726     -4.058331195
H      -5.095760897     -5.722995239     -4.284904786
H      -3.476073427     -3.701948047     -5.111087102
H      -3.975132680     -5.692963003     -5.065439023
           6
  t=       183.00000    1    1
C      -5.273832586     -4.561214049     -4.456185773
C      -3.875856254     -4.558470794     -4.708053071
H      -6.139018822     -4.053049948     -4.123161169
H      -5.106215966     -5.726500522     -4.261753300
H      -3.491532437     -3.697067517     -5.125696846
H      -4.056941226     -5.674607659     -5.109506256
           6
  t=       183.50000    1    1
C      -5.274405373     -4.573859011     -4.465440569
C      -3.891180800     -4.574871186     -4.719844959
H      -6.197712144     -4.097617334     -4.189241366
H      -5.129177074     -5.722761377     -4.235722998
H      -3.501126959     -3.688496868     -5.141106518
H      -4.127414360     -5.647404569     -5.154410167
           6
  t=       184.00000    1    1
C      -5.274475245     -4.587759530     -4.474045769
C      -3.907460029     -4.591490969     -4.732305998
H      -6.256489329     -4.137959450     -4.256525902
H      -5.162649995     -5.713615262     -4.207502816
H      -3.506398487     -3.678353896     -5.156569113
H      -4.186231698     -5.613831053     -5.200013679
           6
  t=       184.50000    1    1
C      -5.274390470     -4.602606518     -4.481991318
C      -3.924515352     -4.608023266     -4.745465119
H      -6.313299076     -4.175022159     -4.324971143
H      -5.204909137     -5.700972818     -4.177581928
H      -3.508681602     -3.668739908     -5.171430807
H      -4.233813711     -5.576268911     -5.246300184
           6
  t=       185.00000    1    1
C      -5.274509355     -4.618206615     -4.489286609
C      -3.942162926     -4.624157564     -4.759329771
H      -6.365711786     -4.209363879     -4.394426042
H      -5.254473740     -5.686239057     -4.146319531
H      -3.509153425     -3.661586152     -5.185111914
H      -4.270814762     -5.536827485     -5.293440498
           6
  t=       185.50000    1    1
C      -5.275186659     -4.634416010     -4.495968331
C      -3.960176857     -4.639592412     -4.773853599
H      -6.411569546     -4.241230005     -4.464498534
H      -5.309689684     -5.670543794     -4.114304024
H      -3.508919557     -3.658530901     -5.197255852
H      -4.298405793     -5.497798857     -5.341710070
           6
  t=       186.00000    1    1
C      -5.276760950     -4.651113080     -4.502072042
C      -3.978302016     -4.654056565     -4.788961645
H      -6.449322577     -4.270498525     -4.534613243
H      -5.368811983     -5.654891773     -4.082397799
H      -3.508979857     -3.660783258     -5.207673888
H      -4.317887459     -5.461772508     -5.391480077
           6
  t=       186.50000    1    1
C      -5.279547513     -4.668184271     -4.507627518
C      -3.996269461     -4.667337956     -4.804562034
H      -6.477995056     -4.296785405     -4.604090198
H      -5.430247138     -5.640239088     -4.051451624
H      -3.510216924     -3.668973095     -5.216326431
H      -4.330394294     -5.431426472     -5.443359284
           6
  t=       187.00000    1    1
C      -5.283830610     -4.685513588     -4.512656779
C      -4.013824803     -4.679317961     -4.820577523
H      -6.496930276     -4.319719061     -4.672251247
H      -5.492775481     -5.627475543     -4.022040118
H      -3.513367636     -3.683175498     -5.223261193
H      -4.336709835     -5.408963113     -5.498061505
           6
  t=       187.50000    1    1
C      -5.289842135     -4.702993235     -4.517184516
C      -4.030769231     -4.689988335     -4.836981511
H      -6.505640397     -4.339074965     -4.738360410
H      -5.555590521     -5.617308710     -3.994570803
H      -3.519027490     -3.703118837     -5.228604687
H      -4.337138692     -5.395553715     -5.555811451
           6
  t=       188.00000    1    1
C      -5.297742229     -4.720542024     -4.521245125
C      -4.046984865     -4.699458303     -4.853795579
H      -6.503856144     -4.354786792     -4.801704004
H      -5.617880217     -5.610068984     -3.969581129
H      -3.527596330     -3.728247350     -5.232613054
H      -4.331858781     -5.391155878     -5.615862238
           6
  t=       188.50000    1    1
C      -5.307642287     -4.738110663     -4.524857122
C      -4.062436398     -4.707935253     -4.871093230
H      -6.491514389     -4.366862993     -4.861625133
H      -5.678996440     -5.605630792     -3.947398093
H      -3.539252753     -3.757651661     -5.235594922
H      -4.320496123     -5.394912267     -5.677138643
           6
  t=       189.00000    1    1
C      -5.319598078     -4.755691023     -4.528031593
C      -4.077140520     -4.715698695     -4.888961277
H      -6.468866417     -4.375355842     -4.917610035
H      -5.738221271     -5.603400519     -3.928335764
H      -3.553950454     -3.790006293     -5.237945725
H      -4.302700255     -5.405456057     -5.738278393
           6
  t=       189.50000    1    1
C      -5.333595494     -4.773289040     -4.530786995
C      -4.091166498     -4.723075968     -4.907491093
H      -6.436571965     -4.380326757     -4.969333628
H      -5.794664451     -5.602706351     -3.912772932
H      -3.571247196     -3.823527795     -5.240115853
H      -4.278486684     -5.421209868     -5.797468703
           6
  t=       190.00000    1    1
C      -5.349556022     -4.790907041     -4.533135155
C      -4.104626734     -4.730403820     -4.926772150
H      -6.395649137     -4.381869223     -5.016743381
H      -5.847546405     -5.603057387     -3.900900418
H      -3.590217586     -3.856110932     -5.242561316
H      -4.248138473     -5.440636043     -5.852908214
           6
  t=       190.50000    1    1
C      -5.367366100     -4.808555141     -4.535078230
C      -4.117654401     -4.738009249     -4.946881477
H      -6.347325394     -4.380060857     -5.059978178
H      -5.896306460     -5.604046448     -3.892686866
H      -3.609592763     -3.885469161     -5.245734435
H      -4.212023982     -5.462333778     -5.903093524
           6
  t=       191.00000    1    1
C      -5.386865827     -4.826247814     -4.536623354
C      -4.130395213     -4.746207646     -4.967855290
H      -6.293068377     -4.374896694     -5.099275387
H      -5.940518769     -5.605279092     -3.888071112
H      -3.628033498     -3.909230009     -5.250095989
H      -4.170609729     -5.485144374     -5.946871120
           6
  t=       191.50000    1    1
C      -5.407844537     -4.843993492     -4.537793686
C      -4.142996488     -4.755293209     -4.989679332
H      -6.234545848     -4.366361545     -5.134977879
H      -5.979805947     -5.606345603     -3.887038603
H      -3.644351203     -3.925227152     -5.256049688
H      -4.124548745     -5.508053020     -5.983402878
           6
  t=       192.00000    1    1
C      -5.430019787     -4.861791504     -4.538638283
C      -4.155586039     -4.765493790     -5.012308970
H      -6.173642375     -4.354313537     -5.167489361
H      -6.013982051     -5.606993674     -3.889624337
H      -3.657870293     -3.932007250     -5.263831097
H      -4.074660516     -5.530200234     -6.011961823
           6
  t=       192.50000    1    1
C      -5.453042992     -4.879636440     -4.539246831
C      -4.168232151     -4.776929001     -5.035678975
H      -6.112452696     -4.338461767     -5.197254806
H      -6.043153273     -5.607168025     -3.895783597
H      -3.668691636     -3.929312287     -5.273402812
H      -4.021983187     -5.550829397     -6.031893695
           6
  t=       193.00000    1    1
C      -5.476542303     -4.897503629     -4.539753472
C      -4.180918239     -4.789597971     -5.059714628
H      -6.053125905     -4.318379216     -5.224560431
H      -6.067762727     -5.607082150     -3.905314831
H      -3.677777510     -3.918230430     -5.284480319
H      -3.967590755     -5.569370247     -6.042690277
           6
  t=       193.50000    1    1
C      -5.500158905     -4.915329472     -4.540311315
C      -4.193599193     -4.803417548     -5.084369261
H      -5.997452985     -4.293691109     -5.249372986
H      -6.088526817     -5.607207523     -3.917895267
H      -3.686580662     -3.900801255     -5.296575312
H      -3.912336103     -5.585435117     -6.043927551
           6
  t=       194.00000    1    1
C      -5.523547425     -4.932990128     -4.541126946
C      -4.206236706     -4.818251602     -5.109595856
H      -5.946578099     -4.264423738     -5.271156729
H      -6.106474538     -5.608300723     -3.932946379
H      -3.696738905     -3.879600363     -5.309156023
H      -3.856980081     -5.598763270     -6.035350210
           6
  t=       194.50000    1    1
C      -5.546383515     -4.950290340     -4.542463574
C      -4.218824454     -4.833945375     -5.135330952
H      -5.900982280     -4.231212328     -5.288816550
H      -6.122890181     -5.611407401     -3.949628537
H      -3.709743119     -3.857238146     -5.321793535
H      -3.802206655     -5.609234117     -6.016941790
           6
  t=       195.00000    1    1
C      -5.568357900     -4.966986524     -4.544610439
C      -4.231402710     -4.850347711     -5.161487205
H      -5.860773049     -4.195199333     -5.300959097
H      -6.139188375     -5.617762093     -3.966934552
H      -3.726694338     -3.836025653     -5.334235161
H      -3.748597991     -5.616863224     -5.988949773
           6
  t=       195.50000    1    1
C      -5.589180203     -4.982830539     -4.547843532
C      -4.244043760     -4.867314822     -5.187945029
H      -5.826023695     -4.157819165     -5.306265750
H      -6.156744925     -5.628559428     -3.983845503
H      -3.748221801     -3.817848137     -5.346387134
H      -3.696674446     -5.621806358     -5.951941813
           6
  t=       196.00000    1    1
C      -5.608606459     -4.997609285     -4.552392930
C      -4.256818106     -4.884709377     -5.214556011
H      -5.797003613     -4.120607182     -5.303670924
H      -6.176657321     -5.644651699     -3.999558228
H      -3.774559687     -3.804167446     -5.358251742
H      -3.646901889     -5.624389665     -5.906811274
           6
  t=       196.50000    1    1
C      -5.626480426     -5.011182562     -4.558397871
C      -4.269785640     -4.902403218     -5.241165122
H      -5.774130265     -4.084984422     -5.292419072
H      -6.199450467     -5.666240980     -4.013797003
H      -3.805666585     -3.796006690     -5.369906910
H      -3.599527447     -5.625164592     -5.854699666
           6
  t=       197.00000    1    1
C      -5.642734512     -5.023485040     -4.565918931
C      -4.282977827     -4.920285258     -5.267629674
H      -5.758037182     -4.052214572     -5.272001263
H      -6.225007002     -5.692790675     -4.026787751
H      -3.841356819     -3.794116494     -5.381420710
H      -3.554651089     -5.624755536     -5.796800365
           6
  t=       197.50000    1    1
C      -5.657369969     -5.034509586     -4.574957563
C      -4.296407766     -4.938275903     -5.293830648
H      -5.749594202     -4.023376414     -5.241968596
H      -6.252613647     -5.723114690     -4.039230192
H      -3.881344128     -3.799047858     -5.392902494
H      -3.512231531     -5.623752230     -5.734154049
           6
  t=       198.00000    1    1
C      -5.670453115     -5.044306426     -4.585461403
C      -4.310068020     -4.956329586     -5.319666830
H      -5.749797780     -3.999381000     -5.202029166
H      -6.281109215     -5.755514431     -4.052125291
H      -3.925122505     -3.811076706     -5.404542236
H      -3.472237894     -5.622610778     -5.667691675
           6
  t=       198.50000    1    1
C      -5.682070347     -5.052966522     -4.597348359
C      -4.323935137     -4.974419438     -5.345029426
H      -5.759578550     -3.981063957     -5.152152311
H      -6.309209383     -5.788096615     -4.066560701
H      -3.971988699     -3.830249735     -5.416664718
H      -3.434977095     -5.621578415     -5.598306030
           6
  t=       199.00000    1    1
C      -5.692297505     -5.060602659     -4.610518184
C      -4.337959983     -4.992537576     -5.369779558
H      -5.779739354     -3.969204817     -5.092663741
H      -6.335859414     -5.819101771     -4.083515206
H      -4.021023821     -3.856284631     -5.429793783
H      -3.401301699     -5.620667435     -5.527018076
           6
  t=       199.50000    1    1
C      -5.701110440     -5.067336021     -4.624872280
C      -4.352103914     -5.010682466     -5.393677129
H      -5.811021686     -3.964537407     -5.024412298
H      -6.360634241     -5.847139244     -4.103835847
H      -4.071130122     -3.888560299     -5.444767763
H      -3.372741237     -5.619730040     -5.455329424
           6
  t=       200.00000    1    1
C      -5.708430045     -5.073364808     -4.640310919
C      -4.366476531     -5.028793693     -5.416392274
H      -5.852565823     -3.967420427     -4.949371245
H      -6.383273813     -5.871202420     -4.128011880
H      -4.121386893     -3.926339612     -5.462341740
H      -3.350972836     -5.618509476     -5.385141315
