           6
  t=         0.00000    2    2
C      -0.655414832     -0.003074768      0.008890003
C       0.645534691      0.007212770     -0.003269151
H      -1.190239930      0.936817212     -0.037622208
H      -1.184603372     -0.932676242     -0.047585620
H       1.265523633      0.888155849      0.003985329
H       1.227048200     -0.941603842      0.014246392
           6
  t=         0.50000    2    2
C      -0.658682567     -0.002833348      0.008580663
C       0.645483805      0.006504028     -0.004020973
H      -1.179232640      0.924545816     -0.033125198
H      -1.178895334     -0.923195959     -0.046678453
H       1.278211705      0.901916877      0.005923172
H       1.237188282     -0.947005998      0.019549093
           6
  t=         1.00000    2    2
C      -0.663623317     -0.002517038      0.008287634
C       0.647660025      0.005594414     -0.004766802
H      -1.170076432      0.913120299     -0.027977902
H      -1.175119450     -0.915002957     -0.046535760
H       1.289703169      0.914900378      0.007129496
H       1.245705835     -0.949688064      0.025431730
           6
  t=         1.50000    2    2
C      -0.669984744     -0.002167186      0.008013541
C       0.652035036      0.004545765     -0.005505149
H      -1.163748859      0.904156026     -0.021997579
H      -1.173902415     -0.909162275     -0.047387629
H       1.299187587      0.926015825      0.007423581
H       1.252346164     -0.949353997      0.032073354
           6
  t=         2.00000    1    1
C      -0.677473840     -0.001833907      0.007758680
C       0.658487359      0.003419639     -0.006233324
H      -1.161139823      0.899167480     -0.014970619
H      -1.175751688     -0.906545225     -0.049474100
H       1.306088445      0.934441993      0.006610635
H       1.257039259     -0.945962059      0.039659606
           6
  t=         2.50000    1    1
C      -0.680151249      0.003437554      0.012480701
C       0.671148298      0.007269838     -0.001914742
H      -1.103234634      0.958809979      0.052006365
H      -1.121336769     -0.848265888      0.007510555
H       1.369574768      0.999352957      0.064784310
H       1.319346881     -0.880411609      0.106874342
           6
  t=         3.00000    1    1
C      -0.681746972      0.009705143      0.017183813
C       0.684450078      0.011521148      0.002649706
H      -1.048872763      1.020596025      0.118234089
H      -1.075889969     -0.803309031      0.064923663
H       1.427114904      1.058207971      0.122310830
H       1.379587050     -0.814275330      0.172352687
           6
  t=         3.50000    1    1
C      -0.681678661      0.018139077      0.021816323
C       0.698424913      0.016452736      0.007606988
H      -0.997557252      1.080600245      0.183199962
H      -1.045033740     -0.781623159      0.123871028
H       1.476664727      1.109190294      0.178093984
H       1.437606478     -0.749132984      0.235462395
           6
  t=         4.00000    1    1
C      -0.679615359      0.029440734      0.026292516
C       0.713081716      0.022253214      0.013088258
H      -0.949158644      1.135433926      0.246183528
H      -1.031390262     -0.788242004      0.186190689
H       1.516936677      1.151229561      0.231007890
H       1.493135647     -0.686096610      0.295670310
           6
  t=         4.50000    1    1
C      -0.675634518      0.043449225      0.030627746
C       0.728398331      0.029029828      0.019192657
H      -0.903669834      1.182976715      0.306521664
H      -1.032764492     -0.819316148      0.252543344
H       1.547420939      1.183884038      0.280026356
H       1.545669141     -0.625814299      0.352640756
           6
  t=         5.00000    1    1
C      -0.670074661      0.059414597      0.034998264
C       0.744341273      0.036793570      0.026016266
H      -0.861083883      1.221914065      0.363575075
H      -1.044025965     -0.864670563      0.321538742
H       1.568142172      1.207294937      0.324417671
H       1.594477617     -0.568482566      0.405889992
           6
  t=         5.50000    1    1
C      -0.663278888      0.076585537      0.039627052
C       0.760890383      0.045497796      0.033668370
H      -0.821390711      1.251470529      0.416794687
H      -1.060130592     -0.914401237      0.390941873
H       1.579225748      1.221773390      0.363732897
H       1.638710005     -0.514032883      0.454691836
           6
  t=         6.00000    1    1
C      -0.655489832      0.094408857      0.044702140
C       0.778045566      0.055089781      0.042257354
H      -0.784558911      1.271202605      0.465817663
H      -1.077414073     -0.961320743      0.458679829
H       1.580778657      1.227739852      0.397657184
H       1.677455883     -0.462409811      0.498264917
           6
  t=         6.50000    1    1
C      -0.646802798      0.112508952      0.050390362
C       0.795771474      0.065541283      0.051872310
H      -0.750600847      1.280853683      0.510340365
H      -1.093654172     -1.000782484      0.522987829
H       1.572954132      1.225881008      0.425871302
H       1.709908963     -0.413877853      0.535947335
           6
  t=         7.00000    1    1
C      -0.637214363      0.130595816      0.056879829
C       0.813993785      0.076857592      0.062568466
H      -0.719809816      1.280479484      0.550063296
H      -1.107357821     -1.029555752      0.582088820
H       1.555958410      1.217143529      0.447889303
H       1.735508052     -0.369277581      0.567402047
           6
  t=         7.50000    1    1
C      -0.626685020      0.148434435      0.064335132
C       0.832594679      0.089063995      0.074329099
H      -0.692732880      1.270845937      0.584885086
H      -1.117637811     -1.045813673      0.634533831
H       1.530258670      1.202721559      0.463262696
H       1.754378956     -0.329896869      0.592865943
           6
  t=         8.00000    1    1
C      -0.615162407      0.165884893      0.072837514
C       0.851416189      0.102183215      0.087098096
H      -0.669899721      1.253026333      0.614868390
H      -1.124153658     -1.049204686      0.679663182
H       1.496596677      1.183808644      0.471781069
H       1.767227498     -0.296957700      0.612847016
           6
  t=         8.50000    1    1
C      -0.602598059      0.182860138      0.082406246
C       0.870274024      0.116220352      0.100813023
H      -0.651727395      1.228110210      0.640154065
H      -1.126793476     -1.040062153      0.717321892
H       1.455926460      1.161676603      0.473455801
H       1.775023241     -0.271511549      0.627862318
           6
  t=         9.00000    1    1
C      -0.588970531      0.199246105      0.093022867
C       0.888955526      0.131141967      0.115391724
H      -0.638462961      1.197501154      0.661094375
H      -1.125462406     -1.018784140      0.747485168
H       1.409502892      1.137901777      0.468597069
H       1.778941957     -0.254382675      0.638473149
           6
  t=         9.50000    1    1
C      -0.574261456      0.214862203      0.104649327
C       0.907211970      0.146847592      0.130722535
H      -0.630236074      1.163238596      0.678366788
H      -1.120034733     -0.985626873      0.770036528
H       1.358848389      1.114614908      0.457877321
H       1.780210052     -0.246135992      0.645229980
           6
  t=        10.00000    1    1
C      -0.558425600      0.229455501      0.117242290
C       0.924758151      0.163134293      0.146654574
H      -0.627163043      1.128138223      0.692995451
H      -1.110399547     -0.940725436      0.784686039
H       1.305726800      1.094834180      0.442428697
H       1.779928482     -0.247038372      0.648580711
           6
  t=        10.50000    1    1
C      -0.541402736      0.242697469      0.130743239
C       0.941250657      0.179624048      0.162973077
H      -0.629507146      1.095750527      0.706409333
H      -1.096514523     -0.884186913      0.791015927
H       1.252815941      1.083369538      0.424138030
H       1.779014721     -0.256924129      0.648883660
           6
  t=        11.00000    1    1
C      -0.523152241      0.254231773      0.145056334
C       0.956346474      0.195805999      0.179446688
H      -0.637765652      1.070015997      0.720389812
H      -1.078436749     -0.816397949      0.788653238
H       1.203542961      1.086394411      0.405242902
H       1.778199190     -0.275187334      0.646391559
           6
  t=        11.50000    1    1
C      -0.503668591      0.263771050      0.160053690
C       0.969809935      0.211226406      0.195916528
H      -0.652387375      1.054570846      0.736686985
H      -1.056387933     -0.738469346      0.777494819
H       1.160855028      1.109372838      0.387357560
H       1.777947519     -0.300986716      0.641260214
           6
  t=        12.00000    1    1
C      -0.482956212      0.271190090      0.175639740
C       0.981549983      0.225729429      0.212348105
H      -0.673394604      1.051623335      0.756243121
H      -1.030803559     -0.652225321      0.757765518
H       1.126264971      1.154335607      0.370800660
H       1.778342411     -0.333388191      0.633553585
           6
  t=        12.50000    1    1
C      -0.461027205      0.276697120      0.191794032
C       0.991636699      0.239611334      0.228810665
H      -0.700032563      1.061001877      0.778313830
H      -1.002839102     -0.560956391      0.730480783
H       1.099769730      1.217463523      0.354728908
H       1.779096759     -0.371121850      0.623262502
           6
  t=        13.00000    1    1
C      -0.437927643      0.280814186      0.208539976
C       1.000263218      0.253403174      0.245386013
H      -0.730933591      1.080901952      0.800763252
H      -0.974660221     -0.469751510      0.697590445
H       1.081181156      1.291214918      0.338245994
H       1.779444360     -0.412300936      0.610215597
           6
  t=        13.50000    1    1
C      -0.413650852      0.284305541      0.225845065
C       1.007665629      0.267587029      0.262134730
H      -0.764427058      1.108632004      0.820920967
H      -0.949876541     -0.385332638      0.662222779
H       1.070542785      1.367896155      0.320987834
H       1.778388004     -0.454669180      0.593984559
           6
  t=        14.00000    1    1
C      -0.387985600      0.288147659      0.243524919
C       1.014084981      0.282469684      0.279088723
H      -0.798928180      1.141462633      0.836416170
H      -0.934679475     -0.316595245      0.629056082
H       1.067938156      1.441845761      0.302962075
H       1.775061537     -0.496231153      0.574071090
           6
  t=        14.50000    1    1
C      -0.360638214      0.293322373      0.261319708
C       1.019801186      0.298168551      0.296252194
H      -0.833037145      1.177033777      0.845596674
H      -0.936772788     -0.272458484      0.602874914
H       1.073464967      1.509242746      0.284468824
H       1.768836544     -0.534984872      0.550088690
           6
  t=        15.00000    1    1
C      -0.331646593      0.300398174      0.279147239
C       1.025136645      0.314708386      0.313613807
H      -0.865363087      1.213313030      0.847362829
H      -0.960516247     -0.256947882      0.585528247
H       1.087133043      1.567155079      0.266081457
H       1.759282087     -0.569009325      0.521829112
           6
  t=        15.50000    1    1
C      -0.301639788      0.309314271      0.297216874
C       1.030396566      0.332099571      0.331087945
H      -0.894127822      1.248318614      0.841461871
H      -1.003080840     -0.266709506      0.574574989
H       1.108515046      1.613323930      0.248406690
H       1.746077138     -0.596817186      0.489905003
           6
  t=        16.00000    1    1
C      -0.271623054      0.319564030      0.315910024
C       1.035826898      0.350286014      0.348559004
H      -0.917762478      1.280651623      0.828292596
H      -1.056113335     -0.293801512      0.565246287
H       1.136893261      1.646805132      0.231757511
H       1.729064899     -0.617301935      0.455206139
           6
  t=        16.50000    1    1
C      -0.242606466      0.330639724      0.335470111
C       1.041691091      0.369133734      0.365933431
H      -0.935208226      1.309351181      0.808346968
H      -1.110970812     -0.330510373      0.554270875
H       1.171339842      1.667649748      0.216446016
H       1.708368052     -0.629620942      0.418413969
           6
  t=        17.00000    1    1
C      -0.215416613      0.342205304      0.355960979
C       1.048293075      0.388495753      0.383125711
H      -0.945825272      1.333583949      0.782162959
H      -1.161458645     -0.371181150      0.540394187
H       1.210860679      1.676243827      0.202819056
H       1.684374096     -0.633226246      0.380156430
           6
  t=        17.50000    1    1
C      -0.190724479      0.354056281      0.377342151
C       1.055962200      0.408247855      0.400050203
H      -0.949299665      1.352726562      0.750395414
H      -1.203408990     -0.411878030      0.523470287
H       1.254472258      1.672908385      0.191222486
H       1.657655562     -0.627834568      0.341081549
           6
  t=        18.00000    1    1
C      -0.169040178      0.366087347      0.399514143
C       1.065010245      0.428296184      0.416614393
H      -0.945558872      1.366311864      0.713835901
H      -1.234320253     -0.450035253      0.503939138
H       1.301259416      1.657962164      0.182000778
H       1.628916782     -0.613490096      0.301901121
           6
  t=        18.50000    1    1
C      -0.150719683      0.378264872      0.422344696
C       1.075691721      0.448565045      0.432723303
H      -0.934724921      1.374063552      0.673510223
H      -1.252942561     -0.484161292      0.482434126
H       1.350433595      1.631936339      0.175400842
H       1.599027451     -0.590636527      0.263416706
           6
  t=        19.00000    1    1
C      -0.136006192      0.390608569      0.445693070
C       1.088196997      0.468970984      0.448284839
H      -0.917084996      1.375966701      0.630826528
H      -1.258816144     -0.513530845      0.459410794
H       1.401310439      1.595773956      0.171374898
H       1.569128829     -0.560167771      0.226586783
           6
  t=        19.50000    1    1
C      -0.125027931      0.403176632      0.469438259
C       1.102612774      0.489393948      0.463223866
H      -0.893022536      1.372246289      0.587028602
H      -1.251852463     -0.537912106      0.435342200
H       1.453345176      1.551134261      0.169821729
H       1.540555406     -0.523462773      0.192132877
           6
  t=        20.00000    1    1
C      -0.117695696      0.415998780      0.493467857
C       1.118817330      0.509682214      0.477533888
H      -0.862940095      1.363190062      0.542589945
H      -1.232052096     -0.557012405      0.411188043
H       1.506279992      1.500462343      0.170862228
H       1.514355580     -0.482093284      0.159917697
           6
  t=        20.50000    1    1
C      -0.113768846      0.429060276      0.517644339
C       1.136529799      0.529628547      0.491241234
H      -0.827668619      1.349359735      0.498331819
H      -1.199340997     -0.570220312      0.387806646
H       1.560305023      1.446865802      0.174199747
H       1.491575425     -0.437695086      0.129883257
           6
  t=        21.00000    1    1
C      -0.112812748      0.442281753      0.541821736
C       1.155298103      0.548957168      0.504411354
H      -0.788627765      1.331985812      0.455106796
H      -1.153753615     -0.576818148      0.366044872
H       1.616214364      1.394497471      0.179173902
H       1.473082825     -0.392137399      0.101949977
           6
  t=        21.50000    1    1
C      -0.114187691      0.455522211      0.565806092
C       1.174496383      0.567364084      0.517170895
H      -0.747790158      1.313055694      0.413976972
H      -1.095608511     -0.576096167      0.346752659
H       1.675416524      1.348301228      0.184655559
H       1.459595418     -0.347758852      0.076136980
           6
  t=        22.00000    1    1
C      -0.117300043      0.468587495      0.589450280
C       1.193562290      0.584595726      0.529643518
H      -0.707649313      1.295408605      0.375662387
H      -1.025201235     -0.567464931      0.330673850
H       1.739666005      1.312736697      0.189531049
H       1.451774982     -0.307112822      0.052373642
           6
  t=        22.50000    1    1
C      -0.121556322      0.481242976      0.612670984
C       1.212064687      0.600531767      0.541913244
H      -0.671022071      1.282502670      0.340172882
H      -0.943171124     -0.550627472      0.318508099
H       1.810123836      1.290217803      0.193281019
H       1.449982238     -0.272138753      0.030461451
           6
  t=        23.00000    1    1
C      -0.126359606      0.493311204      0.635439229
C       1.229744953      0.615200399      0.553971880
H      -0.640522296      1.277612277      0.307041944
H      -0.850714076     -0.525837429      0.310757375
H       1.886439280      1.280764205      0.196341064
H       1.454346586     -0.244098556      0.010372225
           6
  t=        23.50000    1    1
C      -0.131197220      0.504743637      0.657782974
C       1.246575918      0.628763187      0.565730293
H      -0.617786782      1.282745283      0.275444559
H      -0.749682992     -0.494072226      0.307621969
H       1.966591491      1.282334187      0.200051127
H       1.464593450     -0.223327703     -0.007880333
           6
  t=        24.00000    1    1
C      -0.135669261      0.515665571      0.679713576
C       1.262669848      0.641406152      0.577038278
H      -0.603185292      1.298087140      0.244967121
H      -0.642185641     -0.456859113      0.309075580
H       2.047522996      1.292042995      0.206205736
H       1.480154998     -0.209309182     -0.023996374
           6
  t=        24.50000    1    1
C      -0.139456483      0.526385910      0.701201570
C       1.278182849      0.653289291      0.587733336
H      -0.595904304      1.322044065      0.216074201
H      -0.530785817     -0.416617519      0.314646314
H       2.126102169      1.307073774      0.216414190
H       1.500248988     -0.200800214     -0.037290476
           6
  t=        25.00000    1    1
C      -0.142276669      0.537382482      0.722213647
C       1.293266428      0.664542161      0.597683871
H      -0.594404534      1.351915067      0.190012065
H      -0.418524668     -0.377217052      0.322998370
H       2.199668236      1.325105137      0.231722962
H       1.523869934     -0.196146180     -0.046754658
           6
  t=        25.50000    1    1
C      -0.143892523      0.549229846      0.742767883
C       1.308062138      0.675271325      0.606790014
H      -0.597101659      1.384825816      0.168243508
H      -0.308175842     -0.343719375      0.331919165
H       2.265986033      1.344353350      0.252795390
H       1.549928114     -0.193743408     -0.051327812
           6
  t=        26.00000    1    1
C      -0.144166250      0.562451010      0.762925445
C       1.322694368      0.685566874      0.614974044
H      -0.602707111      1.418052994      0.152025215
H      -0.201985021     -0.320817296      0.339095610
H       2.323361048      1.363512544      0.280120698
H       1.577951014     -0.192175407     -0.050245519
           6
  t=        26.50000    1    1
C      -0.143096356      0.577330923      0.782713927
C       1.337268852      0.695508170      0.622187177
H      -0.610182659      1.449045369      0.142350805
H      -0.101386321     -0.310590266      0.343104074
H       2.370841711      1.381758844      0.313941144
H       1.608008421     -0.190328600     -0.043067544
           6
  t=        27.00000    1    1
C      -0.140749527      0.593772712      0.802052861
C       1.351872567      0.705190935      0.628439248
H      -0.618568620      1.475829772      0.139863140
H      -0.007167654     -0.311223972      0.344119671
H       2.408058887      1.398674109      0.354112571
H       1.640055916     -0.187612278     -0.029626066
           6
  t=        27.50000    1    1
C      -0.137123672      0.611399731      0.820750115
C       1.366580833      0.714747445      0.633810869
H      -0.626980126      1.497296885      0.144899522
H       0.079056496     -0.318745388      0.343713583
H       2.434875266      1.414064737      0.400174872
H       1.674038012     -0.183784726     -0.010040607
           6
  t=        28.00000    1    1
C      -0.132112695      0.629776703      0.838576407
C       1.381450167      0.724335033      0.638421881
H      -0.634649064      1.513011569      0.157637830
H       0.155075943     -0.329342310      0.343809977
H       2.451097162      1.427750432      0.451556933
H       1.709652836     -0.178730812      0.015461940
           6
  t=        28.50000    1    1
C      -0.125570803      0.648512209      0.855335281
C       1.396494241      0.734106504      0.642410662
H      -0.640929608      1.522956097      0.178111094
H       0.218872644     -0.339977201      0.346054086
H       2.456596810      1.439541291      0.507569754
H       1.746500227     -0.172437209      0.046584375
           6
  t=        29.00000    1    1
C      -0.117376332      0.667292711      0.870902477
C       1.411685921      0.744185961      0.645929767
H      -0.645336613      1.527395900      0.206140819
H       0.268961469     -0.348453518      0.351542027
H       2.451486775      1.449324306      0.567354335
H       1.784341211     -0.164995628      0.082930899
           6
  t=        29.50000    1    1
C      -0.107423253      0.685869964      0.885209136
C       1.426965377      0.754665449      0.649145511
H      -0.647647553      1.526866868      0.241347088
H       0.304298717     -0.353303301      0.360937948
H       2.436121181      1.457133180      0.629951156
H       1.823092369     -0.156582393      0.124015565
           6
  t=        30.00000    1    1
C      -0.095622744      0.704039985      0.898240081
C       1.442241604      0.765600905      0.652241371
H      -0.647983541      1.522199137      0.283051066
H       0.324346203     -0.353639279      0.374549987
H       2.411279986      1.463255623      0.694338085
H       1.862659043     -0.147438552      0.169225785
           6
  t=        30.50000    1    1
C      -0.081896657      0.721624455      0.910021011
C       1.457384979      0.777006113      0.655414011
H      -0.646843824      1.514491574      0.330279753
H       0.328994190     -0.349044790      0.392444651
H       2.378434257      1.468430972      0.759527286
H       1.902792505     -0.137858435      0.217806288
           6
  t=        31.00000    1    1
C      -0.066162466      0.738453864      0.920595839
C       1.472224663      0.788850977      0.658856943
H      -0.645079450      1.505017254      0.381884871
H       0.318332190     -0.339407425      0.414583709
H       2.339823665      1.473962299      0.824722694
H       1.943066918     -0.128152159      0.268910567
           6
  t=        31.50000    1    1
C      -0.048311688      0.754348336      0.930006178
C       1.486565678      0.801078914      0.662738425
H      -0.643879832      1.495204653      0.436674380
H       0.292399305     -0.324768144      0.440952650
H       2.298137508      1.481511503      0.889454744
H       1.982973963     -0.118551551      0.321713977
           6
  t=        32.00000    1    1
C      -0.028222404      0.769122616      0.938300331
C       1.500216246      0.813617667      0.667176777
H      -0.644722600      1.486652398      0.493478649
H       0.251440322     -0.305250880      0.471511674
H       2.256046291      1.492723388      0.953605451
H       2.021908390     -0.109107702      0.375558507
           6
  t=        32.50000    1    1
C      -0.005783427      0.782606065      0.945529983
C       1.513022659      0.826384291      0.672249461
H      -0.649161590      1.481036749      0.551343346
H       0.195982177     -0.281087626      0.506066280
H       2.215721813      1.508984826      1.017196784
H       2.059231951     -0.099630114      0.430032172
           6
  t=        33.00000    1    1
C       0.019053514      0.794679151      0.951725834
C       1.524907963      0.839310601      0.678046970
H      -0.658483572      1.479835794      0.609769113
H       0.126815102     -0.252825701      0.544244676
H       2.178628186      1.531257346      1.080051511
H       2.094318852     -0.089774297      0.484739231
           6
  t=        33.50000    1    1
C       0.046158920      0.805405369      0.956968514
C       1.535885661      0.852308966      0.684661541
H      -0.673155940      1.483788173      0.668838976
H       0.045874680     -0.221666315      0.584829207
H       2.145293531      1.559987569      1.141495854
H       2.126554975     -0.079236743      0.539428276
           6
  t=        34.00000    1    1
C       0.075189454      0.815046374      0.961378321
C       1.546057442      0.865317989      0.692133608
H      -0.692193909      1.492576025      0.729196544
H      -0.044284376     -0.189508903      0.626253752
H       2.115307774      1.594810746      1.200699370
H       2.155690290     -0.067821587      0.593937025
           6
  t=        34.50000    1    1
C       0.105675068      0.823964184      0.965062095
C       1.555541122      0.878321733      0.700449856
H      -0.713122316      1.505090240      0.791631906
H      -0.140787534     -0.158361968      0.667467295
H       2.087671719      1.634394532      1.256998414
H       2.181571349     -0.055202673      0.648075646
           6
  t=        35.00000    1    1
C       0.137100054      0.832426961      0.968072762
C       1.564474319      0.891353049      0.709651954
H      -0.732712060      1.520065685      0.856718355
H      -0.241113490     -0.129312184      0.708067681
H       2.061404871      1.676980228      1.309413052
H       2.203933472     -0.040856260      0.701525765
           6
  t=        35.50000    1    1
C       0.168903727      0.840532167      0.970435204
C       1.572994724      0.904462773      0.719831380
H      -0.747732548      1.536532165      0.924636036
H      -0.342583761     -0.101929964      0.748119690
H       2.035799566      1.720843981      1.356757760
H       2.222615497     -0.024284960      0.753841471
           6
  t=        36.00000    1    1
C       0.200504805      0.848266315      0.972182601
C       1.581236860      0.917710576      0.731082535
H      -0.755465108      1.553820966      0.995162946
H      -0.442135627     -0.074843803      0.787864135
H       2.010378388      1.764429939      1.397995272
H       2.237636879     -0.005186012      0.804521025
           6
  t=        36.50000    1    1
C       0.231340778      0.855601319      0.973385614
C       1.589335593      0.931158716      0.743471160
H      -0.753856594      1.571413746      1.067698498
H      -0.536596511     -0.046658997      0.827469249
H       1.984840410      1.806361568      1.432435450
H       2.249168483      0.016533546      0.853061561
           6
  t=        37.00000    1    1
C       0.260895530      0.862522649      0.974164219
C       1.597427523      0.944867163      0.757024393
H      -0.741587959      1.588994790      1.141397075
H      -0.622964114     -0.016366504      0.866832792
H       1.959083294      1.845552981      1.459696289
H       2.257513495      0.040724837      0.899040021
           6
  t=        37.50000    1    1
C       0.288681188      0.869034501      0.974674290
C       1.605664528      0.958900104      0.771747667
H      -0.717848321      1.606483558      1.215253132
H      -0.698564134      0.016468531      0.905626695
H       1.933223142      1.881204773      1.479612044
H       2.263074260      0.067018128      0.942033648
           6
  t=        38.00000    1    1
C       0.314344192      0.875192311      0.975108921
C       1.614174607      0.973305914      0.787587904
H      -0.682570648      1.623864213      1.288152109
H      -0.761716877      0.051673980      0.943346650
H       1.907513252      1.912878421      1.492428744
H       2.266538432      0.094802940      0.981746909
           6
  t=        38.50000    1    1
C       0.337571505      0.881065105      0.975672855
C       1.623062292      0.988123707      0.804481239
H      -0.635908146      1.641191137      1.358983289
H      -0.811109212      0.088862171      0.979343725
H       1.882342051      1.940329682      1.498470057
H       2.268842154      0.123368219      1.017937132
           6
  t=        39.00000    1    1
C       0.358220132      0.886745994      0.976562174
C       1.632327258      1.003372933      0.822359045
H      -0.578233720      1.658337096      1.426887109
H      -0.846272315      0.127478844      1.012706066
H       1.858264061      1.963659077      1.498001716
H       2.271042716      0.151953706      1.050591288
           6
  t=        39.50000    1    1
C       0.376180560      0.892325618      0.977949368
C       1.641962085      1.019069718      0.841158288
H      -0.509939651      1.675042282      1.491048429
H      -0.867035117      0.166997785      1.042629698
H       1.835917607      1.982985304      1.491311167
H       2.274116390      0.179954545      1.079736809
           6
  t=        40.00000    1    1
C       0.391341446      0.897881829      0.979982290
C       1.651972983      1.035226877      0.860810953
H      -0.431522163      1.690935463      1.550697608
H      -0.873310823      0.207004771      1.068447933
H       1.816042944      1.998633562      1.478815055
H       2.278985022      0.206750631      1.105442031
           6
  t=        40.50000    1    1
C       0.403623697      0.903478375      0.982786128
C       1.662378199      1.051826017      0.881213866
H      -0.343849933      1.705591842      1.605069056
H      -0.865123299      0.247256732      1.089735196
H       1.799422929      2.011286005      1.461325462
H       2.286483362      0.231787237      1.127823748
           6
  t=        41.00000    1    1
C       0.412981651      0.909163330      0.986467051
C       1.673189673      1.068799263      0.902243808
H      -0.248123401      1.718578519      1.653455337
H      -0.842461042      0.287664051      1.106187301
H       1.786952113      2.022078614      1.439943672
H       2.297307600      0.254686836      1.146995453
           6
  t=        41.50000    1    1
C       0.419477500      0.914987987      0.991119625
C       1.684374814      1.085993749      0.923761960
H      -0.145850083      1.729757181      1.695095337
H      -0.805443497      0.328077915      1.117669676
H       1.779334779      2.032596493      1.416195355
H       2.312027691      0.275361785      1.162854479
           6
  t=        42.00000    1    1
C       0.423277180      0.921004944      0.996823009
C       1.695862539      1.103190748      0.945626222
H      -0.038770125      1.739381101      1.729538365
H      -0.754448212      0.368138455      1.123976711
H       1.777193265      2.044698593      1.391637366
H       2.331008763      0.294039233      1.175250233
           6
  t=        42.50000    1    1
C       0.424696239      0.927288976      1.003615735
C       1.707549850      1.120123102      0.967692268
H       0.070481551      1.747979850      1.756835826
H      -0.690554378      0.407166307      1.125050762
H       1.781531945      2.060355773      1.367674652
H       2.354427879      0.311190508      1.184044625
           6
  t=        43.00000    1    1
C       0.424183371      0.933957507      1.011493374
C       1.719321098      1.136515978      0.989834641
H       0.178996372      1.756180336      1.777565904
H      -0.615746902      0.444131654      1.120992736
H       1.793241571      2.081247648      1.345225296
H       2.382319314      0.327414549      1.189188158
           6
  t=        43.50000    1    1
C       0.422373024      0.941199632      1.020403475
C       1.731112848      1.152119907      1.011954430
H       0.283672125      1.764831471      1.792909321
H      -0.533757017      0.477315269      1.112184160
H       1.812580180      2.108320112      1.324574021
H       2.414454453      0.343355153      1.190637443
           6
  t=        44.00000    1    1
C       0.420131917      0.949304341      1.030244115
C       1.742895260      1.166768577      1.033996417
H       0.381600636      1.774673412      1.804329767
H      -0.450877273      0.503850830      1.099392252
H       1.839410918      2.141660721      1.305392086
H       2.450198928      0.359589131      1.188362754
           6
  t=        44.50000    1    1
C       0.418589464      0.958715057      1.040884665
C       1.754594093      1.180430454      1.055955277
H       0.471056154      1.785707069      1.812809929
H      -0.376773925      0.519084316      1.083732464
H       1.873452755      2.180482473      1.287045512
H       2.488652652      0.376648690      1.182519926
           6
  t=        45.00000    1    1
C       0.419055846      0.970067939      1.052235378
C       1.766090655      1.193185622      1.077844817
H       0.551102989      1.797220192      1.818567947
H      -0.323359369      0.516451129      1.066229074
H       1.914234225      2.223050674      1.268912450
H       2.528937788      0.395010831      1.173393247
           6
  t=        45.50000    1    1
C       0.422521904      0.983927859      1.064269932
C       1.777330288      1.205175922      1.099649341
H       0.620714106      1.808438547      1.821837544
H      -0.298952451      0.490342469      1.047244531
H       1.960872482      2.266927636      1.250502563
H       2.570127816      0.415075318      1.161377566
           6
  t=        46.00000    1    1
C       0.429056540      1.000350933      1.076974045
C       1.788375597      1.216556860      1.121305734
H       0.678829417      1.819207623      1.823382359
H      -0.301677656      0.440749963      1.026662954
H       2.012010050      2.309451440      1.231620130
H       2.611197790      0.437145347      1.146943066
           6
  t=        46.50000    1    1
C       0.437864277      1.018774747      1.090276812
C       1.799397593      1.227451011      1.142700634
H       0.724570357      1.830140284      1.824391272
H      -0.320613152      0.374443172      1.004801867
H       2.066075871      2.348237492      1.212439377
H       2.651116430      0.461464054      1.130604825
           6
  t=        47.00000    1    1
C       0.448012139      1.038393179      1.104035856
C       1.810608057      1.237951041      1.163700183
H       0.757363552      1.842155275      1.826140334
H      -0.344082156      0.300642586      0.982745543
H       2.121536371      2.381476910      1.193341997
H       2.688907413      0.488202402      1.112912304
           6
  t=        47.50000    1    1
C       0.458912880      1.058558153      1.118093353
C       1.822202918      1.248130852      1.184176674
H       0.777016784      1.856340017      1.829880586
H      -0.364905114      0.226325732      0.961652333
H       2.176962942      2.407867221      1.174779763
H       2.723674855      0.517439573      1.094406655
           6
  t=        48.00000    1    1
C       0.470250499      1.078820868      1.132314376
C       1.834361734      1.258049677      1.204019196
H       0.783444453      1.873505227      1.836506209
H      -0.379257552      0.156213607      0.942561489
H       2.231031192      2.426592188      1.157249714
H       2.754630043      0.549102078      1.075586742
           6
  t=        48.50000    1    1
C       0.481844321      1.098866815      1.146591284
C       1.847224958      1.267743486      1.223141792
H       0.776743656      1.894148740      1.846470289
H      -0.385023699      0.093654128      0.926361853
H       2.282540732      2.437371029      1.141288559
H       2.781239794      0.582943899      1.056880756
           6
  t=        49.00000    1    1
C       0.493609884      1.118471695      1.160836679
C       1.860869091      1.277241594      1.241484322
H       0.757318991      1.918564785      1.859798300
H      -0.380953824      0.041117979      0.913832854
H       2.330285290      2.440158127      1.127528034
H       2.803150905      0.618569142      1.038610075
           6
  t=        49.50000    1    1
C       0.505566300      1.137515336      1.175004617
C       1.875301496      1.286578330      1.259007684
H       0.725574770      1.946619041      1.876162960
H      -0.366706534      0.000052235      0.905520353
H       2.373350048      2.435298700      1.116538085
H       2.820217022      0.655342669      1.020999571
           6
  t=        50.00000    1    1
C       0.517805829      1.155964995      1.189103179
C       1.890470689      1.295816407      1.275686287
H       0.681803794      1.977626227      1.894971726
H      -0.342804580     -0.029077940      0.901652319
H       2.411376116      2.423562183      1.108710594
H       2.832541111      0.692358083      1.004230582
           6
  t=        50.50000    1    1
C       0.530442385      1.173834759      1.203188739
C       1.906290728      1.305037127      1.291504189
H       0.626477329      2.010618234      1.915264896
H      -0.310187878     -0.046333543      0.902219492
H       2.444170585      2.405978516      1.104440191
H       2.840451416      0.728477925      0.988395647
           6
  t=        51.00000    1    1
C       0.543555572      1.191140683      1.217338239
C       1.922701737      1.314329687      1.306447302
H       0.560107231      2.044631207      1.935985667
H      -0.269761172     -0.051793678      0.907117685
H       2.471525523      2.383455825      1.104134669
H       2.844313718      0.762582855      0.973499017
           6
  t=        51.50000    1    1
C       0.557143894      1.207888789      1.231634114
C       1.939691890      1.323784808      1.320517234
H       0.483311113      2.078588072      1.955994278
H      -0.222219603     -0.045333650      0.916239330
H       2.493336345      2.356717886      1.108131734
H       2.844468829      0.793748733      0.959448898
           6
  t=        52.00000    1    1
C       0.571106095      1.224078578      1.246174635
C       1.957230902      1.333502125      1.333751830
H       0.397698536      2.110785504      1.973542987
H      -0.168029402     -0.026539733      0.929541883
H       2.509656662      2.326838217      1.116800081
H       2.841287229      0.821010361      0.946044945
           6
  t=        52.50000    1    1
C       0.585296154      1.239730221      1.261077587
C       1.975244533      1.343526526      1.346198850
H       0.305454451      2.139300370      1.986660506
H      -0.107500966      0.005037607      0.946980796
H       2.520787729      2.295747086      1.130503703
H       2.835217666      0.843135875      0.932966455
           6
  t=        53.00000    1    1
C       0.599578222      1.254883806      1.276439012
C       1.993533531      1.353844139      1.357932266
H       0.209447434      2.162312801      1.993615990
H      -0.040947212      0.049493445      0.968486257
H       2.527612993      2.266167367      1.149481356
H       2.826813992      0.858814777      0.919749467
           6
  t=        53.50000    1    1
C       0.613830184      1.269580591      1.292319770
C       2.011834968      1.364371211      1.369028889
H       0.112483758      2.178554135      1.993287280
H       0.031253923      0.106570900      0.993983790
H       2.531618366      2.241349521      1.173874164
H       2.816749995      0.866828516      0.905809075
           6
  t=        54.00000    1    1
C       0.627964663      1.283871953      1.308745672
C       2.029853458      1.374952594      1.379576840
H       0.017155647      2.187400543      1.985164691
H       0.108326501      0.175342149      1.023282737
H       2.534866219      2.224901993      1.203662146
H       2.805707894      0.866356815      0.890508005
           6
  t=        54.50000    1    1
C       0.641947268      1.297851422      1.325719745
C       2.047299223      1.385402765      1.389670340
H      -0.074065901      2.188712249      1.969211840
H       0.188855887      0.253802301      1.055931098
H       2.539729802      2.220187702      1.238661153
H       2.794120794      0.857277578      0.873360017
           6
  t=        55.00000    1    1
C       0.655808671      1.311722130      1.343252997
C       2.063941843      1.395559370      1.399375551
H      -0.158867232      2.182510954      1.945638834
H       0.270787201      0.338459438      1.091113584
H       2.548430259      2.229485208      1.278654950
H       2.781888878      0.840296538      0.854267009
           6
  t=        55.50000    1    1
C       0.669678092      1.325926421      1.361393451
C       2.079659577      1.405341391      1.408709927
H      -0.235243471      2.168811205      1.914824599
H       0.351082122      0.423085427      1.127419697
H       2.562515571      2.253120293      1.323493424
H       2.768408535      0.816996092      0.833630445
           6
  t=        56.00000    1    1
C       0.683823061      1.341273305      1.380259135
C       2.094436359      1.414773504      1.417646589
H      -0.301607440      2.147554501      1.877461115
H       0.425623756      0.497538401      1.162351519
H       2.582266375      2.289267132      1.372829885
H       2.752932429      0.789468470      0.812516856
           6
  t=        56.50000    1    1
C       0.698518503      1.358894934      1.400059119
C       2.108404460      1.424023168      1.426145330
H      -0.356157732      2.118676105      1.834712029
H       0.489700647      0.547804319      1.191668424
H       2.606455990      2.334609423      1.425794887
H       2.734745311      0.759623042      0.792860572
           6
  t=        57.00000    1    1
C       0.713871546      1.379707581      1.420951936
C       2.121820891      1.433418885      1.434218505
H      -0.397122912      2.082613543      1.787832889
H       0.539796727      0.561372609      1.211371152
H       2.632996360      2.384820297      1.481485669
H       2.713340886      0.729027352      0.776271800
           6
  t=        57.50000    1    1
C       0.729699947      1.403663507      1.442834754
C       2.134922953      1.443291892      1.441922512
H      -0.423365751      2.040381955      1.738151657
H       0.576491613      0.536814319      1.220543587
H       2.659869947      2.435430516      1.538861766
H       2.688363812      0.699186418      0.763932442
           6
  t=        58.00000    1    1
C       0.745611778      1.429670902      1.465316795
C       2.147884488      1.453868197      1.449326595
H      -0.434523951      1.993398049      1.687215729
H       0.603549303      0.485203896      1.221587378
H       2.685735307      2.482589245      1.596590724
H       2.659627871      0.671776500      0.757057222
           6
  t=        58.50000    1    1
C       0.761249327      1.456312661      1.487946724
C       2.160806197      1.465292331      1.456472266
H      -0.431129123      1.943344004      1.636474852
H       0.624724229      0.421478005      1.218132764
H       2.710015580      2.523639698      1.653607847
H       2.627549569      0.647999164      0.756514163
           6
  t=        59.00000    1    1
C       0.776439374      1.482504421      1.510400719
C       2.173697396      1.477654189      1.463372504
H      -0.414213056      1.891954898      1.587001402
H       0.642255631      0.356783408      1.213143655
H       2.732388883      2.556690524      1.709130047
H       2.593196360      0.628713629      0.762753966
           6
  t=        59.50000    1    1
C       0.791156324      1.507553793      1.532471045
C       2.186514227      1.490995224      1.470049900
H      -0.385039581      1.840896265      1.539505339
H       0.657156218      0.297755090      1.208729757
H       2.752615407      2.580458496      1.762501073
H       2.557886723      0.614658974      0.775819315
           6
  t=        60.00000    1    1
C       0.805490191      1.531078190      1.554036114
C       2.199169497      1.505324516      1.476552851
H      -0.345126339      1.791685782      1.494366171
H       0.669783343      0.247594397      1.206343474
H       2.770471145      2.594111435      1.813148309
H       2.522971399      0.606398918      0.795323081
           6
  t=        60.50000    1    1
C       0.819621749      1.552930437      1.575014685
C       2.211538737      1.520608312      1.482966452
H      -0.296594118      1.745525307      1.452000767
H       0.680417335      0.207486358      1.206712191
H       2.785765433      2.597204063      1.860407798
H       2.489810558      0.604147776      0.820738984
           6
  t=        61.00000    1    1
C       0.833793549      1.573085280      1.595355440
C       2.223479237      1.536778518      1.489390665
H      -0.242248907      1.703361690      1.412774359
H       0.689296808      0.177644011      1.210067683
H       2.798501596      2.589738531      1.903625269
H       2.459778575      0.607855755      0.851544724
           6
  t=        61.50000    1    1
C       0.848281215      1.591597346      1.615060693
C       2.234867457      1.553741682      1.495920249
H      -0.185540939      1.665964816      1.376615185
H       0.696616183      0.157487608      1.216411488
H       2.808899412      2.572170619      1.942329049
H       2.434099340      0.617339617      0.887125456
           6
  t=        62.00000    1    1
C       0.863365884      1.608573175      1.634185726
C       2.245609631      1.571397841      1.502643820
H      -0.130219978      1.633844084      1.342944617
H       0.702512055      0.145993969      1.225598516
H       2.817312532      2.545349210      1.976245702
H       2.413799661      0.632185869      0.926763716
           6
  t=        62.50000    1    1
C       0.879279667      1.624159669      1.652819882
C       2.255644345      1.589655739      1.509649368
H      -0.079700906      1.607047407      1.310817683
H       0.707010786      0.142095558      1.237422257
H       2.824195711      2.510478430      2.005325735
H       2.399779383      0.651546938      0.969547436
           6
  t=        63.00000    1    1
C       0.896135729      1.638538699      1.671060171
C       2.264941566      1.608434171      1.517023828
H      -0.036432125      1.585263822      1.279238423
H       0.710172150      0.144770545      1.251650887
H       2.830142097      2.469159531      2.029808954
H       2.392843392      0.673954877      1.014272764
           6
  t=        63.50000    1    1
C       0.913886768      1.651892675      1.688975860
C       2.273490143      1.627648201      1.524839022
H      -0.001462690      1.568131075      1.247542996
H       0.712195661      0.153154305      1.268083962
H       2.835976586      2.423439492      2.050282049
H       2.393712824      0.697428105      1.059536118
           6
  t=        64.00000    1    1
C       0.932326223      1.664368939      1.706581305
C       2.281281959      1.647184650      1.533127111
H       0.025690444      1.555416913      1.215667185
H       0.713357883      0.166671063      1.286604492
H       2.842916814      2.375938905      2.067812932
H       2.402968488      0.719746982      1.103896508
           6
  t=        64.50000    1    1
C       0.951132633      1.676054925      1.723834553
C       2.288292075      1.666885684      1.541851538
H       0.046708944      1.547095246      1.184142278
H       0.713924840      0.185087981      1.307199199
H       2.852781760      2.329915631      2.084119904
H       2.420971313      0.738751454      1.146053159
           6
  t=        65.00000    1    1
C       0.969925251      1.686980046      1.740642910
C       2.294492116      1.686538492      1.550900224
H       0.063811213      1.543343108      1.154002425
H       0.714216170      0.208529223      1.329950489
H       2.867808737      2.288782381      2.101408714
H       2.447820888      0.752912901      1.185123731
           6
  t=        65.50000    1    1
C       0.988328015      1.697142780      1.756897667
C       2.299893529      1.705910813      1.560111282
H       0.079169886      1.544389107      1.126477893
H       0.714605746      0.237312097      1.354962455
H       2.890017052      2.255114038      2.121766735
H       2.483296034      0.761896220      1.220910826
           6
  t=        66.00000    1    1
C       1.005994957      1.706527993      1.772488115
C       2.304606343      1.724790054      1.569345108
H       0.094517246      1.550484117      1.102804509
H       0.715562327      0.271808067      1.382341519
H       2.920624412      2.230308443      2.146604815
H       2.526789384      0.766394763      1.253644027
           6
  t=        66.50000    1    1
C       1.022617510      1.715116553      1.787316445
C       2.308883855      1.743021254      1.578549670
H       0.111098174      1.561855951      1.084082232
H       0.717656320      0.312357982      1.412151525
H       2.959527246      2.214454597      2.176091810
H       2.577247811      0.767825281      1.283776105
           6
  t=        67.00000    1    1
C       1.037940490      1.722888046      1.801304845
C       2.313121726      1.760514000      1.587781121
H       0.129721282      1.578708213      1.071207725
H       0.721550917      0.359200229      1.444392428
H       3.005095107      2.206535247      2.208986387
H       2.633156036      0.768083638      1.311909875
           6
  t=        67.50000    1    1
C       1.051783991      1.729827897      1.814398752
C       2.317801982      1.777229276      1.597175768
H       0.150764232      1.601263502      1.064837725
H       0.727939844      0.412289110      1.478976296
H       3.054556393      2.205033292      2.243089576
H       2.692614352      0.769148584      1.338701453
           6
  t=        68.00000    1    1
C       1.064038442      1.735937520      1.826570876
C       2.323414922      1.793161812      1.606896119
H       0.174172487      1.629866490      1.065362907
H       0.737455695      0.471072116      1.515715756
H       3.104805942      2.208584070      2.275985508
H       2.753613229      0.772638579      1.364752192
           6
  t=        68.50000    1    1
C       1.074651434      1.741238484      1.837820285
C       2.330405361      1.808325755      1.617087654
H       0.199465884      1.665074277      1.072882945
H       0.750621957      0.534360598      1.554364676
H       3.153062080      2.216299100      2.305588129
H       2.814215228      0.779648059      1.390572233
           6
  t=        69.00000    1    1
C       1.083613829      1.745749487      1.848161815
C       2.339153103      1.822744175      1.627864132
H       0.225800039      1.707687103      1.087196583
H       0.767832805      0.600589972      1.594757942
H       3.197113155      2.227775398      2.330314060
H       2.872665461      0.790846687      1.416579008
           6
  t=        69.50000    1    1
C       1.090970821      1.749484500      1.857625903
C       2.349955239      1.836452828      1.639311000
H       0.252080530      1.758628413      1.107743464
H       0.789218947      0.668013719      1.636913000
H       3.235262541      2.242868827      2.349025984
H       2.927545705      0.806609100      1.443071919
           6
  t=        70.00000    1    1
C       1.096862826      1.752517091      1.866272679
C       2.362998509      1.849501258      1.651491456
H       0.277090726      1.818726566      1.133616834
H       0.814436733      0.734263635      1.680851387
H       3.266251423      2.261506867      2.360953815
H       2.977776810      0.827080745      1.470236738
           6
  t=        70.50000    1    1
C       1.101568696      1.755102121      1.874210782
C       2.378345308      1.861956612      1.664443746
H       0.299637123      1.888540706      1.163698780
H       0.842303714      0.795099048      1.726234229
H       3.289264861      2.283630176      2.365682013
H       3.022483453      0.852165525      1.498195545
           6
  t=        71.00000    1    1
C       1.105503323      1.757755589      1.881596337
C       2.395933920      1.873907417      1.678173966
H       0.318769043      1.968192785      1.196836898
H       0.870491081      0.843618396      1.772256779
H       3.304010325      2.309179397      2.363168364
H       3.061029333      0.881499070      1.527014747
           6
  t=        71.50000    1    1
C       1.109124955      1.761136341      1.888551987
C       2.415601354      1.885443132      1.692667566
H       0.334052902      2.057351630      1.232294317
H       0.896082419      0.871787394      1.818102187
H       3.310676619      2.338208713      2.353678290
H       3.093057453      0.914476114      1.556694632
           6
  t=        72.00000    1    1
C       1.112832746      1.765808789      1.895104125
C       2.437088584      1.896632966      1.707899397
H       0.345824290      2.154925128      1.270028345
H       0.916517153      0.873704586      1.863379466
H       3.309902690      2.371013876      2.337774153
H       3.118484125      0.950244432      1.587091695
           6
  t=        72.50000    1    1
C       1.116864750      1.771928367      1.901186812
C       2.460048979      1.907523365      1.723834910
H       0.355078268      2.259112585      1.310585768
H       0.930747580      0.849378981      1.908202845
H       3.302740283      2.408180127      2.316237258
H       3.137604026      0.987604952      1.617961014
           6
  t=        73.00000    1    1
C       1.121279413      1.779181077      1.906705128
C       2.484091893      1.918146065      1.740424910
H       0.363269996      2.367743940      1.354890606
H       0.939332816      0.804995723      1.952709972
H       3.290487300      2.450578788      2.289944761
H       3.151063347      1.025034578      1.649080968
           6
  t=        73.50000    1    1
C       1.126055538      1.787060732      1.911610355
C       2.508755745      1.928530026      1.757592556
H       0.372304259      2.477763387      1.404053439
H       0.943424682      0.750120787      1.996435323
H       3.274688626      2.499093153      2.259904368
H       3.160013255      1.060826356      1.680294918
           6
  t=        74.00000    1    1
C       1.131178550      1.795157544      1.915915789
C       2.533577276      1.938714664      1.775240831
H       0.383802566      2.586310415      1.458727672
H       0.943997799      0.692894840      2.038788885
H       3.256938218      2.554670955      2.227192679
H       3.165957352      1.093165630      1.711460488
           6
  t=        74.50000    1    1
C       1.136684806      1.803233762      1.919689670
C       2.558073189      1.948755441      1.793263374
H       0.398985244      2.690586244      1.519129221
H       0.941738083      0.639340052      2.079043637
H       3.238825449      2.618177242      2.192766482
H       3.170725622      1.120136037      1.742586207
           6
  t=        75.00000    1    1
C       1.142651449      1.811197210      1.923033392
C       2.581789056      1.958737420      1.811574705
H       0.418685523      2.787978301      1.585087015
H       0.937118490      0.593560699      2.116506585
H       3.221517690      2.690047885      2.157157515
H       3.176340103      1.139894787      1.773814788
           6
  t=        75.50000    1    1
C       1.149173461      1.819038842      1.926064688
C       2.604386073      1.968797275      1.830125938
H       0.443305130      2.876237059      1.656089160
H       0.930411198      0.558210065      2.150672988
H       3.205380486      2.769750042      2.120362848
H       3.184666657      1.151050175      1.805345439
           6
  t=        76.00000    1    1
C       1.156347733      1.826790681      1.928910416
C       2.625685825      1.979116819      1.848899356
H       0.472829669      2.953524622      1.731364366
H       0.921758435      0.534971277      2.181224029
H       3.189930318      2.855410814      2.081987625
H       3.197032382      1.153081870      1.837362619
           6
  t=        76.50000    1    1
C       1.164235623      1.834496528      1.931723739
C       2.645690114      1.989880615      1.867882695
H       0.506929564      3.018145955      1.809892016
H       0.911225023      0.525246563      2.207873358
H       3.174158692      2.943941672      2.041632160
H       3.213957943      1.146650098      1.869894099
           6
  t=        77.00000    1    1
C       1.172865134      1.842211656      1.934698664
C       2.664512577      2.001215866      1.887045711
H       0.545060736      3.068261045      1.890399078
H       0.898942902      0.530580034      2.230196815
H       3.157112906      3.031282696      1.999176942
H       3.235120418      1.133936345      1.902805215
           6
  t=        77.50000    1    1
C       1.182261069      1.850034128      1.938018739
C       2.682259304      2.013156893      1.906337172
H       0.586683005      3.102017434      1.971569296
H       0.885299824      0.552174339      2.247880638
H       3.138345208      3.113531552      1.954951091
H       3.259560349      1.117915339      1.935820239
           6
  t=        78.00000    1    1
C       1.192458522      1.858074558      1.941825668
C       2.698992641      2.025666548      1.925701667
H       0.631323527      3.118561983      2.052196459
H       0.870895174      0.590053682      2.260862684
H       3.117765085      3.187936656      1.909479378
H       3.286080596      1.101292177      1.968654518
           6
  t=        78.50000    1    1
C       1.203484549      1.866443032      1.946255403
C       2.714739026      2.038675124      1.945074786
H       0.678602112      3.117680770      2.131091260
H       0.856363261      0.643535816      2.269118934
H       3.095546242      3.252452130      1.863382696
H       3.313615974      1.086527765      2.001047995
           6
  t=        79.00000    1    1
C       1.215377707      1.875256181      1.951436772
C       2.729482433      2.052093005      1.964381554
H       0.728064985      3.099843819      2.207061642
H       0.842290232      0.711182889      2.272726512
H       3.072104345      3.305534209      1.817402002
H       3.341349919      1.075811799      2.032732988
           6
  t=        79.50000    1    1
C       1.228220840      1.884616497      1.957449003
C       2.743161824      2.065816487      1.983545305
H       0.779004013      3.066733350      2.279100609
H       0.829148776      0.790564260      2.272105245
H       3.048020974      3.346028573      1.772430164
H       3.368676508      1.071061472      2.063373231
           6
  t=        80.00000    1    1
C       1.242130529      1.894647457      1.964313868
C       2.755702392      2.079737539      2.002496143
H       0.830533330      3.020704932      2.346446751
H       0.817099915      0.878368919      2.268048743
H       3.023974434      3.373077877      1.729440244
H       3.395144460      1.073905489      2.092536917
           6
  t=        80.50000    1    1
C       1.257249911      1.905537496      1.972020763
C       2.767059486      2.093756793      2.021167123
H       0.881651298      2.964181100      2.408514351
H       0.805698077      0.970448877      2.261591007
H       3.000599151      3.386238467      1.689336834
H       3.420393103      1.085451699      2.119795203
           6
  t=        81.00000    1    1
C       1.273754895      1.917505081      1.980529043
C       2.777250676      2.107790534      2.039491450
H       0.931116901      2.899941165      2.465002001
H       0.793672687      1.061864937      2.253919272
H       2.978412240      3.385593744      1.652877297
H       3.444111408      1.106170903      2.144785139
           6
  t=        81.50000    1    1
C       1.291879691      1.930757162      1.989728519
C       2.786346557      2.121766136      2.057402815
H       0.977522651      2.831953961      2.516183321
H       0.778642341      1.146456250      2.246480180
H       2.957826874      3.371778434      1.620746923
H       3.466043180      1.136019838      2.167204248
           6
  t=        82.00000    1    1
C       1.311917491      1.945414116      1.999422477
C       2.794432015      2.135643261      2.074835302
H       1.019678107      2.765403522      2.563195674
H       0.757286049      1.217624480      2.240753077
H       2.939106986      3.345676580      1.593672471
H       3.485930856      1.174575061      2.186838466
           6
  t=        82.50000    1    1
C       1.334087486      1.961353436      2.009383714
C       2.801613769      2.149412172      2.091725996
H       1.056338350      2.705875442      2.608185445
H       0.726922887      1.271213039      2.237474183
H       2.922420437      3.308239549      1.572383620
H       3.503648979      1.221031939      2.203532494
           6
  t=        83.00000    1    1
C       1.358351153      1.978121227      2.019415776
C       2.808019116      2.163068643      2.108021932
H       1.086239450      2.658983361      2.654362857
H       0.687377794      1.306900872      2.235946314
H       2.907968801      3.260920557      1.557361074
H       3.519377168      1.274103533      2.217264564
           6
  t=        83.50000    1    1
C       1.384354810      1.995109665      2.029423212
C       2.813767254      2.176594075      2.123687685
H       1.108517395      2.628704530      2.704841357
H       0.641478091      1.327655441      2.234427027
H       2.896115837      3.205857529      1.548714779
H       3.533582378      1.332171425      2.228113191
           6
  t=        84.00000    1    1
C       1.411501948      2.011831824      2.039464580
C       2.818949589      2.189953311      2.138720142
H       1.123268017      2.616091964      2.760930088
H       0.593816932      1.337735902      2.231112382
H       2.887362387      3.145896630      1.546121571
H       3.547093433      1.393298262      2.236235692
           6
  t=        84.50000    1    1
C       1.439081626      2.028057215      2.049760537
C       2.823633109      2.203080093      2.153177380
H       1.131673863      2.619420664      2.821264715
H       0.549054509      1.341045919      2.224792245
H       2.882154984      3.084823188      1.548564750
H       3.561294194      1.455055987      2.241901933
           6
  t=        85.00000    1    1
C       1.466389954      2.043747942      2.060615307
C       2.827863153      2.215848572      2.167198349
H       1.135448257      2.635664448      2.882717841
H       0.510866935      1.340400739      2.214978667
H       2.881004121      3.027623354      1.553977619
H       3.578131809      1.514620530      2.245513211
           6
  t=        85.50000    1    1
C       1.492775192      2.058943386      2.072337179
C       2.831696309      2.228059176      2.181017690
H       1.136389089      2.661705424      2.941620354
H       0.481805035      1.337582101      2.201704891
H       2.884633416      2.980257454      1.559122614
H       3.599625586      1.569276492      2.247473617
           6
  t=        86.00000    1    1
C       1.517655105      2.073682813      2.085167274
C       2.835249554      2.239476362      2.194925842
H       1.136047638      2.694980303      2.994765857
H       0.463526121      1.333670940      2.185338460
H       2.893885854      2.948613493      1.560184186
H       3.627267807      1.616956994      2.248103640
           6
  t=        86.50000    1    1
C       1.540565854      2.088002115      2.099236862
C       2.838743256      2.249938367      2.209156620
H       1.135549343      2.733285684      3.039781615
H       0.456938423      1.329526074      2.166553368
H       2.909259230      2.936428610      1.554296182
H       3.661428125      1.656769328      2.247617938
           6
  t=        87.00000    1    1
C       1.561168594      2.101937470      2.114591875
C       2.842501807      2.259464584      2.223746806
H       1.135658542      2.774626338      3.075065529
H       0.462453948      1.325988501      2.146154473
H       2.930605759      2.944071988      1.540998837
H       3.701250202      1.688836352      2.246287938
           6
  t=        87.50000    1    1
C       1.579203485      2.115512703      2.131230675
C       2.846939599      2.268241384      2.238515500
H       1.136898135      2.817433002      3.099530457
H       0.480238216      1.323771392      2.124942750
H       2.957229183      2.969149998      1.522500795
H       3.744900300      1.713903179      2.244366211
           6
  t=        88.00000    1    1
C       1.594490105      2.128729143      2.149110424
C       2.852510203      2.276535899      2.253162587
H       1.139548876      2.860552535      3.112566406
H       0.510295007      1.323562301      2.103689596
H       2.988002193      3.007861700      1.502540240
H       3.789966417      1.733037454      2.242039708
           6
  t=        88.50000    1    1
C       1.606933623      2.141568125      2.168160218
C       2.859641197      2.284625417      2.267375251
H       1.143663047      2.903160768      3.113982348
H       0.552495111      1.326060729      2.083101840
H       3.021596400      3.056131589      1.485069223
H       3.833888969      1.747357653      2.239412827
           6
  t=        89.00000    1    1
C       1.616544785      2.154016118      2.188291317
C       2.868660010      2.292756040      2.280897695
H       1.149189871      2.944604578      3.103897438
H       0.606450924      1.331836171      2.063826997
H       3.056743007      3.110291313      1.473372673
H       3.874345561      1.757844537      2.236539373
           6
  t=        89.50000    1    1
C       1.623456304      2.166094008      2.209409284
C       2.879743960      2.301116985      2.293553169
H       1.156074366      2.984264534      3.082600221
H       0.671452591      1.341185046      2.046465004
H       3.092398772      3.167346860      1.469771502
H       3.909450042      1.765311614      2.233441334
           6
  t=        90.00000    1    1
C       1.627921139      2.177867101      2.231416880
C       2.892920460      2.309836032      2.305228584
H       1.164257888      3.021517341      3.050565957
H       0.746376316      1.354026112      2.031564473
H       3.127839561      3.224989101      1.475684593
H       3.937768163      1.770471776      2.230182167
           6
  t=        90.50000    1    1
C       1.630315895      2.189442308      2.254207776
C       2.908085788      2.318990403      2.315863699
H       1.173592938      3.055796296      3.008592191
H       0.829521868      1.369819322      2.019543258
H       3.162602423      3.281507321      1.491721789
H       3.958358995      1.773948433      2.226921403
           6
  t=        91.00000    1    1
C       1.631112495      2.200965428      2.277678023
C       2.925052825      2.328629625      2.325438280
H       1.183788369      3.086676775      2.957655783
H       0.918598021      1.387453358      2.010605498
H       3.196357508      3.335644898      1.518019325
H       3.970741170      1.776206704      2.223821527
           6
  t=        91.50000    1    1
C       1.630847281      2.212630830      2.301736507
C       2.943598875      2.338801691      2.333951317
H       1.194387459      3.113928479      2.898905376
H       1.010666530      1.404981382      2.004602570
H       3.228869234      3.386404961      1.554494464
H       3.974807910      1.777532704      2.221062999
           6
  t=        92.00000    1    1
C       1.630134180      2.224690457      2.326304990
C       2.963463339      2.349562707      2.341430447
H       1.204677804      3.137778586      2.833833265
H       1.102101719      1.419272401      2.000763016
H       3.259924693      3.432914879      1.600867205
H       3.970900058      1.778032257      2.218807915
           6
  t=        92.50000    1    1
C       1.629608495      2.237393782      2.351320197
C       2.984348129      2.360992070      2.347932321
H       1.213688512      3.159105081      2.764136471
H       1.189273345      1.426457440      1.997753438
H       3.289321822      3.474358868      1.656783042
H       3.959802689      1.777593433      2.217126085
           6
  t=        93.00000    1    1
C       1.629828818      2.250871717      2.376725156
C       3.005926191      2.373208677      2.353532418
H       1.220254308      3.179352940      2.691471982
H       1.269559573      1.423304948      1.994111333
H       3.316939365      3.509862922      1.721823891
H       3.942665224      1.775900155      2.216020606
           6
  t=        93.50000    1    1
C       1.631195389      2.265028845      2.402423880
C       3.027845255      2.386362504      2.358326758
H       1.223254284      3.200267261      2.617155497
H       1.342026483      1.408781954      1.989103813
H       3.342802474      3.538616984      1.795470160
H       3.920945737      1.772400265      2.215427835
           6
  t=        94.00000    1    1
C       1.633959524      2.279556114      2.428257277
C       3.049732066      2.400621933      2.362431280
H       1.221878535      3.223323732      2.541983031
H       1.407010573      1.384569269      1.983212257
H       3.367083755      3.559931077      1.877066828
H       3.896398017      1.766303413      2.215239598
           6
  t=        94.50000    1    1
C       1.638281434      2.294072321      2.454021221
C       3.071191465      2.416150232      2.365984079
H       1.215884341      3.249032405      2.466285698
H       1.465214798      1.354199947      1.977879839
H       3.390119611      3.573326307      1.965768356
H       3.871025003      1.756642223      2.215313965
           6
  t=        95.00000    1    1
C       1.644263254      2.308283213      2.479492300
C       3.091837693      2.433076278      2.369144698
H       1.205704688      3.276516195      2.390272184
H       1.517142088      1.321677319      1.974864494
H       3.412413214      3.578607536      2.060516256
H       3.846767158      1.742456168      2.215503862
           6
  t=        95.50000    1    1
C       1.651949035      2.322053777      2.504435191
C       3.111349494      2.451444478      2.372094888
H       1.192352007      3.303721886      2.314462582
H       1.563002623      1.290477573      1.975692265
H       3.434605894      3.576021903      2.160004794
H       3.825063654      1.723154747      2.215707190
           6
  t=        96.00000    1    1
C       1.661347521      2.335368593      2.528600032
C       3.129489401      2.471175501      2.375024115
H       1.177138152      3.328129060      2.239850826
H       1.602774773      1.263277619      1.981517469
H       3.457482280      3.566405436      2.262801823
H       3.806565012      1.698874478      2.215927538
           6
  t=        96.50000    1    1
C       1.672426385      2.348264319      2.551738963
C       3.146119905      2.492025626      2.378107379
H       1.161428730      3.347387759      2.167763828
H       1.636376368      1.242157087      1.993138945
H       3.481953927      3.551374507      2.367490485
H       3.791099942      1.670736615      2.216324180
           6
  t=        97.00000    1    1
C       1.685109320      2.360797214      2.573623648
C       3.161191134      2.513597955      2.381475042
H       1.146489105      3.359577128      2.099662892
H       1.663792216      1.228774347      2.011080598
H       3.509012044      3.533206095      2.472951331
H       3.777930565      1.640785598      2.217198771
           6
  t=        97.50000    1    1
C       1.699295147      2.373020031      2.594044396
C       3.174696347      2.535413694      2.385199333
H       1.133346947      3.363271168      2.037029833
H       1.685105443      1.224592164      2.035724298
H       3.539679009      3.514320103      2.578566511
H       3.766209670      1.611641333      2.218943439
           6
  t=        98.00000    1    1
C       1.714801608      2.384977347      2.612864351
C       3.186726141      2.556994746      2.389300631
H       1.122732901      3.357847272      1.981154843
H       1.700716353      1.230746585      2.067061568
H       3.574575733      3.496598460      2.684002015
H       3.755277583      1.586074116      2.221998391
           6
  t=        98.50000    1    1
C       1.731403298      2.396702593      2.629997734
C       3.197506105      2.578018298      2.393835990
H       1.115110779      3.343504018      1.933169109
H       1.710866209      1.247466206      2.104657359
H       3.613478259      3.480713902      2.788624718
H       3.744651007      1.566432245      2.226642872
           6
  t=        99.00000    1    1
C       1.748940334      2.408233344      2.645368894
C       3.207281767      2.598383397      2.398932464
H       1.110739280      3.320860058      1.894008102
H       1.715479322      1.273977145      2.147989794
H       3.655527155      3.466038133      2.891415171
H       3.733985822      1.554254415      2.232870248
           6
  t=        99.50000    1    1
C       1.767291720      2.419627468      2.658930976
C       3.216267079      2.618102137      2.404745640
H       1.109768963      3.290657416      1.864429731
H       1.714620471      1.309118335      2.196464812
H       3.699516173      3.451254463      2.990968690
H       3.723165335      1.550442728      2.240625737
           6
  t=       100.00000    1    1
C       1.786324967      2.430977989      2.670686295
C       3.224668881      2.637219751      2.411435421
H       1.112254722      3.253797575      1.844994560
H       1.708676163      1.351309617      2.249335390
H       3.744051674      3.435013494      3.085617228
H       3.712255826      1.555377837      2.249830909
           6
  t=       100.50000    1    1
C       1.805893251      2.442422564      2.680687894
C       3.232684840      2.655777204      2.419149112
H       1.118175080      3.211367097      1.836045174
H       1.698336798      1.398403638      2.305704845
H       3.787703361      3.416279533      3.173650118
H       3.701412828      1.569027802      2.260363225
           6
  t=       101.00000    1    1
C       1.825845572      2.454149373      2.689028476
C       3.240501792      2.673800678      2.428013252
H       1.127388024      3.164641227      1.837732733
H       1.684432761      1.447544244      2.364541819
H       3.829136753      3.394456003      3.253474772
H       3.690855468      1.591015858      2.272083087
           6
  t=       101.50000    1    1
C       1.846043243      2.466414368      2.695833558
C       3.248281640      2.691307765      2.438118421
H       1.139633651      3.114988482      1.850026238
H       1.667694870      1.494964098      2.424679034
H       3.867299749      3.369443709      3.323858770
H       3.680888281      1.620580553      2.284846250
           6
  t=       102.00000    1    1
C       1.866376199      2.479532189      2.701239410
C       3.256150385      2.708320855      2.449518952
H       1.154541772      3.063922669      1.872708434
H       1.648585268      1.536010077      2.485025045
H       3.901463655      3.341518470      3.383977624
H       3.671958117      1.656569458      2.298514717
           6
  t=       102.50000    1    1
C       1.886764616      2.493782585      2.705386940
C       3.264205587      2.724884364      2.462232065
H       1.171573583      3.013160237      1.905161803
H       1.627310728      1.566177307      2.544924703
H       3.931128959      3.311161902      3.433362025
H       3.664685184      1.697426715      2.312946279
           6
  t=       103.00000    1    1
C       1.907141822      2.509273909      2.708413308
C       3.272533558      2.741079216      2.476249739
H       1.189908184      2.964576282      1.946203328
H       1.604045922      1.582679735      2.604426405
H       3.955944722      3.278941544      3.471787911
H       3.659832632      1.741240395      2.327960826
           6
  t=       103.50000    1    1
C       1.927428726      2.525842925      2.710470513
C       3.281213908      2.757040399      2.491551469
H       1.208254465      2.920178676      1.993930610
H       1.579378525      1.585575518      2.664177255
H       3.975707858      3.245489621      3.499246857
H       3.658300799      1.785648808      2.343255253
           6
  t=       104.00000    1    1
C       1.947541514      2.543079177      2.711781288
C       3.290312974      2.772952890      2.508115044
H       1.224536469      2.882150877      2.045618444
H       1.554610861      1.577506641      2.724819941
H       3.990334550      3.211548743      3.515873997
H       3.661155367      1.827770687      2.358387570
           6
  t=       104.50000    1    1
C       1.967432372      2.560454656      2.712668661
C       3.299882682      2.789020295      2.525920017
H       1.235722398      2.852745111      2.097853089
H       1.531601446      1.562364610      2.786476781
H       3.999828188      3.177999287      3.521901213
H       3.669517257      1.864447371      2.372811896
           6
  t=       105.00000    1    1
C       1.987092667      2.577460807      2.713495730
C       3.309972960      2.805402904      2.544934052
H       1.238341354      2.833867961      2.147310138
H       1.512360862      1.544089587      2.848651889
H       4.004322642      3.145888550      3.517744838
H       3.684220834      1.892934630      2.385990898
           6
  t=       105.50000    1    1
C       2.006515989      2.593705491      2.714552421
C       3.320633392      2.822157728      2.565073550
H       1.229653460      2.826568639      2.191818945
H       1.498554528      1.525925136      2.910491996
H       4.004254399      3.116383021      3.504329499
H       3.705389637      1.911766473      2.397565349
           6
  t=       106.00000    1    1
C       2.025607704      2.608961413      2.715977122
C       3.331915014      2.839192086      2.586186980
H       1.208839008      2.830886922      2.231037959
H       1.491283549      1.510065149      2.971000427
H       4.000579910      3.090887397      3.483295827
H       3.732305311      1.921117287      2.407389465
           6
  t=       106.50000    1    1
C       2.044139341      2.623151035      2.717758031
C       3.343842984      2.856290034      2.608032247
H       1.177551571      2.845979552      2.266266784
H       1.491048547      1.497734173      3.029252260
H       3.994955697      3.070965478      3.457199184
H       3.763579758      1.922538986      2.415558538
           6
  t=       107.00000    1    1
C       2.061775741      2.636287727      2.719799979
C       3.356381876      2.873170923      2.630274111
H       1.139408640      2.870473795      2.299619402
H       1.497942234      1.489576111      3.084456052
H       3.989811505      3.058189969      3.429498490
H       3.797488774      1.918372534      2.422419753
           6
  t=       107.50000    1    1
C       2.078149240      2.648413839      2.722001448
C       3.369397119      2.889541516      2.652492561
H       1.098823869      2.902925496      2.333109486
H       1.511935513      1.486000648      3.135949908
H       3.988457124      3.054112768      3.404562970
H       3.832322521      1.911089969      2.428466455
           6
  t=       108.00000    1    1
C       2.092942602      2.659580842      2.724301430
C       3.382643971      2.905130353      2.674216404
H       1.060022693      2.942073231      2.368137546
H       1.533007229      1.487234681      3.183192167
H       3.994888867      3.060163142      3.387305740
H       3.866576727      1.902917897      2.434268200
           6
  t=       108.50000    1    1
C       2.105947079      2.669847427      2.726700081
C       3.395825268      2.919711074      2.695015229
H       1.026372365      2.986818936      2.405416284
H       1.561120539      1.493423444      3.225631374
H       4.012990847      3.077511288      3.382090228
H       3.899065152      1.895636812      2.440427112
           6
  t=       109.00000    1    1
C       2.117058584      2.679279985      2.729250578
C       3.408732422      2.933118166      2.714649544
H       1.000381167      3.035902906      2.445273649
H       1.596056644      1.504960179      3.262523482
H       4.045015181      3.106863290      3.391013242
H       3.928971952      1.890588209      2.447482549
           6
  t=       109.50000    1    1
C       2.126256348      2.687947654      2.732032128
C       3.421384054      2.945264269      2.733182572
H       0.983812547      3.087989442      2.487859318
H       1.637369414      1.522388368      3.292969385
H       4.090204868      3.148218986      3.412628495
H       3.955762368      1.888781601      2.455933052
           6
  t=       110.00000    1    1
C       2.133594766      2.695920366      2.735125933
C       3.434006556      2.956143719      2.750920651
H       0.977748289      3.141927559      2.533134581
H       1.684487813      1.546125789      3.316152862
H       4.145068619      3.200701441      3.442709324
H       3.979071217      1.891061302      2.466242461
           6
  t=       110.50000    1    1
C       2.139202834      2.703271241      2.738613440
C       3.446912633      2.965824951      2.768256852
H       0.982732030      3.196769867      2.580861257
H       1.736759508      1.576387754      3.331453548
H       4.204729480      3.262563496      3.476032918
H       3.998620940      1.898219879      2.478837890
           6
  t=       111.00000    1    1
C       2.143271148      2.710093038      2.742578593
C       3.460393688      2.974425307      2.785543664
H       0.998909593      3.251664252      2.630675855
H       1.793412560      1.613134848      3.338435138
H       4.264245000      3.331552158      3.507842062
H       4.014236794      1.910898321      2.494075994
           6
  t=       111.50000    1    1
C       2.146043774      2.716512903      2.747104131
C       3.474627585      2.982084623      2.803003568
H       1.026091072      3.305798053      2.682112447
H       1.853489308      1.655941189      3.336947541
H       4.319728961      3.405343632      3.534861998
H       4.025924942      1.929477708      2.512210597
           6
  t=       112.00000    1    1
C       2.147783063      2.722703591      2.752248874
C       3.489680489      2.988943315      2.820754546
H       1.063868996      3.358409526      2.734713702
H       1.915886196      1.703874340      3.327147025
H       4.368507515      3.481901778      3.555139314
H       4.033955828      1.953956721      2.533389505
           6
  t=       112.50000    1    1
C       2.148782786      2.728911068      2.758029276
C       3.505520987      2.995158567      2.838856396
H       1.111555659      3.408782080      2.788002366
H       1.979296037      1.755165468      3.309727906
H       4.408816379      3.559438492      3.567585519
H       4.038962419      1.983805048      2.557575535
           6
  t=       113.00000    1    1
C       2.149365320      2.735467567      2.764409417
C       3.522044543      3.000908409      2.857338169
H       1.168198702      3.456230047      2.841478050
H       2.042173397      1.806967075      3.286046495
H       4.439586588      3.636366971      3.571633823
H       4.041915757      2.018062597      2.584561396
           6
  t=       113.50000    1    1
C       2.149866203      2.742806943      2.771272981
C       3.539091002      3.006391583      2.876216596
H       1.232634016      3.500145282      2.894704758
H       2.102919185      1.854986147      3.258234834
H       4.460388306      3.711376769      3.567070939
H       4.043919073      2.055403101      2.614050967
           6
  t=       114.00000    1    1
C       2.150611456      2.751467387      2.778423319
C       3.556453472      3.011846869      2.895504286
H       1.303523288      3.540012014      2.947287622
H       2.160216289      1.893404470      3.229281565
H       4.471227432      3.783339476      3.553980010
H       4.046202403      2.094030831      2.645560273
           6
  t=       114.50000    1    1
C       2.151899985      2.761998862      2.785649684
C       3.573865733      3.017575200      2.915221198
H       1.379306125      3.575509362      2.998853375
H       2.213372726      1.916088011      3.202431243
H       4.472186549      3.851095983      3.532633725
H       4.050546029      2.131420814      2.678218729
           6
  t=       115.00000    1    1
C       2.154008125      2.774753413      2.792830116
C       3.591011718      3.023955978      2.935391271
H       1.458111430      3.606799359      3.049153839
H       2.262114210      1.918687977      3.179900237
H       4.463375064      3.913454418      3.503446696
H       4.059459384      2.164236010      2.710811499
           6
  t=       115.50000    1    1
C       2.157224216      2.789690368      2.800008154
C       3.607598109      3.031406957      2.956023382
H       1.537804458      3.634570695      3.098155812
H       2.306021177      1.900751330      3.161788785
H       4.444894962      3.969233873      3.466942465
H       4.075454124      2.188928464      2.742123443
           6
  t=       116.00000    1    1
C       2.161879198      2.806357626      2.807360976
C       3.623393029      3.040244016      2.977090467
H       1.616133429      3.659889857      3.146076308
H       2.344253125      1.866345876      3.146258401
H       4.417017144      4.017437187      3.423776428
H       4.100171205      2.202984249      2.771331929
           6
  t=       116.50000    1    1
C       2.168322855      2.824090382      2.815083940
C       3.638244132      3.050561079      2.998505594
H       1.691024409      3.683917402      3.193326185
H       2.375553627      1.822105619      3.130989006
H       4.380361224      4.057372676      3.374796978
H       4.133968754      2.206102893      2.798205801
           6
  t=       117.00000    1    1
C       2.176873080      2.842243146      2.823310118
C       3.652069027      3.062219207      3.020120844
H       1.760885616      3.707622679      3.240386470
H       2.398606631      1.774630935      3.114317775
H       4.335962343      4.088663474      3.321020660
H       4.175913325      2.200438574      2.823087237
           6
  t=       117.50000    1    1
C       2.187805354      2.860308538      2.832106999
C       3.664800396      3.074958255      3.041798509
H       1.824884220      3.731622233      3.287651931
H       2.412126358      1.728800905      3.095287277
H       4.285253609      4.111183394      3.263247350
H       4.224210007      2.189767394      2.846575731
           6
  t=       118.00000    1    1
C       2.201374521      2.877867439      2.841523120
C       3.676319643      3.088515002      3.063453993
H       1.882908508      3.756311583      3.335139251
H       2.414679422      1.687886064      3.073408205
H       4.230174717      4.124738382      3.202045239
H       4.276840711      2.178747907      2.869005391
           6
  t=       118.50000    1    1
C       2.217650348      2.894718007      2.851653847
C       3.686690058      3.102352637      3.084637221
H       1.933132215      3.781348890      3.382541579
H       2.405910741      1.655321716      3.049438189
H       4.173120928      4.130200711      3.139985374
H       4.332006070      2.172215924      2.891580955
           6
  t=       119.00000    1    1
C       2.236564347      2.910775137      2.862537146
C       3.696014058      3.115888143      3.105021319
H       1.974549766      3.805445256      3.429540000
H       2.386107320      1.634309796      3.024244863
H       4.116380292      4.129733431      3.078930006
H       4.387732317      2.174056487      2.915334028
           6
  t=       119.50000    1    1
C       2.257891737      2.926002250      2.874168260
C       3.704455946      3.128624459      3.124460729
H       2.007103864      3.827088897      3.475565509
H       2.356435753      1.627353397      2.998655809
H       4.061799130      4.126581223      3.019897909
H       4.441784467      2.186392277      2.940778328
           6
  t=       120.00000    1    1
C       2.281316252      2.940426805      2.886567432
C       3.712192566      3.140330993      3.142974831
H       2.031640779      3.845396568      3.519822251
H       2.318547649      1.634464333      2.972782318
H       4.010464402      4.124526070      2.962856828
H       4.492238977      2.208733215      2.968158571
           6
  t=       120.50000    1    1
C       2.306537143      2.954056784      2.899785145
C       3.719374120      3.150927128      3.160596246
H       2.049011369      3.859756687      3.561369506
H       2.273806604      1.655219794      2.946659124
H       3.963170453      4.126331377      2.907584368
H       4.537880926      2.240215780      2.997612863
           6
  t=       121.00000    1    1
C       2.333251273      2.966895223      2.913868419
C       3.726187615      3.160456059      3.177337492
H       2.059955365      3.869730939      3.599242771
H       2.223544154      1.689221641      2.920478343
H       3.920093640      4.133175514      2.854090408
H       4.577846473      2.279947186      3.029194310
           6
  t=       121.50000    1    1
C       2.361127948      2.978966553      2.928834442
C       3.732848124      3.169091239      3.193204904
H       2.065303765      3.875177506      3.632516303
H       2.169234793      1.735686917      2.894579262
H       3.880885985      4.144684475      2.802833147
H       4.611555787      2.326868294      3.062750867
           6
  t=       122.00000    1    1
C       2.389806072      2.990306155      2.944678487
C       3.739574299      3.177096840      3.208200843
H       2.065938149      3.876120946      3.660349532
H       2.112361277      1.793505833      2.869311883
H       3.845217783      4.159495557      2.754643149
H       4.638671555      2.379857669      3.097970711
           6
  t=       122.50000    1    1
C       2.418900835      3.000963775      2.961366832
C       3.746554456      3.184776804      3.222336470
H       2.062805820      3.872724019      3.682045392
H       2.054342537      1.861177787      2.845067752
H       3.813066000      4.175946972      2.710597426
H       4.659191938      2.437700483      3.134351211
           6
  t=       123.00000    1    1
C       2.448022341      3.011005494      2.978842821
C       3.753940360      3.192432465      3.235630979
H       2.056827001      3.865196824      3.697073726
H       1.996404394      1.936953738      2.822270828
H       3.784684284      4.192523795      2.671837482
H       4.673554733      2.499072635      3.171303435
           6
  t=       123.50000    1    1
C       2.476795209      3.020519812      2.997026795
C       3.761841132      3.200339084      3.248117277
H       2.048839657      3.853904452      3.705125470
H       1.939567407      2.018854876      2.801329788
H       3.760360281      4.208037160      2.639424457
H       4.682786458      2.562442232      3.208223688
           6
  t=       124.00000    1    1
C       2.504855301      3.029597911      3.015829217
C       3.770333431      3.208745360      3.259836259
H       2.039543981      3.839483709      3.706090424
H       1.884707694      2.104797336      2.782546807
H       3.740321905      4.221646272      2.614304616
H       4.688508361      2.626047212      3.244553354
           6
  t=       124.50000    1    1
C       2.531836197      3.038302977      3.035157473
C       3.779475573      3.217878933      3.270839241
H       2.029450785      3.822951291      3.700084724
H       1.832630916      2.192714626      2.766046485
H       3.724762329      4.232887918      2.597235247
H       4.692882088      2.687935229      3.279786492
           6
  t=       125.00000    1    1
C       2.557363528      3.046641310      3.054913582
C       3.789322432      3.227941287      3.281193150
H       2.018867470      3.805712511      3.687507500
H       1.784095029      2.280702794      2.751777408
H       3.713875077      4.241777666      2.588656852
H       4.698455735      2.746113436      3.313504938
           6
  t=       125.50000    1    1
C       2.581038013      3.054545416      3.074981558
C       3.799940884      3.239114068      3.290961315
H       2.007990888      3.789551927      3.669113523
H       1.739884317      2.367020276      2.739612634
H       3.707972165      4.248740553      2.588795504
H       4.707896998      2.798753633      3.345482200
           6
  t=       126.00000    1    1
C       2.602488691      3.061906952      3.095223957
C       3.811413730      3.251524711      3.300205547
H       1.996902722      3.776551119      3.645950548
H       1.700831268      2.450044086      2.729434956
H       3.707317721      4.254426907      2.597713041
H       4.723461198      2.844519370      3.375627146
           6
  t=       126.50000    1    1
C       2.621380423      3.068600874      3.115494732
C       3.823865540      3.265248949      3.308973610
H       1.985606783      3.768664431      3.619164551
H       1.667815888      2.528414677      2.721258050
H       3.712195659      4.259496995      2.615369204
H       4.746489670      2.882743181      3.403991448
           6
  t=       127.00000    1    1
C       2.637494291      3.074518426      3.135658058
C       3.837438503      3.280292620      3.317309771
H       1.974136989      3.767578735      3.589836311
H       1.641537952      2.600957852      2.715188973
H       3.722784819      4.264603907      2.641591539
H       4.776984162      2.913485620      3.430650735
           6
  t=       127.50000    1    1
C       2.650749322      3.079589570      3.155607426
C       3.852264740      3.296594914      3.325256641
H       1.962623038      3.774586502      3.558870527
H       1.622479732      2.666683671      2.711376521
H       3.739135795      4.270370020      2.676056700
H       4.813672629      2.937380945      3.455636237
           6
  t=       128.00000    1    1
C       2.661182621      3.083800524      3.175275075
C       3.868431173      3.314035993      3.332861315
H       1.951471752      3.790622796      3.526979203
H       1.610969867      2.724600913      2.709919081
H       3.761199333      4.277505594      2.718276261
H       4.854391025      2.955367201      3.478872228
           6
  t=       128.50000    1    1
C       2.668920682      3.087210432      3.194632174
C       3.885947780      3.332439463      3.340181676
H       1.941511998      3.816068822      3.494652183
H       1.607235245      2.773745820      2.710874044
H       3.788878332      4.286921962      2.767528255
H       4.896554535      2.968512744      3.500187281
           6
  t=       129.00000    1    1
C       2.674148259      3.089956047      3.213677328
C       3.904739004      3.351577770      3.347291117
H       1.933969775      3.850551973      3.462121506
H       1.611405935      2.813313867      2.714343397
H       3.822048912      4.299817791      2.822844855
H       4.937629801      2.977877980      3.519357277
           6
  t=       129.50000    1    1
C       2.677094733      3.092239774      3.232419854
C       3.924652678      3.371180628      3.354274462
H       1.930267389      3.893001867      3.429478674
H       1.623449446      2.842726496      2.720468691
H       3.860538994      4.317689235      2.883066521
H       4.975479030      2.984424552      3.536186951
           6
  t=       130.00000    1    1
C       2.678044105      3.094307738      3.250866676
C       3.945476397      3.390952089      3.361212901
H       1.931703197      3.941892704      3.396878122
H       1.643077569      2.861651726      2.729343070
H       3.904097231      4.342160857      2.946971041
H       5.008490337      2.988979339      3.550601013
           6
  t=       130.50000    1    1
C       2.677351292      3.096425601      3.269020477
C       3.966954263      3.410607701      3.368163886
H       1.939194070      3.995465434      3.364650986
H       1.669634441      2.870043058      2.740905420
H       3.952384426      4.374572073      3.013473928
H       5.035561997      2.992232373      3.562697376
           6
  t=       131.00000    1    1
C       2.675425038      3.098865560      3.286880895
C       3.988816219      3.429935799      3.375148034
H       1.953271838      4.051873454      3.333229458
H       1.702096646      2.868088237      2.754929027
H       4.004889200      4.415351854      3.081906979
H       5.056044435      2.994692264      3.572697383
           6
  t=       131.50000    1    1
C       2.672693725      3.101924259      3.304444848
C       4.010818176      3.448850148      3.382154612
H       1.974240888      4.109181573      3.303020045
H       1.739166353      2.856056092      2.771063279
H       4.060671880      4.463390675      3.152146848
H       5.069674815      2.996627725      3.580833143
           6
  t=       132.00000    1    1
C       2.669575818      3.105930176      3.321724154
C       4.032773274      3.467391975      3.389165083
H       2.002170739      4.165231190      3.274431796
H       1.779286310      2.834210301      2.788702903
H       4.118416721      4.516157041      3.224279533
H       5.076496850      2.998059913      3.587294928
           6
  t=       132.50000    1    1
C       2.666452622      3.111220835      3.338756063
C       4.054547943      3.485688946      3.396177313
H       2.036837311      4.217712718      3.247880635
H       1.820630969      2.802583644      2.806927556
H       4.176944973      4.570574647      3.298300607
H       5.076787021      2.998798870      3.592173140
           6
  t=       133.00000    1    1
C       2.663670658      3.118126541      3.355591371
C       4.076039879      3.503898616      3.403214120
H       2.077615755      4.264375889      3.223847023
H       1.861306275      2.760963542      2.824584366
H       4.235331043      4.623582269      3.373932977
H       5.071079787      2.998555488      3.595540133
           6
  t=       133.50000    1    1
C       2.661525490      3.126956227      3.372255614
C       4.097154303      3.522160964      3.410321207
H       2.123519973      4.303182056      3.202828967
H       1.899897587      2.709098911      2.840739866
H       4.292751192      4.672448308      3.450649202
H       5.060207160      2.997002010      3.597509949
           6
  t=       134.00000    1    1
C       2.660229697      3.137968837      3.388712441
C       4.117787619      3.540574992      3.417556267
H       2.173342241      4.332415762      3.185310625
H       1.935996003      2.647037337      2.855145821
H       4.348366337      4.714914303      3.527772917
H       5.045326237      2.993799597      3.598268713
           6
  t=       134.50000    1    1
C       2.659897124      3.151324324      3.404845804
C       4.137814574      3.559193341      3.424968944
H       2.225742483      4.350769792      3.171728085
H       1.970438040      2.575625038      2.868545720
H       4.401326192      4.749228502      3.604610299
H       5.027926794      2.988627799      3.598121952
           6
  t=       135.00000    1    1
C       2.660562215      3.167046810      3.420473467
C       4.157086162      3.578025108      3.432581700
H       2.279179510      4.357066814      3.162448870
H       2.005173549      2.497194758      2.882630210
H       4.450883526      4.774113654      3.680510231
H       5.009712467      2.981212615      3.597566378
           6
  t=       135.50000    1    1
C       2.662270205      3.185036621      3.435400348
C       4.175410517      3.597030949      3.440384557
H       2.331943206      4.350807915      3.157925373
H       2.042424329      2.414934385      2.899299839
H       4.496463403      4.788725725      3.754809840
H       4.992493743      2.971365634      3.597355403
           6
  t=       136.00000    1    1
C       2.665162659      3.205020620      3.449508161
C       4.192548080      3.616147177      3.448402080
H       2.382223673      4.333104662      3.158346531
H       2.083585105      2.332161104      2.919740490
H       4.537749065      4.792759816      3.826594288
H       4.978170208      2.958976449      3.598145752
           6
  t=       136.50000    1    1
C       2.669449015      3.226590947      3.462732446
C       4.208300170      3.635263867      3.456732330
H       2.427924371      4.306281673      3.163395401
H       2.129272791      2.252277510      2.944679965
H       4.574708600      4.786374615      3.894813503
H       4.968125216      2.944328923      3.600176285
           6
  t=       137.00000    1    1
C       2.675350925      3.249203485      3.475068057
C       4.222576162      3.654240257      3.465561113
H       2.466752143      4.273824396      3.172010368
H       2.179604123      2.178671996      2.974546072
H       4.607521376      4.770191247      3.958379667
H       4.962794545      2.928088905      3.603015938
           6
  t=       137.50000    1    1
C       2.683069120      3.272236951      3.486584173
C       4.235405990      3.672927029      3.475101364
H       2.496541983      4.240161115      3.182457811
H       2.234340255      2.114217298      3.009486596
H       4.636420727      4.745167716      4.016395836
H       4.961600197      2.911179584      3.605785901
           6
  t=       138.00000    1    1
C       2.692772980      3.294992722      3.497433918
C       4.246923721      3.691180761      3.485526919
H       2.515276364      4.210820865      3.192420469
H       2.293014841      2.061198542      3.049417134
H       4.661583299      4.712433242      4.068253630
H       4.963233623      2.894691131      3.607600280
           6
  t=       138.50000    1    1
C       2.704589757      3.316748191      3.507839927
C       4.257340537      3.708871580      3.496936800
H       2.521065154      4.191991527      3.199267048
H       2.354943303      2.021210088      3.094013594
H       4.683114312      4.673281989      4.113676826
H       4.966131634      2.879704992      3.607857916
           6
  t=       139.00000    1    1
C       2.718614008      3.336896097      3.518047467
C       4.266879038      3.725886277      3.509355501
H       2.512304300      4.189093715      3.200581487
H       2.419306731      1.995147628      3.142739344
H       4.701015578      4.629147203      4.152685206
H       4.968936240      2.867056513      3.606277346
           6
  t=       139.50000    1    1
C       2.734906976      3.355158198      3.528215614
C       4.275685989      3.742092180      3.522762083
H       2.488350445      4.204168570      3.195258901
H       2.485240080      1.983414751      3.194914589
H       4.715377206      4.581733589      4.185498894
H       4.970587181      2.857492594      3.602777118
           6
  t=       140.00000    1    1
C       2.753426135      3.371683595      3.538343811
C       4.283818258      3.757347770      3.537083555
H       2.450222900      4.234365707      3.184229406
H       2.551924839      1.986199135      3.249832203
H       4.726546727      4.533045533      4.212686081
H       4.970365231      2.851581188      3.597442432
           6
  t=       140.50000    1    1
C       2.774035500      3.386883079      3.548299170
C       4.291247492      3.771491693      3.552197029
H       2.400224021      4.273734745      3.169869516
H       2.618595874      2.003813424      3.306871155
H       4.735296027      4.485371596      4.235339349
H       4.967919492      2.849699253      3.590472967
           6
  t=       141.00000    1    1
C       2.796499397      3.401224795      3.557912883
C       4.297906479      3.784369296      3.567916760
H       2.341566702      4.315763244      3.155009609
H       2.684469296      2.036334165      3.365357141
H       4.742938289      4.441311004      4.255214905
H       4.963116850      2.851948017      3.582181176
           6
  t=       141.50000    1    1
C       2.820528006      3.415111811      3.567046497
C       4.303705945      3.795861477      3.584018254
H       2.277976651      4.354986361      3.142201809
H       2.748644081      2.083313215      3.424530138
H       4.751137891      4.403551320      4.274541999
H       4.955985417      2.858169242      3.572870473
           6
  t=       142.00000    1    1
C       2.845842859      3.428844983      3.575627371
C       4.308561025      3.805907487      3.600284181
H       2.212987300      4.387696662      3.133321560
H       2.810167576      2.143700637      3.483549272
H       4.761467209      4.374403386      4.295493245
H       4.946701393      2.867948418      3.562788867
           6
  t=       142.50000    1    1
C       2.872195132      3.442656803      3.583636376
C       4.312437928      3.814518320      3.616557445
H       2.149446463      4.411679676      3.129595709
H       2.868137386      2.215930232      3.541558589
H       4.775015284      4.355381560      4.319614379
H       4.935597856      2.880650547      3.552119564
           6
  t=       143.00000    1    1
C       2.899354908      3.456763800      3.591089438
C       4.315372211      3.821798543      3.632770515
H       2.089594588      4.425766400      3.131788306
H       2.921629099      2.297621127      3.597712876
H       4.792211769      4.347015188      4.347429136
H       4.923245055      2.895470108      3.541034927
           6
  t=       143.50000    1    1
C       2.927096749      3.471423894      3.598020667
C       4.317469990      3.827955730      3.648943709
H       2.035229484      4.429459488      3.140344526
H       2.969768267      2.385160709      3.651267923
H       4.812820005      4.348817939      4.378361781
H       4.910378094      2.911456691      3.529761152
           6
  t=       144.00000    1    1
C       2.955189583      3.487007123      3.604463447
C       4.318904245      3.833275791      3.665162825
H       1.987724487      4.422784069      3.155424919
H       3.012090152      2.473097233      3.701805366
H       4.836004033      4.359495842      4.410995539
H       4.897616535      2.927514837      3.518552696
           6
  t=       144.50000    1    1
C       2.983362963      3.504066431      3.610416588
C       4.319910910      3.838092318      3.681553342
H       1.948182690      4.406119765      3.176983349
H       3.048503375      2.553363812      3.749574128
H       4.860502610      4.377310521      4.443414289
H       4.885621143      2.942506505      3.507641912
           6
  t=       145.00000    1    1
C       3.011281698      3.523277337      3.615811687
C       4.320780447      3.842756363      3.698254369
H       1.917524030      4.380193767      3.204813799
H       3.078915213      2.615738676      3.795794945
H       4.885021556      4.400471828      4.473529102
H       4.875391877      2.955484147      3.497260505
           6
  t=       145.50000    1    1
C       3.038559858      3.545139888      3.620517712
C       4.321820523      3.847566523      3.715385480
H       1.896539306      4.345932032      3.238626345
H       3.103476468      2.651917277      3.842413567
H       4.908606168      4.427432984      4.499595469
H       4.867874388      2.965856743      3.487633691
           6
  t=       146.00000    1    1
C       3.064781836      3.569585772      3.624443729
C       4.323392292      3.852759347      3.733036797
H       1.886017033      4.304311173      3.278217812
H       3.122201413      2.660297081      3.890595305
H       4.930585790      4.457011543      4.520312622
H       4.863585390      2.973428010      3.479109769
           6
  t=       146.50000    1    1
C       3.089542356      3.595924790      3.627660309
C       4.325898800      3.858489534      3.751271090
H       1.886621111      4.256456202      3.323347333
H       3.134925557      2.646739947      3.939487282
H       4.950367570      4.488258095      4.534727368
H       4.862644888      2.978541306      3.472146817
           6
  t=       147.00000    1    1
C       3.112448343      3.623208591      3.630369921
C       4.329758085      3.864836254      3.770131093
H       1.898735843      4.203714148      3.373631465
H       3.141726499      2.620259999      3.986706920
H       4.967383606      4.520345967      4.542127496
H       4.864861440      2.982019050      3.467301322
           6
  t=       147.50000    1    1
C       3.133111226      3.650578090      3.632801607
C       4.335379959      3.871833872      3.789647688
H       1.922457024      4.147625901      3.428518715
H       3.143074718      2.588814731      4.029634468
H       4.981147044      4.552537348      4.541987665
H       4.869902530      2.984927768      3.465172696
           6
  t=       148.00000    1    1
C       3.151188161      3.677389334      3.635147061
C       4.343122938      3.879495469      3.809839454
H       1.957549256      4.089878686      3.487282779
H       3.139671211      2.557803699      4.066249325
H       4.991336222      4.584202445      4.534021857
H       4.877437471      2.988327719      3.466288335
           6
  t=       148.50000    1    1
C       3.166454782      3.703222471      3.637548512
C       4.353228800      3.887824010      3.830702343
H       2.003422994      4.032183168      3.549059179
H       3.132238758      2.530150890      4.095373801
H       4.997855551      4.614856982      4.518267035
H       4.887221148      2.993036021      3.471006884
           6
  t=       149.00000    1    1
C       3.178904136      3.727816586      3.640132155
C       4.365753305      3.896792054      3.852189003
H       2.058748005      3.976231959      3.612868785
H       3.121482422      2.507381896      4.116447727
H       5.000850138      4.644205497      4.495155141
H       4.899152046      2.999565909      3.479496283
           6
  t=       149.50000    1    1
C       3.188808506      3.751010352      3.643024543
C       4.380572433      3.906326610      3.874197492
H       2.120681908      3.923747135      3.677704019
H       3.108087347      2.490288979      4.129337220
H       5.000700761      4.672205667      4.465510295
H       4.913239980      3.008237399      3.491780569
           6
  t=       150.00000    1    1
C       3.196725359      3.772707338      3.646333341
C       4.397413980      3.916304912      3.896576537
H       2.184240047      3.876590394      3.742771165
H       3.092921484      2.479078778      4.134232751
H       4.998085573      4.699201228      4.430507073
H       4.929524393      3.019250307      3.507808052
           6
  t=       150.50000    1    1
C       3.203422620      3.792859680      3.650108872
C       4.415910267      3.926558392      3.919145596
H       2.242449413      3.836695329      3.807910911
H       3.077135224      2.473429413      4.131535096
H       4.993982589      4.726025381      4.391558141
H       4.948080682      3.032738669      3.527476251
           6
  t=       151.00000    1    1
C       3.209724520      3.811467036      3.654324003
C       4.435672221      3.936906121      3.941716888
H       2.287932399      3.805283332      3.873994447
H       3.061658684      2.472953559      4.121630643
H       4.989553030      4.753982965      4.350170566
H       4.969009943      3.048723527      3.550581353
           6
  t=       151.50000    1    1
C       3.216284077      3.828573012      3.658901784
C       4.456324527      3.947191893      3.964111264
H       2.315425797      3.782614999      3.942611411
H       3.047182279      2.477433765      4.104810519
H       4.985972457      4.784590303      4.307791847
H       4.992400361      3.066987112      3.576846721
           6
  t=       152.00000    1    1
C       3.223355858      3.844227884      3.663818698
C       4.477530027      3.957308450      3.986169693
H       2.324215005      3.768486965      4.014781283
H       3.034314858      2.486888276      4.081343434
H       4.984203365      4.819140041      4.265655693
H       5.018379341      3.087100902      3.605925588
           6
  t=       152.50000    1    1
C       3.230791284      3.858458889      3.669204201
C       4.498998744      3.967213868      4.007755590
H       2.318143254      3.762830118      4.089703973
H       3.023637266      2.501462462      4.051622802
H       4.984806360      4.858281944      4.224692310
H       5.047187858      3.108513840      3.637379405
           6
  t=       153.00000    1    1
C       3.238261065      3.871267631      3.675289527
C       4.520504815      3.976950677      4.028780861
H       2.303046378      3.765638716      4.165285754
H       3.015613902      2.521506549      4.015966235
H       4.987847664      4.901814819      4.185351064
H       5.079074513      3.130556784      3.670829303
           6
  t=       153.50000    1    1
C       3.245446345      3.882616262      3.682309515
C       4.541887253      3.986671480      4.049227916
H       2.284595581      3.776992069      4.239430695
H       3.010665442      2.547511509      3.974157177
H       4.992905315      4.948659526      4.147470882
H       5.114087037      3.152371215      3.706160170
           6
  t=       154.00000    1    1
C       3.252103042      3.892449583      3.690470490
C       4.563050122      3.996621100      4.069092805
H       2.267353548      3.796999093      4.310145018
H       3.009088273      2.579858230      3.926048356
H       4.999222311      4.996818149      4.110955668
H       5.152174885      3.173205714      3.743197730
           6
  t=       154.50000    1    1
C       3.258063626      3.900647221      3.699978263
C       4.583929970      4.007078871      4.088339036
H       2.254589696      3.825984559      4.375711461
H       3.011136763      2.619123511      3.871280154
H       5.006082572      5.043978915      4.075963139
H       5.193282678      3.192576376      3.781843574
           6
  t=       155.00000    1    1
C       3.263254606      3.907105717      3.710955141
C       4.604494958      4.018279069      4.106929837
H       2.248257632      3.864056200      4.435116418
H       3.017010622      2.665807581      3.809576744
H       5.012978712      5.088068105      4.042837229
H       5.237019545      3.210390181      3.822024015
           6
  t=       155.50000    1    1
C       3.267671544      3.911795686      3.723403110
C       4.624763252      4.030350005      4.124829718
H       2.249035657      3.911057171      4.487876032
H       3.026830667      2.719979724      3.741392182
H       5.019621040      5.127603170      4.012334248
H       5.282712502      3.227038476      3.863411759
           6
  t=       156.00000    1    1
C       3.271419956      3.914864615      3.737231623
C       4.644725254      4.043322310      4.141999613
H       2.257066128      3.966267750      4.533557575
H       3.040264584      2.780639512      3.668284164
H       5.025764691      5.161515645      3.985555372
H       5.329653427      3.243187475      3.905325065
           6
  t=       156.50000    1    1
C       3.274724641      3.916675349      3.752328699
C       4.664318280      4.057180038      4.158416859
H       2.272588888      4.028162915      4.571733109
H       3.056186033      2.845371125      3.592034061
H       5.031145172      5.188967263      3.963327371
H       5.377061614      3.259482739      3.947188143
           6
  t=       157.00000    1    1
C       3.277827119      3.917680577      3.768630453
C       4.683487487      4.071880166      4.174074931
H       2.295864619      4.095085267      4.601977820
H       3.073204202      2.910890970      3.513758019
H       5.035548314      5.209423850      3.946166551
H       5.424056950      3.276518010      3.988632321
           6
  t=       157.50000    1    1
C       3.280942691      3.918345672      3.786135768
C       4.702204523      4.087361175      4.188983928
H       2.327059071      4.165519227      4.623931867
H       3.089942654      2.973584675      3.433637852
H       5.038851924      5.222655049      3.934404957
H       5.469744729      3.294841389      4.029396563
           6
  t=       158.00000    1    1
C       3.284261490      3.919091536      3.804879312
C       4.720465699      4.103542096      4.203165242
H       2.366134545      4.237946097      4.637308320
H       3.105078426      3.030343995      3.351244155
H       5.041040513      5.228737489      3.928300845
H       5.513279479      3.314952655      4.069270942
           6
  t=       158.50000    1    1
C       3.287948074      3.920193811      3.824874991
C       4.738274618      4.120317219      4.216644996
H       2.412764481      4.310788965      4.641895118
H       3.117598752      3.079853452      3.266295717
H       5.042243528      5.228131225      3.928035507
H       5.553867316      3.337259289      4.108090459
           6
  t=       159.00000    1    1
C       3.292134965      3.921711702      3.846032138
C       4.755625754      4.137546824      4.229454256
H       2.466238459      4.382674132      4.637719738
H       3.127160105      3.123228668      3.179570920
H       5.042713237      5.221803549      3.933656098
H       5.590796695      3.362011478      4.145712310
           6
  t=       159.50000    1    1
C       3.296943878      3.923548285      3.868124568
C       4.772485304      4.155056637      4.241623691
H       2.525480201      4.452589694      4.625174210
H       3.133997428      3.163159667      3.093215673
H       5.042810440      5.211227752      3.945033969
H       5.623500614      3.389289315      4.182056886
           6
  t=       160.00000    1    1
C       3.302502265      3.925557760      3.890824936
C       4.788795466      4.172639112      4.253187678
H       2.589061288      4.519952030      4.605030581
H       3.138582609      3.202522744      3.010277447
H       5.043026410      5.198406456      3.961862165
H       5.651614401      3.419007860      4.217102555
           6
  t=       160.50000    1    1
C       3.308944680      3.927611440      3.913781024
C       4.804480890      4.190053681      4.264190587
H       2.655265826      4.584662426      4.578357495
H       3.141439428      3.243522643      2.933865063
H       5.043986537      5.185888968      3.983619329
H       5.674999320      3.450911696      4.250861432
           6
  t=       161.00000    1    1
C       3.316400376      3.929615819      3.936677237
C       4.819450298      4.207022410      4.274686898
H       2.722260354      4.647121693      4.546381119
H       3.143118082      3.287510945      2.866562415
H       5.046403940      5.176736410      4.009560275
H       5.693773037      3.484613257      4.283379971
           6
  t=       161.50000    1    1
C       3.324984765      3.931515191      3.959268757
C       4.833596083      4.223241361      4.284733964
H       2.788345051      4.708112395      4.510292919
H       3.144160210      3.335098724      2.810195279
H       5.050977204      5.174315524      4.038810878
H       5.708302132      3.519637589      4.314748842
           6
  t=       162.00000    1    1
C       3.334786226      3.933295599      3.981378777
C       4.846806605      4.238433553      4.294385262
H       2.852193554      4.768503602      4.471059584
H       3.145057071      3.386357078      2.765959334
H       5.058225603      5.181769600      4.070578121
H       5.719179610      3.555367937      4.345068267
           6
  t=       162.50000    1    1
C       3.345847866      3.935005514      4.002878741
C       4.858989645      4.252437352      4.303683614
H       2.913019001      4.828797257      4.429295866
H       3.146233064      3.440978967      2.734673275
H       5.068268402      5.201078142      4.104389060
H       5.727233868      3.590978301      4.374399299
           6
  t=       163.00000    1    1
C       3.358180249      3.936777922      4.023680190
C       4.870075088      4.265259321      4.312647254
H       2.970497950      4.888778217      4.385226967
H       3.148030037      3.498393569      2.716943256
H       5.080747692      5.232344657      4.140238574
H       5.733514003      3.625488331      4.402752508
           6
  t=       163.50000    1    1
C       3.371758774      3.938821321      4.043728924
C       4.880032021      4.277088621      4.321271567
H       3.024568034      4.947490535      4.338880817
H       3.150702660      3.557838342      2.713060124
H       5.094914685      5.273547082      4.178483244
H       5.739237979      3.657900212      4.430153333
           6
  t=       164.00000    1    1
C       3.386549278      3.941394426      4.062974244
C       4.888856407      4.288228595      4.329545896
H       3.075180587      5.003447870      4.290325968
H       3.154423752      3.618444704      2.723162907
H       5.109869888      5.321230151      4.219575381
H       5.745636329      3.687326826      4.456672987
           6
  t=       164.50000    1    1
C       3.402520494      3.944785051      4.081348038
C       4.896567854      4.299013628      4.337473861
H       3.122211098      5.054917036      4.239875886
H       3.159293336      3.679205278      2.747277834
H       5.124727056      5.371393570      4.263832771
H       5.753758704      3.713095104      4.482422472
           6
  t=       165.00000    1    1
C       3.419628496      3.949272938      4.098776753
C       4.903222615      4.309739420      4.345088004
H       3.165554894      5.100264079      4.188196109
H       3.165364832      3.738954853      2.785087416
H       5.138742767      5.420315791      4.311276022
H       5.764252895      3.734868978      4.507521776
           6
  t=       165.50000    1    1
C       3.437820363      3.955112299      4.115188172
C       4.908916778      4.320623186      4.352451606
H       3.205107912      5.138175686      4.136303404
H       3.172657171      3.796364867      2.835889264
H       5.151364258      5.465011997      4.361625402
H       5.777242430      3.752657767      4.532042765
           6
  t=       166.00000    1    1
C       3.457033724      3.962511226      4.130528004
C       4.913785550      4.331809313      4.359653403
H       3.240764482      5.167729603      4.085397902
H       3.181157706      3.850077342      2.898606862
H       5.162257729      5.503239879      4.414357080
H       5.792311537      3.766783987      4.555975173
           6
  t=       166.50000    1    1
C       3.477205679      3.971629393      4.144770156
C       4.917990826      4.343386489      4.366804280
H       3.272484106      5.188395548      4.036750413
H       3.190784469      3.898729038      2.971778569
H       5.171251669      5.533389457      4.468789004
H       5.808574604      3.777791764      4.579181577
           6
  t=       167.00000    1    1
C       3.498290837      3.982580181      4.157946804
C       4.921712541      4.355391675      4.374037655
H       3.300297741      5.200046652      3.991566422
H       3.201191629      3.940990445      3.053268303
H       5.178255600      5.554434898      4.524138461
H       5.824833792      3.786371847      4.601402096
           6
  t=       167.50000    1    1
C       3.520279129      3.995409385      4.170216612
C       4.925131842      4.367814822      4.381499877
H       3.324312922      5.203028875      3.950859676
H       3.211458510      3.975764440      3.139567868
H       5.183255019      5.565940685      4.579517675
H       5.839878255      3.793285002      4.622384536
           6
  t=       168.00000    1    1
C       3.543219815      4.010103111      4.181915366
C       4.928409636      4.380623675      4.389336395
H       3.344786940      5.198128648      3.915508159
H       3.219805994      4.002087187      3.225189641
H       5.186307664      5.567961253      4.634031369
H       5.852667771      3.799204091      4.641899548
           6
  t=       168.50000    1    1
C       3.567244650      4.026605805      4.193556062
C       4.931682143      4.393780250      4.397686755
H       3.362080776      5.186566977      3.886273709
H       3.223387185      4.018934749      3.302667266
H       5.187558576      5.560914586      4.686879089
H       5.862350137      3.804628631      4.659676652
           6
  t=       169.00000    1    1
C       3.592548475      4.044837750      4.205721512
C       4.935065305      4.407234380      4.406678897
H       3.376609339      5.169985845      3.863755220
H       3.218525303      4.025124169      3.363933317
H       5.187205126      5.545531080      4.737383725
H       5.868286641      3.809916826      4.675392377
           6
  t=       169.50000    1    1
C       3.619287491      4.064706641      4.218831985
C       4.938681256      4.420914867      4.416427524
H       3.388770817      5.150448427      3.848281317
H       3.201717260      4.019226878      3.403171076
H       5.185450038      5.522858699      4.785032266
H       5.870062923      3.815334409      4.688673299
           6
  t=       170.00000    1    1
C       3.647375102      4.086075293      4.232826621
C       4.942687425      4.434720475      4.427015190
H       3.398724239      5.130370543      3.839697618
H       3.171920767      4.000041157      3.420816961
H       5.182496947      5.494353190      4.829573220
H       5.867514591      3.821052453      4.699230347
           6
  t=       170.50000    1    1
C       3.676373153      4.108732315      4.247149021
C       4.947291607      4.448526084      4.438485018
H       3.406243820      5.112116167      3.837515169
H       3.131826040      3.967340744      3.423545801
H       5.178555976      5.461877141      4.871027684
H       5.860711982      3.827080387      4.706972616
           6
  t=       171.00000    1    1
C       3.705628401      4.132386812      4.261084988
C       4.952715150      4.462195849      4.450846743
H       3.410928829      5.097706621      3.841112210
H       3.086231282      3.922096802      3.419902410
H       5.173972906      5.427704144      4.909794403
H       5.850058156      3.833237068      4.711972413
           6
  t=       171.50000    1    1
C       3.734451700      4.156720073      4.274029376
C       4.959143132      4.475577190      4.464091158
H       3.412568772      5.088623137      3.849950159
H       3.039890109      3.866052608      3.416835048
H       5.169288339      5.394551083      4.946685877
H       5.836475705      3.839196844      4.714328006
           6
  t=       172.00000    1    1
C       3.762195138      4.181433678      4.285549877
C       4.966723763      4.488493425      4.478183515
H       3.411102439      5.085895028      3.863726642
H       2.996800060      3.801282129      3.418963188
H       5.165097322      5.365453911      4.982812371
H       5.821387536      3.844481639      4.714177305
           6
  t=       172.50000    1    1
C       3.788247473      4.206276971      4.295355981
C       4.975611418      4.500774410      4.493069434
H       3.406490885      5.089970650      3.882336044
H       2.960195375      3.730045126      3.429063162
H       5.161904231      5.343335812      5.019416509
H       5.806537850      3.848474251      4.711716590
           6
  t=       173.00000    1    1
C       3.812086953      4.231050522      4.303301883
C       4.985972893      4.512308022      4.508686150
H       3.398608628      5.100836601      3.905738446
H       2.932262099      3.654521299      3.448231897
H       5.160107773      5.330463991      5.057612234
H       5.793696939      3.850453570      4.707260143
           6
  t=       173.50000    1    1
C       3.833324335      4.255583487      4.309351560
C       4.997957300      4.523086562      4.524985238
H       3.387306367      5.118132872      3.933746805
H       2.914259778      3.576816354      3.476559912
H       5.159962777      5.327957627      5.098119893
H       5.784361035      3.849682170      4.701190414
           6
  t=       174.00000    1    1
C       3.851737147      4.279714965      4.313551624
C       5.011661072      4.533218771      4.541942925
H       3.372316907      5.141256776      3.965945871
H       2.906801746      3.499071546      3.513625889
H       5.161576611      5.335628381      5.141047512
H       5.779578475      3.845431325      4.693963775
           6
  t=       174.50000    1    1
C       3.867243171      4.303339612      4.315981396
C       5.027122487      4.542889437      4.559588704
H       3.353535440      5.169096459      4.001898381
H       2.910002048      3.423310173      3.558779687
H       5.164962993      5.352064666      5.185811955
H       5.779849866      3.837254571      4.685954198
           6
  t=       175.00000    1    1
C       3.879862494      4.326407590      4.316737041
C       5.044308817      4.552294948      4.577991833
H       3.331169798      5.200032050      4.041143833
H       2.923865398      3.351577889      3.611416465
H       5.170131827      5.375016374      5.231297573
H       5.785103409      3.825229992      4.677371543
           6
  t=       175.50000    1    1
C       3.889705109      4.348901516      4.315942118
C       5.063104567      4.561591165      4.597218493
H       3.305848358      5.232506083      4.083275988
H       2.948357762      3.285684484      3.670925098
H       5.177125876      5.401909267      5.276130173
H       5.794767561      3.810029422      4.668346486
           6
  t=       176.00000    1    1
C       3.896975062      4.370821484      4.313766314
C       5.083310097      4.570869506      4.617293341
H       3.278465103      5.265045406      4.127847929
H       2.983373944      3.227322810      3.736631806
H       5.186005459      5.430303578      5.318976150
H       5.807940685      3.792782523      4.659017585
           6
  t=       176.50000    1    1
C       3.901954474      4.392185620      4.310426590
C       5.104663448      4.580157627      4.638187382
H       3.250021367      5.296137521      4.174330976
H       3.028705681      3.178157718      3.807781792
H       5.196789483      5.458162235      5.358707759
H       5.823570572      3.774828480      4.649556324
           6
  t=       177.00000    1    1
C       3.904975443      4.413025100      4.306172567
C       5.126863367      4.589442966      4.659825882
H       3.221598287      5.324284904      4.222183730
H       3.083983503      3.139711482      3.883512236
H       5.209488184      5.483820538      5.394380684
H       5.840567792      3.757585445      4.640227343
           6
  t=       177.50000    1    1
C       3.906395959      4.433367121      4.301274247
C       5.149588851      4.598701359      4.682099275
H       3.194331216      5.348127906      4.270890397
H       3.148609281      3.113240507      3.962809791
H       5.224173401      5.505977406      5.425231426
H       5.857882528      3.742421600      4.631411569
           6
  t=       178.00000    1    1
C       3.906582339      4.453219866      4.296013142
C       5.172522990      4.607914112      4.704875923
H       3.169284626      5.366598887      4.319926379
H       3.221702727      3.099638286      4.044498293
H       5.241001553      5.523749058      5.450738619
H       5.874585495      3.730520133      4.623545293
           6
  t=       178.50000    1    1
C       3.905881482      4.472559680      4.290666708
C       5.195376483      4.617073685      4.728017405
H       3.147351603      5.378976026      4.368741940
H       3.302193145      3.099556250      4.127314783
H       5.260191544      5.536647091      5.470631965
H       5.889949056      3.722811537      4.617054816
           6
  t=       179.00000    1    1
C       3.904610465      4.491329245      4.285497673
C       5.217889285      4.626185439      4.751385707
H       3.129238278      5.384861277      4.416784206
H       3.388900400      3.113515178      4.209966480
H       5.282005804      5.544558999      5.484907550
H       5.903505216      3.719904674      4.612303631
           6
  t=       179.50000    1    1
C       3.903063392      4.509445600      4.280746150
C       5.239822205      4.635269738      4.774845334
H       3.115470145      5.384127699      4.463523827
H       3.480508109      3.141897887      4.291172718
H       5.306764024      5.547708013      5.493867761
H       5.915070857      3.722066363      4.609552793
           6
  t=       180.00000    1    1
C       3.901549016      4.526826287      4.276639485
C       5.260933505      4.644358118      4.798254177
H       3.106366949      5.376932204      4.508486581
H       3.575417735      3.184646703      4.369636494
H       5.334860545      5.546617860      5.498104121
H       5.924731881      3.729280357      4.608966337
           6
  t=       180.50000    1    1
C       3.900406502      4.543417827      4.273394404
C       5.280977446      4.653479878      4.821453523
H       3.101961941      5.363790964      4.551255652
H       3.671714715      3.240939824      4.444125286
H       5.366738459      5.542043527      5.498490965
H       5.932813304      3.741385461      4.610628010
           6
  t=       181.00000    1    1
C       3.899991531      4.559200957      4.271210757
C       5.299716087      4.662646648      4.844266882
H       3.101959723      5.345608354      4.591501370
H       3.767338325      3.309195245      4.513564052
H       5.402846564      5.534974065      5.496140786
H       5.939819452      3.758161178      4.614551682
           6
  t=       181.50000    1    1
C       3.900656917      4.574180203      4.270274850
C       5.316945755      4.671860352      4.866509826
H       3.105808023      5.323538092      4.628979673
H       3.860068715      3.387167352      4.576972594
H       5.443610409      5.526734661      5.492337475
H       5.946319844      3.779297380      4.620655339
           6
  t=       182.00000    1    1
C       3.902701888      4.588421025      4.270715517
C       5.332522950      4.681100199      4.888003180
H       3.112834945      5.298719028      4.663639704
H       3.947861321      3.472037164      4.633736840
H       5.489295395      5.519061825      5.488539779
H       5.952909868      3.804205412      4.628745022
           6
  t=       182.50000    1    1
C       3.906290117      4.602086177      4.272547479
C       5.346385938      4.690311322      4.908592936
H       3.122414449      5.272135116      4.695645817
H       4.029541607      3.560503816      4.684026476
H       5.539950440      5.513974263      5.486376382
H       5.960126571      3.831897944      4.638517673
           6
  t=       183.00000    1    1
C       3.911499726      4.615416936      4.275702934
C       5.358533275      4.699467073      4.928163450
H       3.133843083      5.244916151      4.725245914
H       4.104501203      3.648171719      4.728735678
H       5.595506184      5.513339352      5.487311920
H       5.968437408      3.861215949      4.649552502
           6
  t=       183.50000    1    1
C       3.918373085      4.628688697      4.280063227
C       5.369008202      4.708634323      4.946638006
H       3.146106009      5.218550240      4.752715375
H       4.172476961      3.729595912      4.769443389
H       5.655687165      5.518204907      5.492299224
H       5.978375764      3.890990116      4.661370303
           6
  t=       184.00000    1    1
C       3.926842958      4.642162001      4.285399823
C       5.377866796      4.717942231      4.964032908
H       3.157930541      5.194625989      4.778616048
H       4.235023991      3.800110275      4.808499936
H       5.719875025      5.528394094      5.501455053
H       5.990410517      3.919831261      4.673471037
           6
  t=       184.50000    1    1
C       3.936769327      4.655979542      4.291444543
C       5.385169008      4.727569674      4.980456512
H       3.168228758      5.174369341      4.803718048
H       4.294622309      3.857237443      4.848156774
H       5.787214150      5.542662168      5.514155628
H       6.004959242      3.946403837      4.685361300
           6
  t=       185.00000    1    1
C       3.948005724      4.670142840      4.297970968
C       5.391034615      4.737704490      4.996058024
H       3.176484794      5.158498036      4.828824963
H       4.353057551      3.900660911      4.889997149
H       5.856391547      5.559205502      5.529426559
H       6.022383195      3.969853885      4.696548698
           6
  t=       185.50000    1    1
C       3.960424160      4.684567689      4.304823432
C       5.395666678      4.748482240      5.010975902
H       3.182798292      5.147338593      4.854589832
H       4.410978656      3.931493818      4.935043304
H       5.925530560      5.576133348      5.546292008
H       6.042915939      3.990020552      4.706538816
           6
  t=       186.00000    1    1
C       3.973926371      4.699149710      4.311917790
C       5.399294872      4.759952208      5.025301872
H       3.187709692      5.140969875      4.881387029
H       4.468413969      3.951513174      4.984063657
H       5.992499412      5.591747924      5.563964223
H       6.066554586      4.007402283      4.714886304
           6
  t=       186.50000    1    1
C       3.988428493      4.713801219      4.319227346
C       5.402161319      4.772092304      5.039087413
H       3.192041767      5.139266557      4.909249211
H       4.525141702      3.962570217      5.037701299
H       6.055203159      5.604589381      5.581811837
H       6.092907368      4.023041016      4.721251471
           6
  t=       187.00000    1    1
C       4.003845644      4.728467732      4.326774687
C       5.404530281      4.784841149      5.052352892
H       3.196736154      5.141931712      4.937831355
H       4.580805496      3.966136062      5.096486172
H       6.111756768      5.613510392      5.599345026
H       6.121136601      4.038290480      4.725427395
           6
  t=       187.50000    1    1
C       4.020084416      4.743128230      4.334621016
C       5.406685892      4.798118891      5.065090857
H       3.202690986      5.148512779      4.966479142
H       4.634973087      3.963258196      5.160833308
H       6.160562240      5.617769962      5.616255171
H       6.150101779      4.054498699      4.727321477
           6
  t=       188.00000    1    1
C       4.037047356      4.757784784      4.342848405
C       5.408900282      4.811825258      5.077278766
H       3.210669509      5.158436364      4.994409890
H       4.687340266      3.954927893      5.231000912
H       6.200296269      5.617011293      5.632385549
H       6.178585773      4.072774708      4.726905617
           6
  t=       188.50000    1    1
C       4.054638765      4.772451665      4.351536014
C       5.411388148      4.825821350      5.088904106
H       3.221259116      5.171113165      5.020896394
H       4.738097571      3.942470858      5.306992087
H       6.229921359      5.611186101      5.647662966
H       6.205430224      4.093915439      4.724182950
           6
  t=       189.00000    1    1
C       4.072762742      4.787152745      4.360733160
C       5.414287301      4.839919369      5.099987247
H       3.234918403      5.185983914      5.045409407
H       4.788004158      3.927681917      5.388497813
H       6.248728459      5.600492733      5.662055403
H       6.229627031      4.118440263      4.719193394
           6
  t=       189.50000    1    1
C       4.091312364      4.801926648      4.370445075
C       5.417678491      4.853896774      5.110589624
H       3.252071215      5.202517853      5.067631053
H       4.838086768      3.912539999      5.474968902
H       6.256352288      5.585350033      5.675555500
H       6.250402757      4.146673682      4.712016981
           6
  t=       190.00000    1    1
C       4.110171801      4.816809904      4.380649304
C       5.421605611      4.867518188      5.120820961
H       3.273023745      5.220242125      5.087391769
H       4.889215044      3.899026106      5.565396177
H       6.252942410      5.566465275      5.688173922
H       6.267289185      4.178769647      4.702781927
           6
  t=       190.50000    1    1
C       4.129227524      4.831821972      4.391308380
C       5.426074463      4.880556571      5.130835733
H       3.297801204      5.238803546      5.104658326
H       4.941946159      3.888994456      5.658173613
H       6.239317103      5.544881124      5.699957521
H       6.280169301      4.214657939      4.691686411
           6
  t=       191.00000    1    1
C       4.148371030      4.846997461      4.402375620
C       5.431058216      4.892780287      5.140795950
H       3.326158837      5.257846435      5.119415613
H       4.996751802      3.884072951      5.751485306
H       6.216790618      5.521987154      5.711097843
H       6.289114493      4.254024481      4.678995684
           6
  t=       191.50000    1    1
C       4.167517523      4.862378702      4.413821092
C       5.436518517      4.903966725      5.150820011
H       3.357684692      5.276977769      5.131680187
H       5.053746275      3.885483737      5.843392332
H       6.187047954      5.499680461      5.722139284
H       6.294204847      4.296291207      4.665033587
           6
  t=       192.00000    1    1
C       4.186626773      4.877979050      4.425646207
C       5.442410581      4.913950586      5.160960131
H       3.391867726      5.295928914      5.141579303
H       5.112413717      3.893814876      5.931964878
H       6.151973011      5.480226190      5.734026427
H       6.295596345      4.340684053      4.650019115
           6
  t=       192.50000    1    1
C       4.205680771      4.893791771      4.437847613
C       5.448662133      4.922606255      5.171209630
H       3.428142368      5.314645886      5.149329954
H       5.172209932      3.909312695      6.015710579
H       6.113433527      5.465777208      5.748180214
H       6.293606811      4.386434829      4.633926209
           6
  t=       193.00000    1    1
C       4.224654792      4.909798221      4.450398689
C       5.455158442      4.929817472      5.181500989
H       3.465814047      5.333250953      5.155233396
H       5.232904005      3.932226172      6.093390916
H       6.073527715      5.458288163      5.766673186
H       6.288725269      4.432825118      4.616741340
           6
  t=       193.50000    1    1
C       4.243492945      4.925973860      4.463233795
C       5.461771385      4.935474657      5.191719018
H       3.503953317      5.351996812      5.159747720
H       5.294297793      3.962392497      6.163912562
H       6.034846198      5.459973998      5.792021777
H       6.281681305      4.479148238      4.598738051
           6
  t=       194.00000    1    1
C       4.262117272      4.942278061      4.476249267
C       5.468436022      4.939536215      5.201766322
H       3.541348697      5.371299721      5.163571129
H       5.355991642      3.999019963      6.226399108
H       5.999672066      5.472846452      5.826251754
H       6.273505695      4.524747608      4.580464490
           6
  t=       194.50000    1    1
C       4.280449881      4.958655125      4.489326043
C       5.475224211      4.942073994      5.211651345
H       3.576542726      5.391737556      5.167569199
H       5.417533290      4.041157935      6.280092784
H       5.968795656      5.497638686      5.869907349
H       6.265389734      4.569070419      4.562586747
           6
  t=       195.00000    1    1
C       4.298421062      4.975044216      4.502344656
C       5.482340411      4.943294823      5.221536405
H       3.608033728      5.413958963      5.172652415
H       5.478501195      4.087884998      6.324366894
H       5.941336349      5.533283600      5.921486245
H       6.258531621      4.611716917      4.545812728
           6
  t=       195.50000    1    1
C       4.315965630      4.991398389      4.515202599
C       5.490039132      4.943498023      5.231701730
H       3.634575532      5.438488102      5.179580537
H       5.538532119      4.138371466      6.358768671
H       5.915556163      5.577301873      5.977853828
H       6.254022822      4.652464743      4.530852396
           6
  t=       196.00000    1    1
C       4.333015176      5.007701708      4.527831045
C       5.498537370      4.943011839      5.242466786
H       3.655490286      5.465506456      5.188762215
H       5.597320300      4.191893691      6.383072537
H       5.889758285      5.626593089      6.035227766
H       6.252773230      4.691235069      4.518318466
           6
  t=       196.50000    1    1
C       4.349486769      5.023974767      4.540200350
C       5.507980824      4.942139428      5.254125390
H       3.670774865      5.494761109      5.200159942
H       5.654579513      4.247779383      6.397272694
H       5.862758218      5.678280512      6.090186377
H       6.255508799      4.727972161      4.508528144
           6
  t=       197.00000    1    1
C       4.365281558      5.040268503      4.552317627
C       5.518450806      4.941122588      5.266904073
H       3.681008650      5.525640266      5.213329922
H       5.710022166      4.305373818      6.401541968
H       5.833924109      5.730227899      6.140293540
H       6.262778561      4.762590622      4.501404475
           6
  t=       197.50000    1    1
C       4.380304648      5.056650942      4.564219614
C       5.529965940      4.940131432      5.280918106
H       3.687255069      5.557294045      5.227559991
H       5.763397960      4.364030245      6.396371040
H       5.803160406      5.780949616      6.184001584
H       6.274773761      4.795235142      4.496905355
           6
  t=       198.00000    1    1
C       4.394484371      5.073190304      4.575962067
C       5.542505450      4.939285946      5.296161225
H       3.690773162      5.588816709      5.242064275
H       5.814520760      4.423032016      6.382691935
H       5.770710895      5.829456100      6.220412109
H       6.291279254      4.826275052      4.495193276
           6
  t=       198.50000    1    1
C       4.407782702      5.089937365      4.587606320
C       5.556022723      4.938696002      5.312496515
H       3.692750020      5.619409156      5.256158714
H       5.863357493      4.481458772      6.362103360
H       5.736987726      5.875132105      6.249167024
H       6.311737378      4.856130855      4.496612275
           6
  t=       199.00000    1    1
C       4.420195009      5.106916209      4.599214028
C       5.570442050      4.938484085      5.329653061
H       3.694119170      5.648481520      5.269338802
H       5.910175305      4.538095445      6.337008761
H       5.702475707      5.917699691      6.270353993
H       6.335419973      4.885138949      4.501669240
           6
  t=       199.50000    1    1
C       4.431745665      5.124127939      4.610842663
C       5.585650735      4.938781344      5.347262571
H       3.695528572      5.675645143      5.281291076
H       5.955653567      4.591533218      6.310443198
H       5.667646350      5.957191499      6.284375580
H       6.361580622      4.913488288      4.510943631
           6
  t=       200.00000    1    1
C       4.442482222      5.141560827      4.622539815
C       5.601499260      4.939714446      5.364923623
H       3.697393345      5.700636565      5.291855065
H       6.000897649      4.640366135      6.285741353
H       5.632911219      5.993838211      6.291752437
H       6.389502261      4.941248034      4.524956745
