           6
  t=         0.00000    2    2
C      -0.653898199     -0.005499532      0.010317712
C       0.639984183      0.001012253     -0.002912152
H      -1.195063359      0.940523453     -0.051456769
H      -1.230961640     -0.902681123     -0.040517972
H       1.302013158      0.866453699      0.007991322
H       1.289806739     -0.850827043     -0.004258839
           6
  t=         0.50000    2    2
C      -0.652635042     -0.006684826      0.010386414
C       0.641850747      0.001122449     -0.003702938
H      -1.204307146      0.954371249     -0.050012257
H      -1.240797497     -0.905575853     -0.040500115
H       1.292565390      0.859098645      0.010265661
H       1.281042117     -0.841614336      0.000609258
           6
  t=         1.00000    1    1
C      -0.653367120     -0.007617704      0.010478244
C       0.645749279      0.001335754     -0.004498260
H      -1.213023419      0.966014026     -0.049210411
H      -1.251176249     -0.908947320     -0.039904791
H       1.282272730      0.853344598      0.013232300
H       1.272700064     -0.835557198      0.004628724
           6
  t=         1.50000    1    1
C      -0.660588959     -0.013331555      0.005429586
C       0.645799330     -0.003452069     -0.010361124
H      -1.281084136      0.913959800     -0.108832741
H      -1.322021839     -0.972951508     -0.099538006
H       1.210993427      0.789870900     -0.044261967
H       1.204697526     -0.894535904     -0.052248174
           6
  t=         2.00000    1    1
C      -0.668913612     -0.019188496      0.000099138
C       0.645740445     -0.009047406     -0.016210230
H      -1.346850334      0.859756451     -0.166854908
H      -1.388378151     -1.032293764     -0.157867681
H       1.146325015      0.738420558     -0.102043053
H       1.137739110     -0.956723681     -0.108548160
           6
  t=         2.50000    1    1
C      -0.678495759     -0.025449564     -0.005677233
C       0.644763244     -0.016611977     -0.021953631
H      -1.409401164      0.804166387     -0.222553327
H      -1.447698314     -1.084500889     -0.213716130
H       1.096389106      0.710171843     -0.161626707
H       1.071722921     -1.019581296     -0.163796638
           6
  t=         3.00000    1    1
C      -0.689468832     -0.032275762     -0.012051944
C       0.642316887     -0.027057245     -0.027429872
H      -1.467772039      0.747806049     -0.275167667
H      -1.498179917     -1.128183415     -0.265951064
H       1.066468817      0.712793315     -0.225686106
H       1.006752411     -1.080004071     -0.217320731
           6
  t=         3.50000    1    1
C      -0.701944578     -0.039797720     -0.019134253
C       0.638378549     -0.040501601     -0.032593300
H      -1.521083604      0.691432808     -0.324158380
H      -1.538649506     -1.162573374     -0.313550385
H       1.055684382      0.744753400     -0.295699932
H       0.943258024     -1.135018521     -0.268445502
           6
  t=         4.00000    1    1
C      -0.715880814     -0.048051109     -0.026991590
C       0.633331148     -0.056189219     -0.037650991
H      -1.568706811      0.635642210     -0.369115717
H      -1.568983935     -1.187874099     -0.355922311
H       1.057681408      0.795557955     -0.369927362
H       0.881776635     -1.183103852     -0.316642390
           6
  t=         4.50000    1    1
C      -0.731212760     -0.057017981     -0.035687553
C       0.627594908     -0.073227058     -0.042928886
H      -1.610148445      0.580806260     -0.409585310
H      -1.589347485     -1.204529471     -0.392731032
H       1.065868820      0.853550564     -0.444943274
H       0.822791224     -1.223386805     -0.361485077
           6
  t=         5.00000    1    1
C      -0.747889535     -0.066676369     -0.045311692
C       0.621436127     -0.090987565     -0.048672525
H      -1.645012833      0.527216022     -0.445054476
H      -1.599866592     -1.212830213     -0.423645294
H       1.075732552      0.910515024     -0.517798712
H       0.766767197     -1.255390998     -0.402773611
           6
  t=         5.50000    1    1
C      -0.765859544     -0.077028786     -0.055952724
C       0.614974216     -0.109088116     -0.055041414
H      -1.673053075      0.475381430     -0.475129662
H      -1.600661043     -1.213130589     -0.448254670
H       1.084655939      0.961238251     -0.586369195
H       0.714156486     -1.278588289     -0.440478739
           6
  t=         6.00000    1    1
C      -0.785011188     -0.088101797     -0.067651129
C       0.608230556     -0.127252952     -0.062195790
H      -1.694459152      0.426264802     -0.499820214
H      -1.591968150     -1.206027021     -0.466105263
H       1.090907723      1.001899951     -0.648726165
H       0.665533068     -1.292493592     -0.474581875
           6
  t=         6.50000    1    1
C      -0.805110055     -0.099953257     -0.080351399
C       0.601088166     -0.145263993     -0.070312736
H      -1.710229279      0.381732642     -0.519685347
H      -1.574203292     -1.192686944     -0.476910218
H       1.093569904      1.029993295     -0.703261063
H       0.621829272     -1.297208353     -0.504970562
           6
  t=         7.00000    1    1
C      -0.825873072     -0.112651495     -0.093948125
C       0.593349774     -0.163033168     -0.079459761
H      -1.721789696      0.343750756     -0.535499169
H      -1.547858387     -1.174328376     -0.480680053
H       1.092647108      1.045207654     -0.749650008
H       0.583936250     -1.293404960     -0.531635677
           6
  t=         7.50000    1    1
C      -0.846965349     -0.126245107     -0.108344348
C       0.584830942     -0.180533912     -0.089613642
H      -1.730735030      0.313916875     -0.548056798
H      -1.513715649     -1.152273213     -0.477609244
H       1.088373391      1.048283547     -0.788237580
H       0.552204080     -1.281837252     -0.554675093
           6
  t=         8.00000    1    1
C      -0.868044236     -0.140746307     -0.123446987
C       0.575401880     -0.197696478     -0.100735048
H      -1.738689741      0.293624523     -0.558119106
H      -1.472866821     -1.128184514     -0.468036004
H       1.080824801      1.039757701     -0.819282158
H       0.526736504     -1.263457969     -0.574309114
           6
  t=         8.50000    1    1
C      -0.888786095     -0.156090531     -0.139154295
C       0.564972128     -0.214378310     -0.112783318
H      -1.747099814      0.283928641     -0.566312301
H      -1.426696408     -1.104201532     -0.452510986
H       1.069945187      1.019760646     -0.842816191
H       0.507641718     -1.239781285     -0.591025326
           6
  t=         9.00000    1    1
C      -0.908883131     -0.172083925     -0.155345945
C       0.553463291     -0.230360132     -0.125711684
H      -1.756914118      0.285252135     -0.572987730
H      -1.377044238     -1.083241394     -0.431967905
H       1.055660037      0.988200464     -0.858705554
H       0.495049455     -1.213143809     -0.605663818
           6
  t=         9.50000    1    1
C      -0.928007344     -0.188321357     -0.171862999
C       0.540786780     -0.245354903     -0.139471823
H      -1.768373392      0.297246187     -0.578129316
H      -1.326721395     -1.069967227     -0.408023672
H       1.037993349      0.944944940     -0.866715430
H       0.489134816     -1.186649082     -0.619328268
           6
  t=        10.00000    1    1
C      -0.945813072     -0.204196459     -0.188536345
C       0.526852486     -0.259010112     -0.154004846
H      -1.780950213      0.318692761     -0.581322924
H      -1.279492385     -1.070867529     -0.382811603
H       1.017095013      0.889961897     -0.866573534
H       0.489939902     -1.163984076     -0.633288539
           6
  t=        10.50000    1    1
C      -0.962043533     -0.219076088     -0.205256104
C       0.511596530     -0.270954282     -0.169231501
H      -1.793575978      0.347663414     -0.581918147
H      -1.238847594     -1.092309876     -0.358080188
H       0.993177039      0.823392679     -0.858058241
H       0.497375909     -1.148964838     -0.648921802
           6
  t=        11.00000    1    1
C      -0.976626582     -0.232574525     -0.222009468
C       0.494976724     -0.280887593     -0.185071874
H      -1.805072324      0.382009967     -0.579355592
H      -1.206726360     -1.137565300     -0.334293399
H       0.966537778      0.745678546     -0.841085399
H       0.511548513     -1.144782094     -0.667512485
           6
  t=        11.50000    1    1
C      -0.989666953     -0.244809322     -0.238864289
C       0.476927741     -0.288713575     -0.201491440
H      -1.814382545      0.419629502     -0.573309739
H      -1.182940956     -1.203879091     -0.310607041
H       0.937770492      0.658146733     -0.815889605
H       0.532646410     -1.153163657     -0.689598577
           6
  t=        12.00000    1    1
C      -1.001407538     -0.256351714     -0.255875227
C       0.457441804     -0.294723751     -0.218485506
H      -1.820561086      0.458146440     -0.563766772
H      -1.166233401     -1.282696764     -0.286098847
H       0.908112414      0.564093824     -0.783727793
H       0.560215702     -1.173304681     -0.714263837
           6
  t=        12.50000    1    1
C      -1.012048417     -0.267842828     -0.273039264
C       0.436485695     -0.299534305     -0.236043915
H      -1.822817338      0.495400029     -0.550761945
H      -1.155887656     -1.364931496     -0.260562916
H       0.879838749      0.469008335     -0.747058781
H       0.593254467     -1.202638011     -0.739377087
           6
  t=        13.00000    1    1
C      -1.021742302     -0.279760093     -0.290313357
C       0.413905714     -0.304080993     -0.254036585
H      -1.820592876      0.529672120     -0.534290782
H      -1.151736731     -1.443800614     -0.234317936
H       0.857153564      0.381090859     -0.710188328
H       0.630484307     -1.237589749     -0.762381264
           6
  t=        13.50000    1    1
C      -1.030629766     -0.292368555     -0.307634797
C       0.389328514     -0.309590581     -0.272130244
H      -1.813654706      0.559447601     -0.514338009
H      -1.153850106     -1.514870522     -0.207866895
H       0.847309131      0.311617769     -0.679564775
H       0.670613156     -1.274578789     -0.781058696
           6
  t=        14.00000    1    1
C      -1.038883400     -0.305799617     -0.324957695
C       0.362344008     -0.317198948     -0.289976158
H      -1.802059857      0.583386428     -0.490788751
H      -1.162505069     -1.575012762     -0.181685183
H       0.858604213      0.271059322     -0.661057454
H       0.712619567     -1.310763283     -0.793881722
           6
  t=        14.50000    1    1
C      -1.046734289     -0.320113601     -0.342252933
C       0.333081029     -0.327313540     -0.307535638
H      -1.786076510      0.600463339     -0.463618360
H      -1.177893285     -1.621898669     -0.156432838
H       0.893839592      0.261486839     -0.655609232
H       0.755380991     -1.343944174     -0.800080054
           6
  t=        15.00000    1    1
C      -1.054441092     -0.335361253     -0.359402115
C       0.302315694     -0.339678807     -0.325105459
H      -1.765852537      0.610049601     -0.433641830
H      -1.199814399     -1.653971127     -0.133027792
H       0.948829161      0.277631408     -0.659628423
H       0.796865199     -1.372221342     -0.799386952
           6
  t=        15.50000    1    1
C      -1.062197125     -0.351490800     -0.376284578
C       0.271214595     -0.353549900     -0.343201807
H      -1.741739075      0.611970073     -0.401835377
H      -1.227445207     -1.671257479     -0.112012261
H       1.013650422      0.309241831     -0.666702886
H       0.834925377     -1.394633355     -0.791983193
           6
  t=        16.00000    1    1
C      -1.070207770     -0.368399676     -0.392803855
C       0.240843455     -0.368284541     -0.362166267
H      -1.714269471      0.606246941     -0.368920352
H      -1.259816629     -1.674392729     -0.093816175
H       1.079166370      0.347523038     -0.672457879
H       0.868011272     -1.410647668     -0.778171495
           6
  t=        16.50000    1    1
C      -1.078697924     -0.385989417     -0.408869596
C       0.212003660     -0.383492555     -0.382129874
H      -1.684215099      0.593257772     -0.335522229
H      -1.295951184     -1.664187659     -0.078849178
H       1.139320534      0.386772341     -0.674950052
H       0.895103977     -1.419950836     -0.758375306
           6
  t=        17.00000    1    1
C      -1.087882113     -0.404181573     -0.424397193
C       0.185299195     -0.398952651     -0.403102546
H      -1.652522981      0.573747783     -0.302218511
H      -1.334940138     -1.641485558     -0.067492927
H       1.190209562      0.423637634     -0.673547338
H       0.915504465     -1.422664305     -0.733157516
           6
  t=        17.50000    1    1
C      -1.097965330     -0.422928059     -0.439310429
C       0.161183533     -0.414558348     -0.425016327
H      -1.620264461      0.548791313     -0.269593543
H      -1.376065115     -1.607166679     -0.060002509
H       1.229695196      0.456385245     -0.668319996
H       0.928743161     -1.419090229     -0.703326352
           6
  t=        18.00000    1    1
C      -1.109135165     -0.442185489     -0.453548068
C       0.139978462     -0.430291207     -0.447754305
H      -1.588685479      0.519820577     -0.238230064
H      -1.418783908     -1.562393750     -0.056429136
H       1.257085326      0.484409509     -0.659689990
H       0.934616850     -1.409629130     -0.669948645
           6
  t=        18.50000    1    1
C      -1.121559970     -0.461875283     -0.467057814
C       0.121941862     -0.446190054     -0.471191131
H      -1.559204019      0.488578182     -0.208760052
H      -1.462738079     -1.508887004     -0.056569049
H       1.272400115      0.507779350     -0.648089677
H       0.933098115     -1.394846000     -0.634280576
           6
  t=        19.00000    1    1
C      -1.135279576     -0.481877568     -0.479849051
C       0.107157898     -0.462276428     -0.495215730
H      -1.532856749      0.456920963     -0.181107777
H      -1.507855943     -1.449208274     -0.060273209
H       1.275917722      0.526572909     -0.634314063
H       0.924345514     -1.375285687     -0.596963633
           6
  t=        19.50000    1    1
C      -1.150210832     -0.502023720     -0.491986687
C       0.095591972     -0.478525767     -0.519724134
H      -1.510272716      0.426670548     -0.154931613
H      -1.554418904     -1.386665244     -0.067066983
H       1.267693205      0.540520911     -0.619125887
H       0.908635896     -1.351494814     -0.558516749
           6
  t=        20.00000    1    1
C      -1.166136174     -0.522022520     -0.503594086
C       0.087097040     -0.494880079     -0.544590253
H      -1.491875650      0.399531681     -0.130082233
H      -1.603280613     -1.325808057     -0.075722092
H       1.247633067      0.549169091     -0.603163706
H       0.886499875     -1.324334796     -0.519711476
           6
  t=        20.50000    1    1
C      -1.182684926     -0.541471459     -0.514840855
C       0.081385390     -0.511226111     -0.569677711
H      -1.477868190      0.377070731     -0.106693374
H      -1.656180539     -1.272321704     -0.084261258
H       1.215623026      0.552005564     -0.586990114
H       0.859005237     -1.295320795     -0.481432798
           6
  t=        21.00000    1    1
C      -1.199385957     -0.559955413     -0.525913395
C       0.078006022     -0.527376221     -0.594823727
H      -1.468222021      0.359926108     -0.085281339
H      -1.715525778     -1.231195818     -0.090358049
H       1.171789408      0.548574865     -0.571148709
H       0.828164573     -1.266828467     -0.444665769
           6
  t=        21.50000    1    1
C      -1.215850885     -0.577185192     -0.536905547
C       0.076458494     -0.543087753     -0.619902934
H      -1.462756625      0.347927581     -0.066530681
H      -1.783175812     -1.205079806     -0.092631092
H       1.116294419      0.538508074     -0.556244202
H       0.796829906     -1.242006550     -0.409878167
           6
  t=        22.00000    1    1
C      -1.231872223     -0.593075562     -0.547761329
C       0.076231869     -0.558086168     -0.644831750
H      -1.461176983      0.340462603     -0.051246515
H      -1.859114189     -1.193746388     -0.091414822
H       1.049217389      0.521419452     -0.542950187
H       0.768226254     -1.224371002     -0.376919846
           6
  t=        22.50000    1    1
C      -1.247438175     -0.607702426     -0.558297691
C       0.076856583     -0.572130724     -0.669571116
H      -1.463075415      0.336634239     -0.040260315
H      -1.941154368     -1.194827699     -0.088533627
H       0.970636091      0.496994007     -0.531942466
H       0.745136237     -1.217041907     -0.345105713
           6
  t=        23.00000    1    1
C      -1.262680178     -0.621211650     -0.568286533
C       0.077969796     -0.585104598     -0.694100709
H      -1.467984379      0.335396258     -0.034273166
H      -2.025780528     -1.205137855     -0.086422124
H       0.880967748      0.465287551     -0.523851772
H       0.729048913     -1.221868673     -0.313629472
           6
  t=        23.50000    1    1
C      -1.277785425     -0.633740477     -0.577513787
C       0.079323779     -0.597081011     -0.718356695
H      -1.475523347      0.335694964     -0.033897284
H      -2.109128775     -1.221666954     -0.087417680
H       0.781236557      0.427023174     -0.519221756
H       0.719878052     -1.239022765     -0.282309272
           6
  t=        24.00000    1    1
C      -1.292902450     -0.645401393     -0.585835248
C       0.080739008     -0.608322713     -0.742204570
H      -1.485368927      0.336467208     -0.039547159
H      -2.187901365     -1.241948946     -0.093252489
H       0.673198465      0.383556545     -0.518393189
H       0.716155592     -1.266791587     -0.251978665
           6
  t=        24.50000    1    1
C      -1.308113318     -0.656278617     -0.593174023
C       0.082034189     -0.619235079     -0.765470158
H      -1.497390788      0.336673843     -0.051457120
H      -2.259650512     -1.264157927     -0.105017187
H       0.559505238      0.337089205     -0.521399506
H       0.715789763     -1.302329568     -0.224270904
           6
  t=        25.00000    1    1
C      -1.323447410     -0.666463800     -0.599518240
C       0.082924401     -0.630366195     -0.788014948
H      -1.511498526      0.335412645     -0.069705349
H      -2.322571451     -1.286899980     -0.123270411
H       0.443953510      0.291714242     -0.527553433
H       0.716833883     -1.342598614     -0.201028364
           6
  t=        25.50000    1    1
C      -1.338883729     -0.676061199     -0.604903525
C       0.083056615     -0.642394684     -0.809808275
H      -1.527457952      0.332056040     -0.094262033
H      -2.375442737     -1.309114682     -0.148170934
H       0.330445893      0.253734879     -0.535121247
H       0.717886090     -1.385006223     -0.183796700
           6
  t=        26.00000    1    1
C      -1.354344523     -0.685194972     -0.609385914
C       0.082139453     -0.656034711     -0.830921566
H      -1.545453784      0.326291878     -0.124776435
H      -2.417618509     -1.329974941     -0.179717903
H       0.222196696      0.230219903     -0.541752295
H       0.717816429     -1.427146972     -0.173759343
           6
  t=        26.50000    1    1
C      -1.369762443     -0.694019875     -0.613025958
C       0.080058730     -0.671791455     -0.851437463
H      -1.565945968      0.318119282     -0.160676421
H      -2.448764206     -1.348810465     -0.217876461
H       0.120936153      0.225961627     -0.545423806
H       0.715578129     -1.466619004     -0.171839794
           6
  t=        27.00000    1    1
C      -1.385140395     -0.702719525     -0.615926507
C       0.076872082     -0.689572875     -0.871334835
H      -1.589221879      0.307884755     -0.201301695
H      -2.468778505     -1.365122861     -0.262266976
H       0.026885733      0.239360077     -0.545843835
H       0.710483628     -1.501576059     -0.178396225
           6
  t=        27.50000    1    1
C      -1.400529319     -0.711501272     -0.618241001
C       0.072590068     -0.708831113     -0.890447619
H      -1.615771787      0.296267798     -0.245870657
H      -2.477612176     -1.378714056     -0.312230194
H      -0.058626425      0.264409170     -0.544614918
H       0.702127012     -1.530946993     -0.193417347
           6
  t=        28.00000    1    1
C      -1.415949120     -0.720584766     -0.620157611
C       0.067097796     -0.728923126     -0.908556042
H      -1.645747229      0.284141540     -0.293597168
H      -2.475407064     -1.389605527     -0.366950352
H      -0.133549656      0.294894639     -0.543932394
H       0.690357161     -1.554414213     -0.216686276
           6
  t=        28.50000    1    1
C      -1.431364833     -0.730184228     -0.621883467
C       0.060220737     -0.749282621     -0.925468099
H      -1.679430715      0.272481113     -0.343669363
H      -2.462561889     -1.397911136     -0.425456418
H      -0.195587127      0.325958398     -0.545766667
H       0.675221499     -1.572176089     -0.247835282
           6
  t=        29.00000    1    1
C      -1.446688756     -0.740470256     -0.623631299
C       0.051803368     -0.769446105     -0.941049038
H      -1.717251735      0.262182561     -0.395357675
H      -2.439880948     -1.403901293     -0.486576886
H      -0.242858367      0.354033660     -0.551588458
H       0.656881467     -1.584781506     -0.286365562
           6
  t=        29.50000    1    1
C      -1.461765897     -0.751483874     -0.625595436
C       0.041771534     -0.789082506     -0.955272213
H      -1.759367290      0.253796503     -0.448192757
H      -2.408980909     -1.408279196     -0.548953719
H      -0.274922685      0.376627157     -0.562018591
H       0.635706812     -1.593040724     -0.331485625
           6
  t=        30.00000    1    1
C      -1.476393229     -0.763135817     -0.627942221
C       0.030076602     -0.807963780     -0.968177103
H      -1.805405050      0.247332500     -0.501925204
H      -2.372339933     -1.412428534     -0.611311535
H      -0.292190648      0.392379803     -0.577124955
H       0.612374233     -1.598001484     -0.382199859
           6
  t=        30.50000    1    1
C      -1.490339848     -0.775226583     -0.630803400
C       0.016655232     -0.825916104     -0.979834325
H      -1.854460394      0.242270465     -0.556403393
H      -2.333180479     -1.418487731     -0.672695601
H      -0.295379682      0.400776917     -0.596718128
H       0.587922333     -1.600939017     -0.437392727
           6
  t=        31.00000    1    1
C      -1.503365526     -0.787479137     -0.634270490
C       0.001399272     -0.842761068     -0.990327883
H      -1.905330880      0.237599979     -0.611453598
H      -2.295109717     -1.429133530     -0.732644789
H      -0.285108795      0.401694071     -0.620583900
H       0.563801107     -1.603468649     -0.495821880
           6
  t=        31.50000    1    1
C      -1.515251369     -0.799592020     -0.638404083
C      -0.015853301     -0.858270075     -0.999752186
H      -1.956775629      0.231942645     -0.666764178
H      -2.261585676     -1.447106842     -0.791191353
H      -0.261732191      0.395046641     -0.648581994
H       0.541904234     -1.607702456     -0.556060026
           6
  t=        32.00000    1    1
C      -1.525855865     -0.811312510     -0.643259449
C      -0.035296476     -0.872160639     -1.008195972
H      -2.007399805      0.223784636     -0.721835231
H      -2.235152909     -1.474499596     -0.848624357
H      -0.225621631      0.380473979     -0.680645518
H       0.524378478     -1.616051385     -0.616668925
           6
  t=        32.50000    1    1
C      -1.535179590     -0.822510866     -0.648913787
C      -0.057084173     -0.884159240     -1.015719397
H      -2.055689645      0.211725553     -0.776001084
H      -2.216674370     -1.511953647     -0.905066784
H      -0.177447192      0.357253136     -0.716714523
H       0.513084067     -1.630555351     -0.676614553
           6
  t=        33.00000    1    1
C      -1.543388652     -0.833235836     -0.655497308
C      -0.081250737     -0.894089246     -1.022331876
H      -2.100421936      0.194762640     -0.828487917
H      -2.205162658     -1.558311447     -0.960008380
H      -0.117986216      0.324700201     -0.756673763
H       0.508976229     -1.652209075     -0.735632490
           6
  t=        33.50000    1    1
C      -1.550789422     -0.843688341     -0.663178224
C      -0.107647877     -0.901960648     -1.028012901
H      -2.140714089      0.172392417     -0.878511441
H      -2.198391864     -1.611014390     -1.012258928
H      -0.048117967      0.282772535     -0.800253302
H       0.511709367     -1.680511861     -0.794207189
           6
  t=        34.00000    1    1
C      -1.557723039     -0.854116668     -0.672141763
C      -0.135968921     -0.907971344     -1.032759742
H      -2.175949744      0.144418899     -0.925452336
H      -2.193858992     -1.667045390     -1.060078503
H       0.031146621      0.232063325     -0.846782809
H       0.519585776     -1.713561419     -0.853193628
           6
  t=        34.50000    1    1
C      -1.564491296     -0.864700034     -0.682463601
C      -0.165692177     -0.912548029     -1.036666066
H      -2.205659919      0.111046924     -0.968949277
H      -2.189450179     -1.723664975     -1.102116424
H       0.117534455      0.174048844     -0.895246701
H       0.529675435     -1.748558476     -0.913301591
           6
  t=        35.00000    1    1
C      -1.571337158     -0.875552870     -0.694162609
C      -0.196237751     -0.916174166     -1.039863737
H      -2.229491710      0.072616720     -1.008783758
H      -2.183705306     -1.778768864     -1.137403327
H       0.208505421      0.110685151     -0.944633213
H       0.538690695     -1.782779305     -0.974934562
           6
  t=        35.50000    1    1
C      -1.578488457     -0.886760715     -0.707220318
C      -0.227016025     -0.919281734     -1.042496451
H      -2.247406010      0.029606974     -1.044774389
H      -2.175615408     -1.830752192     -1.165348540
H       0.301790409      0.043992274     -0.994204094
H       0.543541706     -1.814160892     -1.038110722
           6
  t=        36.00000    1    1
C      -1.586154940     -0.898400937     -0.721600180
C      -0.257427539     -0.922195788     -1.044710387
H      -2.259686513     -0.017249130     -1.076700454
H      -2.164468773     -1.878333723     -1.185693860
H       0.394970211     -0.024508823     -1.043533668
H       0.541575912     -1.841443484     -1.102428311
           6
  t=        36.50000    1    1
C      -1.594512150     -0.910549617     -0.737265285
C      -0.286878936     -0.925140372     -1.046644204
H      -2.266992959     -0.066828246     -1.104226165
H      -2.149791404     -1.920515617     -1.198519911
H       0.485196294     -0.093920939     -1.092465505
H       0.530849097     -1.864069263     -1.167086534
           6
  t=        37.00000    1    1
C      -1.603699876     -0.923282419     -0.754152553
C      -0.314815719     -0.928282095     -1.048434462
H      -2.270580385     -0.117474101     -1.127028404
H      -2.131409642     -1.956672961     -1.204361565
H       0.569536146     -0.163681871     -1.141042643
H       0.510433613     -1.881994805     -1.230955040
           6
  t=        37.50000    1    1
C      -1.613859448     -0.936699175     -0.772149259
C      -0.340660728     -0.931753930     -1.050270821
H      -2.272220397     -0.167074113     -1.145127660
H      -2.109522992     -1.986505837     -1.203836755
H       0.645159560     -0.233325112     -1.189003820
H       0.479937579     -1.895325059     -1.292739910
           6
  t=        38.00000    1    1
C      -1.624970880     -0.950902552     -0.791055035
C      -0.364069112     -0.935615117     -1.052400973
H      -2.273821088     -0.213529327     -1.159507462
H      -2.084640034     -2.010219641     -1.197397212
H       0.710020659     -0.302490444     -1.235207055
H       0.439476237     -1.904384582     -1.351583995
           6
  t=        38.50000    1    1
C      -1.636886960     -0.966002115     -0.810671996
C      -0.384882962     -0.939888131     -1.055031766
H      -2.277325398     -0.254782481     -1.171474145
H      -2.057437588     -2.028281079     -1.185365197
H       0.762727159     -0.370669437     -1.278349842
H       0.389425942     -1.909699011     -1.407054391
           6
  t=        39.00000    1    1
C      -1.649422166     -0.982101818     -0.830840750
C      -0.402974757     -0.944615256     -1.058321232
H      -2.284936527     -0.288745193     -1.182015485
H      -2.028849886     -2.041319874     -1.168258472
H       0.802265864     -0.437077494     -1.317525136
H       0.330207179     -1.911769067     -1.458568831
           6
  t=        39.50000    1    1
C      -1.662405902     -0.999254244     -0.851425053
C      -0.418250519     -0.949839264     -1.062403820
H      -2.298592676     -0.313807334     -1.191765331
H      -1.999961953     -2.050224424     -1.146790683
H       0.828080200     -0.500835847     -1.352078873
H       0.262247176     -1.911059066     -1.505455236
           6
  t=        40.00000    1    1
C      -1.675722630     -1.017407999     -0.872309048
C      -0.430673193     -0.955588150     -1.067393255
H      -2.319439892     -0.329318635     -1.200945982
H      -1.971950429     -2.056259870     -1.121840665
H       0.840062193     -0.561204233     -1.381535094
H       0.186158342     -1.907973172     -1.547113853
           6
  t=        40.50000    1    1
C      -1.689317979     -1.036366981     -0.893411670
C      -0.440274384     -0.961872239     -1.073385000
H      -2.347560845     -0.335816470     -1.209235645
H      -1.946171654     -2.061239490     -1.094391522
H       0.838418450     -0.617558844     -1.405527587
H       0.102901839     -1.902998217     -1.583078022
           6
  t=        41.00000    1    1
C      -1.703182809     -1.055785057     -0.914684321
C      -0.447159712     -0.968684778     -1.080453906
H      -2.382055462     -0.334985240     -1.215846582
H      -1.924102408     -2.067493734     -1.065487660
H       0.823558338     -0.669282518     -1.423769825
H       0.013794578     -1.896941397     -1.613064792
           6
  t=        41.50000    1    1
C      -1.717333408     -1.075214801     -0.936101835
C      -0.451525691     -0.976001119     -1.088632636
H      -2.421305948     -0.329383243     -1.219792767
H      -1.907061141     -2.077437450     -1.036146213
H       0.796129291     -0.715727122     -1.436131332
H      -0.079574500     -1.891102759     -1.637084187
           6
  t=        42.00000    1    1
C      -1.731787859     -1.094199178     -0.957657486
C      -0.453667595     -0.983767228     -1.097888946
H      -2.463330461     -0.321911508     -1.220186375
H      -1.896266666     -2.093091914     -1.007098779
H       0.757122187     -0.756278561     -1.442704565
H      -0.175225452     -1.887263843     -1.655664327
           6
  t=        42.50000    1    1
C      -1.746571273     -1.112362859     -0.979344700
C      -0.453948201     -0.991896643     -1.108133337
H      -2.506224953     -0.315149373     -1.216433282
H      -1.892827238     -2.115673363     -0.978585578
H       0.707859853     -0.790443555     -1.443752165
H      -0.270654976     -1.887624885     -1.670041260
           6
  t=        43.00000    1    1
C      -1.761703357     -1.129478066     -1.001146782
C      -0.452796830     -1.000306309     -1.119244842
H      -2.548354773     -0.311041698     -1.208256352
H      -1.897143345     -2.145090115     -0.950553093
H       0.650174045     -0.817867195     -1.439697806
H      -0.363578475     -1.894391430     -1.681762278
           6
  t=        43.50000    1    1
C      -1.777163675     -1.145488620     -1.023044278
C      -0.450738459     -1.008974104     -1.131084331
H      -2.588353554     -0.310948378     -1.195680104
H      -1.909049614     -2.179913134     -0.922783136
H       0.587003935     -0.838275785     -1.431308639
H      -0.452454941     -1.908839298     -1.692143573
           6
  t=        44.00000    1    1
C      -1.792891854     -1.160478004     -1.044994089
C      -0.448429842     -1.017997747     -1.143507899
H      -2.625143132     -0.315773843     -1.179043391
H      -1.928149545     -2.217689636     -0.895087097
H       0.522998926     -0.851229336     -1.419908677
H      -0.536302170     -1.930797695     -1.701939128
           6
  t=        44.50000    1    1
C      -1.808787491     -1.174609690     -1.066914961
C      -0.446736992     -1.027615791     -1.156361761
H      -2.657904343     -0.326059218     -1.158934185
H      -1.953843703     -2.255464163     -0.867568906
H       0.465136901     -0.855821139     -1.407564770
H      -0.614393859     -1.958797273     -1.711190859
           6
  t=        45.00000    1    1
C      -1.824739294     -1.188048889     -1.088681333
C      -0.446704863     -1.038169442     -1.169482136
H      -2.686029210     -0.342047671     -1.136103980
H      -1.985491126     -2.290513416     -0.840615197
H       0.422244693     -0.850578624     -1.396880404
H      -0.685680577     -1.990756419     -1.719604867
           6
  t=        45.50000    1    1
C      -1.840643045     -1.200932839     -1.110142646
C      -0.449329427     -1.050021559     -1.182729367
H      -2.709144828     -0.363648731     -1.111391783
H      -2.022368794     -2.320766004     -0.814798560
H       0.402458129     -0.833858251     -1.390242283
H      -0.748768218     -2.024521548     -1.726840956
           6
  t=        46.00000    1    1
C      -1.856420301     -1.213371098     -1.131144787
C      -0.455142404     -1.063435968     -1.196056779
H      -2.727069699     -0.390499540     -1.085663891
H      -2.063568378     -2.344738670     -0.790817532
H       0.408617486     -0.804897001     -1.388679384
H      -0.802185812     -2.058252691     -1.732697833
           6
  t=        46.50000    1    1
C      -1.872038276     -1.225440118     -1.151541525
C      -0.463984673     -1.078472212     -1.209544129
H      -2.739819046     -0.422009058     -1.059726980
H      -2.108037646     -2.361471359     -0.769394591
H       0.435982236     -0.764909502     -1.391429971
H      -0.844516503     -2.090665825     -1.737200180
           6
  t=        47.00000    1    1
C      -1.887510355     -1.237191683     -1.171206697
C      -0.475197010     -1.094980071     -1.223345118
H      -2.747643152     -0.457415192     -1.034264921
H      -2.154733578     -2.370517437     -0.751171653
H       0.475150534     -0.716897432     -1.396667421
H      -0.874846815     -2.121140911     -1.740520690
           6
  t=        47.50000    1    1
C      -1.902864187     -1.248669862     -1.190043856
C      -0.488065202     -1.112723736     -1.237599260
H      -2.751071747     -0.495721951     -1.009825551
H      -2.202630870     -2.371896015     -0.736651865
H       0.517039723     -0.664443046     -1.402687334
H      -0.892770541     -2.149357317     -1.742799615
           6
  t=        48.00000    1    1
C      -1.918115121     -1.259920324     -1.207986549
C      -0.502055440     -1.131487020     -1.252392895
H      -2.750890043     -0.535660742     -0.986803856
H      -2.250694102     -2.365973557     -0.726280808
H       0.555107852     -0.610736043     -1.408422408
H      -0.898173710     -2.175059299     -1.744026718
           6
  t=        48.50000    1    1
C      -1.933269895     -1.270991930     -1.224994172
C      -0.516810578     -1.151101490     -1.267761417
H      -2.748103488     -0.575737080     -0.965407863
H      -2.297866724     -2.353339554     -0.720564710
H       0.585132674     -0.558357648     -1.413412563
H      -0.891060571     -2.197995398     -1.744009891
           6
  t=        49.00000    1    1
C      -1.948327377     -1.281931964     -1.241053169
C      -0.532098767     -1.171434516     -1.283697852
H      -2.743923172     -0.614239828     -0.945613578
H      -2.343078147     -2.334798749     -0.720063030
H       0.604643739     -0.509222050     -1.417592291
H      -0.871596247     -2.218174792     -1.742523819
           6
  t=        49.50000    1    1
C      -1.963271452     -1.292777918     -1.256179797
C      -0.547771928     -1.192356021     -1.300166959
H      -2.739720901     -0.649216619     -0.927176283
H      -2.385430259     -2.311533547     -0.725120237
H       0.612303712     -0.464791900     -1.421054149
H      -0.839926218     -2.236007996     -1.739602410
           6
  t=        50.00000    1    1
C      -1.978073556     -1.303552328     -1.270404180
C      -0.563734146     -1.213712894     -1.317118392
H      -2.736813284     -0.678799160     -0.909758831
H      -2.424442662     -2.284925081     -0.735733559
H       0.607434014     -0.426290635     -1.423909542
H      -0.796018964     -2.252314613     -1.735715105
           6
  t=        50.50000    1    1
C      -1.992709451     -1.314259216     -1.283753846
C      -0.579924688     -1.235324467     -1.334488960
H      -2.736177893     -0.701581225     -0.893075707
H      -2.459895803     -2.256262177     -0.751787269
H       0.589819537     -0.394708402     -1.426275246
H      -0.739913803     -2.268326757     -1.731571352
           6
  t=        51.00000    1    1
C      -2.007215861     -1.324856380     -1.296236438
C      -0.596294820     -1.257013138     -1.352212148
H      -2.738182811     -0.716749571     -0.877045168
H      -2.491627657     -2.226799280     -0.773237354
H       0.559570948     -0.370753200     -1.428304279
H      -0.671658494     -2.285514352     -1.727845384
           6
  t=        51.50000    1    1
C      -2.021747261     -1.335279703     -1.307856000
C      -0.612730451     -1.278588930     -1.370202456
H      -2.742144686     -0.724181415     -0.861740916
H      -2.519667093     -2.197869906     -0.800324420
H       0.516938046     -0.354898162     -1.430379871
H      -0.591676079     -2.305221216     -1.724810245
           6
  t=        52.00000    1    1
C      -2.036479898     -1.345496189     -1.318644833
C      -0.629037814     -1.299857599     -1.388351809
H      -2.746414980     -0.724244223     -0.847286505
H      -2.544305169     -2.171176506     -0.833636840
H       0.462197550     -0.347481896     -1.433229729
H      -0.501809545     -2.327746555     -1.721929233
           6
  t=        52.50000    1    1
C      -2.051405902     -1.355501118     -1.328713192
C      -0.645037346     -1.320709435     -1.406582940
H      -2.749158423     -0.717336357     -0.833689497
H      -2.566653031     -2.149227822     -0.873258689
H       0.395805543     -0.348678791     -1.437594148
H      -0.405472467     -2.351372375     -1.717977312
           6
  t=        53.00000    1    1
C      -2.066237737     -1.365218039     -1.338179761
C      -0.660654349     -1.341179941     -1.424906550
H      -2.749385938     -0.703747245     -0.821288444
H      -2.588717615     -2.135046604     -0.918078642
H       0.318142807     -0.358585749     -1.443628775
H      -0.306344066     -2.373177537     -1.712029901
           6
  t=        53.50000    1    1
C      -2.080681676     -1.374464103     -1.347113848
C      -0.675844447     -1.361358668     -1.443363694
H      -2.746581275     -0.683959198     -0.810586607
H      -2.612559755     -2.131380627     -0.966804172
H       0.229432203     -0.377234914     -1.451184389
H      -0.207131306     -2.391011488     -1.703710457
           6
  t=        54.00000    1    1
C      -2.094477658     -1.383039782     -1.355548798
C      -0.690599554     -1.381359593     -1.461989586
H      -2.740511935     -0.658890320     -0.802430054
H      -2.639679042     -2.140047126     -1.018073600
H       0.130147418     -0.404317509     -1.459768506
H      -0.110235957     -2.403467105     -1.693210124
           6
  t=        54.50000    1    1
C      -2.107475712     -1.390837539     -1.363493539
C      -0.704975306     -1.401306666     -1.480776065
H      -2.731033891     -0.630081677     -0.798084234
H      -2.670631103     -2.161226089     -1.070581157
H       0.021865373     -0.438784854     -1.468648921
H      -0.017947391     -2.409676419     -1.681292312
           6
  t=        55.00000    1    1
C      -2.119736334     -1.397891084     -1.370921190
C      -0.719009704     -1.421341938     -1.499673319
H      -2.717811697     -0.599367257     -0.798913562
H      -2.704918014     -2.193534054     -1.123629785
H      -0.092793488     -0.478857919     -1.477174384
H       0.067454222     -2.408873610     -1.668854737
           6
  t=        55.50000    1    1
C      -2.131446667     -1.404381570     -1.377787364
C      -0.732742037     -1.441657748     -1.518610686
H      -2.700286790     -0.568522291     -0.805747004
H      -2.741438677     -2.234272462     -1.177440922
H      -0.210609352     -0.521625930     -1.485093268
H       0.143787505     -2.400442392     -1.656469532
           6
  t=        56.00000    1    1
C      -2.142816665     -1.410601609     -1.384074388
C      -0.746326094     -1.462577024     -1.537520264
H      -2.678106572     -0.539077833     -0.818811684
H      -2.778656460     -2.279799784     -1.232524276
H      -0.327472267     -0.562038002     -1.492341337
H       0.209387514     -2.384209557     -1.644483767
           6
  t=        56.50000    1    1
C      -2.154017206     -1.416883385     -1.389827447
C      -0.759982845     -1.484558994     -1.556355689
H      -2.651420379     -0.512304940     -0.837889788
H      -2.814917186     -2.326248997     -1.289031362
H      -0.439014685     -0.593090775     -1.498751097
H       0.263051015     -2.360344198     -1.633145297
           6
  t=        57.00000    1    1
C      -2.165171501     -1.423553984     -1.395145602
C      -0.773852607     -1.508063889     -1.575095527
H      -2.620717539     -0.489171826     -0.862577712
H      -2.848857071     -2.370290638     -1.346614217
H      -0.541802353     -0.607492921     -1.503934069
H       0.303609376     -2.329117486     -1.622669187
           6
  t=        57.50000    1    1
C      -2.176401508     -1.430936009     -1.400145643
C      -0.787907537     -1.533268287     -1.593718175
H      -2.586699610     -0.470305799     -0.892442027
H      -2.879560548     -2.409405807     -1.404644286
H      -0.633818291     -0.600825239     -1.507576082
H       0.329953078     -2.290892152     -1.613297372
           6
  t=        58.00000    1    1
C      -2.187777927     -1.439309854     -1.404942365
C      -0.801976016     -1.559809502     -1.612172561
H      -2.550422210     -0.455975554     -0.926958299
H      -2.906571462     -2.441722647     -1.462422840
H      -0.714964346     -0.575052519     -1.509896010
H       0.341380901     -2.246287117     -1.605274829
           6
  t=        58.50000    1    1
C      -2.199342881     -1.448900444     -1.409650178
C      -0.815900805     -1.586921925     -1.630370572
H      -2.513457165     -0.446132871     -0.965399132
H      -2.929718025     -2.465919019     -1.519234288
H      -0.785210676     -0.536974562     -1.511799884
H       0.337891351     -2.196315554     -1.598825174
           6
  t=        59.00000    1    1
C      -2.211101036     -1.459851506     -1.414387672
C      -0.829676491     -1.613785446     -1.648213613
H      -2.477022743     -0.440711548     -1.007017630
H      -2.948960835     -2.481167224     -1.574391890
H      -0.844368644     -0.494180699     -1.514393261
H       0.320465787     -2.142341606     -1.594038249
           6
  t=        59.50000    1    1
C      -2.222996949     -1.472195802     -1.419271256
C      -0.843409604     -1.639766917     -1.665617862
H      -2.442332367     -0.439563275     -1.051010174
H      -2.964367429     -2.487203198     -1.627297310
H      -0.892358644     -0.452685466     -1.518658379
H       0.290914256     -2.085917092     -1.590945446
           6
  t=        60.00000    1    1
C      -2.234931461     -1.485909662     -1.424415244
C      -0.857264061     -1.664451010     -1.682515959
H      -2.411060393     -0.442490815     -1.096383660
H      -2.976068305     -2.484094626     -1.677456601
H      -0.928766537     -0.416271300     -1.525536320
H       0.251399143     -2.028620113     -1.589533267
           6
  t=        60.50000    1    1
C      -2.246778110     -1.500938499     -1.429936026
C      -0.871452212     -1.687572549     -1.698861032
H      -2.385017504     -0.449143308     -1.142139865
H      -2.984318983     -2.472153413     -1.724413656
H      -0.953273923     -0.387242660     -1.535702747
H       0.204691656     -1.971995339     -1.589752033
           6
  t=        61.00000    1    1
C      -2.258402016     -1.517187541     -1.435929027
C      -0.886231693     -1.708992746     -1.714649167
H      -2.365749532     -0.459065363     -1.187498314
H      -2.989460531     -2.451899837     -1.767803349
H      -0.966139810     -0.366881621     -1.549431464
H       0.154400423     -1.917478833     -1.591383092
           6
  t=        61.50000    1    1
C      -2.269681662     -1.534542896     -1.442469705
C      -0.901933393     -1.728638495     -1.729916594
H      -2.354317832     -0.471848038     -1.231976351
H      -2.991901518     -2.424066527     -1.807318142
H      -0.967989833     -0.355781344     -1.566662785
H       0.105115790     -1.866381973     -1.593945506
           6
  t=        62.00000    1    1
C      -2.280523420     -1.552863793     -1.449609849
C      -0.918911260     -1.746495202     -1.744732145
H      -2.351335692     -0.487074142     -1.275262823
H      -2.992194073     -2.389760280     -1.842794785
H      -0.959754585     -0.354068143     -1.587166987
H       0.062035678     -1.819740084     -1.596706134
           6
  t=        62.50000    1    1
C      -2.290861937     -1.571965808     -1.457376088
C      -0.937421304     -1.762602843     -1.759170422
H      -2.357112754     -0.504326364     -1.317084970
H      -2.991222985     -2.350620738     -1.874319240
H      -0.942480323     -0.361780420     -1.610688016
H       0.029672599     -1.778013648     -1.598901562
           6
  t=        63.00000    1    1
C      -2.300638905     -1.591601704     -1.465760882
C      -0.957495318     -1.777054449     -1.773286170
H      -2.371705435     -0.523217608     -1.357202444
H      -2.990429026     -2.308876683     -1.902351684
H      -0.917478359     -0.378941891     -1.636922546
H       0.010519054     -1.741174730     -1.600052841
           6
  t=        63.50000    1    1
C      -2.309780320     -1.611478829     -1.474709546
C      -0.978888788     -1.789961084     -1.787099647
H      -2.394968606     -0.543337730     -1.395432949
H      -2.991898306     -2.267230837     -1.927836986
H      -0.886345904     -0.405508229     -1.665517286
H       0.004317936     -1.709138830     -1.600160881
           6
  t=        64.00000    1    1
C      -2.318205780     -1.631288775     -1.484116781
C      -1.001126601     -1.801418658     -1.800601451
H      -2.426531922     -0.564223340     -1.431596128
H      -2.998223552     -2.228690549     -1.952227714
H      -0.850793491     -0.441201984     -1.696133576
H       0.008382802     -1.682171486     -1.599658894
           6
  t=        64.50000    1    1
C      -2.325871011     -1.650743167     -1.493856885
C      -1.023625330     -1.811505638     -1.813769231
H      -2.465765784     -0.585438753     -1.465437002
H      -3.011892456     -2.196072041     -1.977171519
H      -0.812587769     -0.485390944     -1.728492259
H       0.018858910     -1.661025586     -1.599197495
           6
  t=        65.00000    1    1
C      -2.332826426     -1.669616711     -1.503839317
C      -1.045813155     -1.820310873     -1.826581291
H      -2.511687649     -0.606598321     -1.496636571
H      -3.034460115     -2.171455006     -2.003918042
H      -0.773485676     -0.537023937     -1.762289924
H       0.031862824     -1.646684059     -1.599486839
           6
  t=        65.50000    1    1
C      -2.339258570     -1.687774865     -1.514050983
C      -1.067198779     -1.827954985     -1.839025820
H      -2.562904909     -0.627512409     -1.524937736
H      -3.065982377     -2.155783651     -2.032764315
H      -0.735156527     -0.594608175     -1.797108932
H       0.044095806     -1.640050998     -1.601201402
           6
  t=        66.00000    1    1
C      -2.345488055     -1.705170163     -1.524561147
C      -1.087393856     -1.834591300     -1.851104704
H      -2.617785870     -0.648263798     -1.550211208
H      -3.104971391     -2.148862727     -2.062917644
H      -0.699027747     -0.656400630     -1.832445770
H       0.053058602     -1.641720533     -1.604918882
           6
  t=        66.50000    1    1
C      -2.351916907     -1.721812673     -1.535488591
C      -1.106115236     -1.840405368     -1.862832903
H      -2.674703322     -0.669000538     -1.572440498
H      -3.148930227     -2.149864702     -2.092877338
H      -0.666219671     -0.720448417     -1.867766582
H       0.057163927     -1.651994086     -1.611096668
           6
  t=        67.00000    1    1
C      -2.358974798     -1.737733825     -1.546960580
C      -1.123155468     -1.845599684     -1.874230904
H      -2.732075155     -0.689859234     -1.591720849
H      -3.195020141     -2.157867685     -2.120922107
H      -0.637700700     -0.784339341     -1.902591736
H       0.055607220     -1.671281752     -1.620079900
           6
  t=        67.50000    1    1
C      -2.367078888     -1.752961465     -1.559088456
C      -1.138358872     -1.850363740     -1.885322599
H      -2.788260813     -0.711050813     -1.608245242
H      -3.240541018     -2.172123562     -2.145414720
H      -0.614457030     -0.845294074     -1.936588697
H       0.048149735     -1.700310354     -1.632033930
           6
  t=        68.00000    1    1
C      -2.376598613     -1.767521384     -1.571959115
C      -1.151618427     -1.854851966     -1.896133649
H      -2.841919381     -0.732841490     -1.622229793
H      -3.283180775     -2.192058383     -2.164947027
H      -0.597145129     -0.900546959     -1.969677904
H       0.034921771     -1.740005810     -1.646889198
           6
  t=        68.50000    1    1
C      -2.387825640     -1.781447790     -1.585633017
C      -1.162892896     -1.859188772     -1.906689738
H      -2.892070919     -0.755488834     -1.633940880
H      -3.321057039     -2.217168120     -2.178374803
H      -0.586010224     -0.947487512     -2.001995249
H       0.016290301     -1.791335004     -1.664361145
           6
  t=        69.00000    1    1
C      -2.400946914     -1.794791410     -1.600140737
C      -1.172224612     -1.863469513     -1.917016517
H      -2.937961830     -0.779202431     -1.643701452
H      -3.352741057     -2.246952294     -2.184882218
H      -0.580915487     -0.983913329     -2.033820683
H      -0.007331852     -1.855050599     -1.683992771
           6
  t=        69.50000    1    1
C      -2.416036720     -1.807620177     -1.615486553
C      -1.179734650     -1.867749262     -1.927137630
H      -2.978984511     -0.804108025     -1.651860262
H      -3.377279029     -2.280930533     -2.184008735
H      -0.581421287     -1.008372015     -2.065451305
H      -0.035617879     -1.931493883     -1.705266047
           6
  t=        70.00000    1    1
C      -2.433042164     -1.820019631     -1.631649074
C      -1.185625749     -1.872035245     -1.937075558
H      -3.014731967     -0.830192342     -1.658752455
H      -3.394225279     -2.318645367     -2.175700755
H      -0.586897748     -1.020453258     -2.097103844
H      -0.068264829     -2.020440579     -1.727669691
           6
  t=        70.50000    1    1
C      -2.451805525     -1.832084630     -1.648590954
C      -1.190144984     -1.876283866     -1.946848893
H      -3.045039705     -0.857266981     -1.664659181
H      -3.403535409     -2.359704808     -2.160246153
H      -0.596794005     -1.020744280     -2.128864045
H      -0.104967737     -2.121273015     -1.750772420
           6
  t=        71.00000    1    1
C      -2.472094420     -1.843914024     -1.666258059
C      -1.193534846     -1.880409164     -1.956475056
H      -3.070010152     -0.884936760     -1.669788464
H      -3.405494049     -2.403796265     -2.138241185
H      -0.610723805     -1.010923345     -2.160611252
H      -0.145605372     -2.232867124     -1.774328060
           6
  t=        71.50000    1    1
C      -2.493636630     -1.855598509     -1.684590268
C      -1.195985401     -1.884320615     -1.965969462
H      -3.089984257     -0.912594212     -1.674329039
H      -3.400623061     -2.450764485     -2.110401232
H      -0.628439147     -0.993412583     -2.191922108
H      -0.190541785     -2.353561446     -1.798388545
           6
  t=        72.00000    1    1
C      -2.516148438     -1.867212916     -1.703528733
C      -1.197621239     -1.887969575     -1.975344324
H      -3.105509572     -0.939480259     -1.678483541
H      -3.389570298     -2.500626247     -2.077410127
H      -0.649687295     -0.970929902     -2.222140428
H      -0.240730477     -2.481068336     -1.823279306
           6
  t=        72.50000    1    1
C      -2.539306819     -1.878820184     -1.723014293
C      -1.198565867     -1.891386345     -1.984607763
H      -3.117361985     -0.964719256     -1.682528358
H      -3.373149196     -2.553495352     -2.039895772
H      -0.674049344     -0.946246468     -2.250472776
H      -0.297378380     -2.612267440     -1.849497646
           6
  t=        73.00000    1    1
C      -2.562774373     -1.890477377     -1.742966670
C      -1.198965014     -1.894679642     -1.993777341
H      -3.126535932     -0.987383251     -1.686781118
H      -3.352393288     -2.609447821     -1.998553885
H      -0.700962003     -0.922019010     -2.276213932
H      -0.361304704     -2.743378587     -1.877482731
           6
  t=        73.50000    1    1
C      -2.586185979     -1.902235225     -1.763312810
C      -1.199028502     -1.898006359     -2.002866828
H      -3.134249987     -1.006583998     -1.691549603
H      -3.328372106     -2.668480510     -1.953988989
H      -0.729808737     -0.900237665     -2.298902722
H      -0.432688395     -2.870829059     -1.907489870
           6
  t=        74.00000    1    1
C      -2.609194927     -1.914142684     -1.783989752
C      -1.199003048     -1.901549128     -2.011890033
H      -3.141768230     -1.021562113     -1.697048914
H      -3.302060134     -2.730413025     -1.906710870
H      -0.759935072     -0.882441221     -2.318314341
H      -0.511136814     -2.991260302     -1.939604632
           6
  t=        74.50000    1    1
C      -2.631525582     -1.926260492     -1.804940638
C      -1.199163697     -1.905491227     -2.020873935
H      -3.150199271     -1.031805252     -1.703377179
H      -3.274059552     -2.794694290     -1.857123627
H      -0.790532340     -0.869900572     -2.334382074
H      -0.595754897     -3.101557252     -1.973747547
           6
  t=        75.00000    1    1
C      -2.652996071     -1.938665948     -1.826102619
C      -1.199790687     -1.910008082     -2.029867330
H      -3.160341150     -1.037264376     -1.710518910
H      -3.244522487     -2.860169304     -1.805641757
H      -0.820696123     -0.863576694     -2.347163362
H      -0.685324807     -3.198951567     -2.009629619
           6
  t=        75.50000    1    1
C      -2.673535946     -1.951442862     -1.847393264
C      -1.201135216     -1.915317563     -2.038936564
H      -3.172623201     -1.038622202     -1.718316778
H      -3.213588846     -2.924845538     -1.752853332
H      -0.849350314     -0.864298280     -2.356853381
H      -0.778199634     -3.280329647     -2.046816575
           6
  t=        76.00000    1    1
C      -2.693100604     -1.964638936     -1.868742956
C      -1.203489704     -1.921681191     -2.048097443
H      -3.187208814     -1.037190032     -1.726417781
H      -3.181817267     -2.986197254     -1.699468947
H      -0.875353148     -0.872791410     -2.364017972
H      -0.871846234     -3.342495250     -2.085026194
           6
  t=        76.50000    1    1
C      -2.711632244     -1.978262959     -1.890079085
C      -1.207193092     -1.929278754     -2.057308921
H      -3.204044873     -1.034515652     -1.734623776
H      -3.149590949     -3.041871274     -1.646199658
H      -0.897670626     -0.889069333     -2.369531515
H      -0.963618520     -3.383993507     -2.124225456
           6
  t=        77.00000    1    1
C      -2.729064560     -1.992300357     -1.911292564
C      -1.212543810     -1.938171275     -2.066529486
H      -3.222852517     -1.032246196     -1.743002088
H      -3.117103577     -3.090044996     -1.593897169
H      -0.915533001     -0.912151683     -2.374343799
H      -1.051605529     -3.405426766     -2.164340046
           6
  t=        77.50000    1    1
C      -2.745300646     -2.006732216     -1.932240265
C      -1.219790428     -1.948386741     -2.075740620
H      -3.243349131     -1.031991059     -1.751784065
H      -3.084641445     -3.129190212     -1.543578391
H      -0.928404464     -0.940549938     -2.379304449
H      -1.134532188     -3.408094251     -2.205198197
           6
  t=        78.00000    1    1
C      -2.760244347     -2.021524180     -1.952768635
C      -1.229126314     -1.959974809     -2.084943370
H      -3.265311322     -1.035184087     -1.761269749
H      -3.052719729     -3.158071251     -1.496220158
H      -0.935919727     -0.972522738     -2.385111606
H      -1.211313650     -3.393356812     -2.246642105
           6
  t=        78.50000    1    1
C      -2.773801037     -2.036628149     -1.972726564
C      -1.240721962     -1.973012924     -2.094147757
H      -3.288607753     -1.042986636     -1.771799873
H      -3.021912989     -3.175722964     -1.452665196
H      -0.937777290     -1.006283545     -2.392318382
H      -1.280904194     -3.362455159     -2.288616356
           6
  t=        79.00000    1    1
C      -2.785890875     -2.051978909     -1.991965096
C      -1.254720269     -1.987561341     -2.103376381
H      -3.313155949     -1.056227920     -1.783762335
H      -2.992716772     -3.181563234     -1.413642593
H      -0.933767996     -1.040069558     -2.401290020
H      -1.342348527     -3.316964045     -2.331144349
           6
  t=        79.50000    1    1
C      -2.796462266     -2.067495312     -2.010332754
C      -1.271211262     -2.003622057     -2.112674121
H      -3.338875451     -1.075428229     -1.797613169
H      -2.965543190     -3.175523053     -1.379806554
H      -0.923818273     -1.072390556     -2.412149640
H      -1.394930637     -3.258865571     -2.374262917
           6
  t=        80.00000    1    1
C      -2.805445412     -2.083077403     -2.027670820
C      -1.290257619     -2.021127568     -2.122126003
H      -3.365783141     -1.100883216     -1.813913274
H      -2.940882028     -3.158212224     -1.351690673
H      -0.907939479     -1.102457408     -2.424728131
H      -1.438217343     -3.190038780     -2.417924751
           6
  t=        80.50000    1    1
C      -2.812874867     -2.098562636     -2.043871817
C      -1.311804150     -2.039842582     -2.131832954
H      -3.393707716     -1.132523732     -1.832965900
H      -2.919210860     -3.131369358     -1.329550249
H      -0.886525960     -1.130420561     -2.438697979
H      -1.471753903     -3.113404286     -2.461976888
           6
  t=        81.00000    1    1
C      -2.819014407     -2.113732178     -2.058882859
C      -1.335584415     -2.059292841     -2.141904780
H      -3.422253613     -1.169734117     -1.854532224
H      -2.901066407     -3.097323810     -1.313403765
H      -0.860775937     -1.157320164     -2.453420327
H      -1.494232680     -3.034466868     -2.506600272
           6
  t=        81.50000    1    1
C      -2.824178756     -2.128509979     -2.072689222
C      -1.361185463     -2.078736236     -2.152329925
H      -3.450992320     -1.211247277     -1.878098558
H      -2.886751353     -3.057836579     -1.303336259
H      -0.832464626     -1.184596296     -2.468130346
H      -1.505174755     -2.961041489     -2.553301520
           6
  t=        82.00000    1    1
C      -2.828582955     -2.142884204     -2.085312735
C      -1.388183809     -2.097199172     -2.162884057
H      -3.479571717     -1.255888701     -1.903168440
H      -2.876403668     -3.014544374     -1.299308251
H      -0.803297218     -1.213559935     -2.482185042
H      -1.505572809     -2.903097025     -2.605672525
           6
  t=        82.50000    1    1
C      -2.832417683     -2.156833951     -2.096800088
C      -1.416155169     -2.113762097     -2.173210083
H      -3.507799022     -1.302411085     -1.929308324
H      -2.870173996     -2.969413318     -1.300952320
H      -0.775009208     -1.245072766     -2.495014114
H      -1.496517061     -2.870259116     -2.668783238
           6
  t=        83.00000    1    1
C      -2.835873416     -2.170328119     -2.107210164
C      -1.444721357     -2.128028262     -2.183104609
H      -3.535749735     -1.349326713     -1.956295085
H      -2.868268698     -2.924910584     -1.307469187
H      -0.749248792     -1.279339267     -2.506098156
H      -1.478314142     -2.866441938     -2.745897394
           6
  t=        83.50000    1    1
C      -2.839136844     -2.183327340     -2.116653719
C      -1.473534541     -2.140317498     -2.192781428
H      -3.563703101     -1.395057883     -1.984072284
H      -2.870808746     -2.883929877     -1.317471571
H      -0.727377875     -1.315990653     -2.515049890
H      -1.451122047     -2.887356386     -2.834978786
           6
  t=        84.00000    1    1
C      -2.842378544     -2.195780263     -2.125372406
C      -1.502197955     -2.151355404     -2.202795205
H      -3.591864940     -1.438268804     -2.012441752
H      -2.877680511     -2.849583855     -1.328888476
H      -0.710366238     -1.354260937     -2.521699811
H      -1.416573991     -2.923957452     -2.928977400
           6
  t=        84.50000    1    1
C      -2.845804387     -2.207616151     -2.133662265
C      -1.530196049     -2.161788576     -2.213736435
H      -3.620247351     -1.477967119     -2.041193957
H      -2.888953263     -2.825061526     -1.339168678
H      -0.698981839     -1.393343069     -2.526048274
H      -1.377510677     -2.967993766     -3.020089998
           6
  t=        85.00000    1    1
C      -2.849715146     -2.218739413     -2.141721704
C      -1.556950583     -2.172007580     -2.226031819
H      -3.648714908     -1.513421976     -2.070314399
H      -2.905185941     -2.813219344     -1.345860630
H      -0.693939620     -1.432514505     -2.528277515
H      -1.336099890     -3.014547480     -3.103151782
           6
  t=        85.50000    1    1
C      -2.854435116     -2.229114252     -2.149624928
C      -1.581923696     -2.182214940     -2.239934987
H      -3.676987028     -1.544224110     -2.099907485
H      -2.927049671     -2.815650204     -1.347413855
H      -0.695845634     -1.471262834     -2.528612114
H      -1.293889787     -3.060960684     -3.175477860
           6
  t=        86.00000    1    1
C      -2.860265187     -2.238811561     -2.157313146
C      -1.604670969     -2.192489459     -2.255565708
H      -3.704698109     -1.570183222     -2.130079925
H      -2.955011617     -2.832388797     -1.343828946
H      -0.705160674     -1.509304397     -2.527298527
H      -1.252028239     -3.105888932     -3.235987886
           6
  t=        86.50000    1    1
C      -2.867453116     -2.247998379     -2.164628765
C      -1.624917095     -2.202825105     -2.272899358
H      -3.731446358     -1.591374173     -2.160914331
H      -2.988978122     -2.861985980     -1.336623369
H      -0.721916133     -1.546482010     -2.524661358
H      -1.211307617     -3.148945169     -3.284928420
           6
  t=        87.00000    1    1
C      -2.876211848     -2.256884065     -2.171375389
C      -1.642575214     -2.213182843     -2.291802268
H      -3.756687136     -1.608129188     -2.192401121
H      -3.028132219     -2.902054475     -1.328293042
H      -0.745542292     -1.582513774     -2.521097091
H      -1.172156842     -3.190436837     -3.323349583
           6
  t=        87.50000    1    1
C      -2.886714691     -2.265682453     -2.177367417
C      -1.657729668     -2.223563676     -2.312095355
H      -3.779717080     -1.620936313     -2.224364899
H      -3.071137443     -2.949774823     -1.321732431
H      -0.774775412     -1.616740820     -2.517146993
H      -1.134809431     -3.230794269     -3.352336494
           6
  t=        88.00000    1    1
C      -2.899061883     -2.274591427     -2.182463264
C      -1.670613127     -2.234058431     -2.333605285
H      -3.799789641     -1.630332401     -2.256465613
H      -3.116532799     -3.002275608     -1.319659859
H      -0.807605049     -1.647974987     -2.513531691
H      -1.099516519     -3.270100020     -3.372542741
           6
  t=        88.50000    1    1
C      -2.913256343     -2.283780912     -2.186583320
C      -1.681580710     -2.244845052     -2.356180406
H      -3.816246015     -1.636834192     -2.288254469
H      -3.163091257     -3.056946878     -1.324174304
H      -0.841304148     -1.674470095     -2.511098698
H      -1.066624737     -3.308048394     -3.384226257
           6
  t=        89.00000    1    1
C      -2.929205349     -2.293387582     -2.189711771
C      -1.691076756     -2.256150769     -2.379684035
H      -3.828615293     -1.640883214     -2.319251800
H      -3.209899877     -3.111621557     -1.336620632
H      -0.872678792     -1.694099326     -2.510690015
H      -1.036522099     -3.344155570     -3.387496940
           6
  t=        89.50000    1    1
C      -2.946737321     -2.303516197     -2.191887707
C      -1.699572783     -2.268202677     -2.403990624
H      -3.836677719     -1.642810986     -2.348995359
H      -3.256248091     -3.164592115     -1.357726754
H      -0.898694595     -1.704784755     -2.512975398
H      -1.009599353     -3.377921236     -3.382449583
           6
  t=        90.00000    1    1
C      -2.965623288     -2.314245409     -2.193190154
C      -1.707476875     -2.281181534     -2.428995675
H      -3.840478045     -1.642854890     -2.377068885
H      -3.301562290     -3.214525791     -1.387782060
H      -0.917310156     -1.705055936     -2.518316323
H      -0.986292515     -3.408820165     -3.369153108
           6
  t=        90.50000    1    1
C      -2.985599708     -2.325633616     -2.193722105
C      -1.715053732     -2.295185714     -2.454626095
H      -3.840283185     -1.641203432     -2.403121255
H      -3.345393459     -3.260354929     -1.426767833
H      -0.928156826     -1.694556527     -2.526722480
H      -0.967138530     -3.436219790     -3.347611378
           6
  t=        91.00000    1    1
C      -3.006390144     -2.337721577     -2.193599888
C      -1.722396884     -2.310214178     -2.480837873
H      -3.836516507     -1.638038820     -2.426888239
H      -3.387411023     -3.301209648     -1.474405189
H      -0.932673056     -1.674288274     -2.537913394
H      -0.952785589     -3.459332754     -3.317786264
           6
  t=        91.50000    1    1
C      -3.027716558     -2.350529639     -2.192950538
C      -1.729472455     -2.326176092     -2.507596440
H      -3.829678267     -1.633536048     -2.448166579
H      -3.427410984     -3.336446634     -1.530192968
H      -0.933612738     -1.646407728     -2.551497880
H      -0.943900250     -3.477310738     -3.279671583
           6
  t=        92.00000    1    1
C      -3.049322682     -2.364065030     -2.191906286
C      -1.736184954     -2.342935427     -2.534863123
H      -3.820259702     -1.627873244     -2.466812127
H      -3.465266169     -3.365586837     -1.593471017
H      -0.934114802     -1.613615042     -2.567091389
H      -0.941170940     -3.489289247     -3.233341393
           6
  t=        92.50000    1    1
C      -3.070980462     -2.378323385     -2.190608518
C      -1.742438302     -2.360346464     -2.562580872
H      -3.808693844     -1.621225589     -2.482716276
H      -3.500898830     -3.388313603     -1.663430204
H      -0.937029098     -1.578607304     -2.584370575
H      -0.945254789     -3.494501024     -3.179031832
           6
  t=        93.00000    1    1
C      -3.092483859     -2.393282852     -2.189214333
C      -1.748170272     -2.378279898     -2.590668054
H      -3.795332129     -1.613732395     -2.495749528
H      -3.534299759     -3.404552123     -1.739125062
H      -0.944632327     -1.543756229     -2.603123865
H      -0.956729444     -3.492310990     -3.117130237
           6
  t=        93.50000    1    1
C      -3.113641798     -2.408879918     -2.187899472
C      -1.753361619     -2.396638698     -2.619016698
H      -3.780527601     -1.605525355     -2.505817507
H      -3.565604213     -3.414663412     -1.819369344
H      -0.958497798     -1.511006488     -2.623197629
H      -0.976039405     -3.482194743     -3.048263311
           6
  t=        94.00000    1    1
C      -3.134280952     -2.425000797     -2.186849053
C      -1.758024634     -2.415350656     -2.647490945
H      -3.764652251     -1.596739488     -2.512813942
H      -3.595142763     -3.419540699     -1.902873501
H      -0.979580062     -1.481897564     -2.644547442
H      -1.003446396     -3.463800816     -2.973284359
           6
  t=        94.50000    1    1
C      -3.154224839     -2.441484371     -2.186255351
C      -1.762231289     -2.434319699     -2.675907829
H      -3.748083636     -1.587534905     -2.516557612
H      -3.623467494     -3.420584941     -1.988420703
H      -1.008403861     -1.457725165     -2.667294876
H      -1.038741333     -3.437337028     -2.893358928
           6
  t=        95.00000    1    1
C      -3.173298617     -2.458133167     -2.186303230
C      -1.766133810     -2.453388509     -2.704044424
H      -3.731195922     -1.578168336     -2.516877568
H      -3.651344043     -3.419563781     -2.074913329
H      -1.045054953     -1.439647156     -2.691634706
H      -1.080968179     -3.403848711     -2.810014352
           6
  t=        95.50000    1    1
C      -3.191328453     -2.474743492     -2.187158262
C      -1.769995784     -2.472318203     -2.731666695
H      -3.714323619     -1.568971787     -2.513628140
H      -3.679654338     -3.418308631     -2.161483560
H      -1.089191031     -1.428652165     -2.717757329
H      -1.128183285     -3.365457417     -2.724889520
           6
  t=        96.00000    1    1
C      -3.208114493     -2.491141357     -2.188961936
C      -1.774261784     -2.490750501     -2.758567272
H      -3.697819224     -1.560306013     -2.506887949
H      -3.709330452     -3.418373538     -2.247427610
H      -1.139989444     -1.425478217     -2.745656397
H      -1.177008764     -3.325852663     -2.639400931
           6
  t=        96.50000    1    1
C      -3.223414631     -2.507213382     -2.191838439
C      -1.779565619     -2.508194818     -2.784626552
H      -3.682139143     -1.552675168     -2.497185854
H      -3.741297586     -3.420639967     -2.332010840
H      -1.196181337     -1.430625487     -2.774910181
H      -1.222664452     -3.290345302     -2.554121504
           6
  t=        97.00000    1    1
C      -3.237021846     -2.522894729     -2.195978035
C      -1.786521068     -2.524203436     -2.809752448
H      -3.668018546     -1.546936519     -2.485105144
H      -3.776141709     -3.424975386     -2.414186108
H      -1.256281284     -1.444154551     -2.805080973
H      -1.260467822     -3.264257476     -2.468782927
           6
  t=        97.50000    1    1
C      -3.248889042     -2.538160314     -2.201634199
C      -1.795453275     -2.538649571     -2.833793501
H      -3.656287831     -1.543945130     -2.470521253
H      -3.813856900     -3.430356625     -2.493001054
H      -1.318947533     -1.465616694     -2.836498441
H      -1.287623049     -3.250015606     -2.382916901
           6
  t=        98.00000    1    1
C      -3.259194428     -2.553053050     -2.208964394
C      -1.806288957     -2.551808667     -2.856607510
H      -3.647423567     -1.543996785     -2.452965533
H      -3.853524829     -3.435386132     -2.567856121
H      -1.383042075     -1.493726544     -2.869834479
H      -1.304459614     -3.246213409     -2.296737859
           6
  t=        98.50000    1    1
C      -3.268174615     -2.567666923     -2.218040958
C      -1.818788838     -2.564203970     -2.878019935
H      -3.641632456     -1.546926993     -2.432193372
H      -3.893768691     -3.438740066     -2.638113341
H      -1.447299959     -1.526368857     -2.905446783
H      -1.313444347     -3.249099721     -2.211988478
           6
  t=        99.00000    1    1
C      -3.276048266     -2.582095681     -2.228893612
C      -1.832705465     -2.576398719     -2.897808902
H      -3.639013809     -1.552479107     -2.408303787
H      -3.933238524     -3.439380042     -2.702983358
H      -1.510425444     -1.560838491     -2.943398031
H      -1.317466677     -3.254846278     -2.131586066
           6
  t=        99.50000    1    1
C      -3.283026303     -2.596418673     -2.241529091
C      -1.847845281     -2.588877704     -2.915786156
H      -3.639597955     -1.560392424     -2.381536179
H      -3.970694545     -3.436599220     -2.761601678
H      -1.571128322     -1.594067910     -2.983672752
H      -1.318819349     -3.260766045     -2.058334141
           6
  t=       100.00000    1    1
C      -3.289306612     -2.610699589     -2.255942940
C      -1.864077277     -2.602037575     -2.931820392
H      -3.643346282     -1.570482432     -2.352189452
H      -4.005083212     -3.430012482     -2.813071780
H      -1.628053864     -1.622894937     -3.026220504
H      -1.319152384     -3.265105574     -1.994498399
           6
  t=       100.50000    1    1
C      -3.295065612     -2.624992719     -2.272092574
C      -1.881315308     -2.616159391     -2.945878781
H      -3.650064833     -1.582593073     -2.320629386
H      -4.035686230     -3.419596053     -2.856699408
H      -1.679947956     -1.644530619     -3.070950142
H      -1.319556438     -3.266837748     -1.941397093
           6
  t=       101.00000    1    1
C      -3.300451579     -2.639335474     -2.289901854
C      -1.899478221     -2.631375850     -2.957977310
H      -3.659438389     -1.596594403     -2.287263761
H      -4.062124931     -3.405625940     -2.892104958
H      -1.725980613     -1.657381306     -3.117805598
H      -1.320755592     -3.265383193     -1.899774861
           6
  t=       101.50000    1    1
C      -3.305597286     -2.653748003     -2.309276151
C      -1.918461860     -2.647654114     -2.968146402
H      -3.671065885     -1.612400201     -2.252535570
H      -4.084200748     -3.388521010     -2.919141498
H      -1.765871083     -1.661597400     -3.166661996
H      -1.323289241     -3.260410046     -1.870225550
           6
  t=       102.00000    1    1
C      -3.310641955     -2.668226393     -2.330098161
C      -1.938133054     -2.664796998     -2.976451470
H      -3.684436492     -1.630024358     -2.216949777
H      -4.101811314     -3.368806547     -2.937867617
H      -1.799804755     -1.659119770     -3.217118038
H      -1.327513067     -3.251834480     -1.853205263
           6
  t=       102.50000    1    1
C      -3.315730107     -2.682741523     -2.352230334
C      -1.958342289     -2.682515251     -2.983004949
H      -3.698930661     -1.649612513     -2.181024590
H      -4.114963475     -3.347102757     -2.948538716
H      -1.828194133     -1.652950145     -3.268402084
H      -1.333686802     -3.239682560     -1.849011268
           6
  t=       103.00000    1    1
C      -3.321010661     -2.697228421     -2.375502074
C      -1.978922620     -2.700493048     -2.987963561
H      -3.713839148     -1.671445584     -2.145313169
H      -4.123900133     -3.324249357     -2.951678785
H      -1.851527904     -1.646360339     -3.319468233
H      -1.342002856     -3.224099262     -1.857777632
           6
  t=       103.50000    1    1
C      -3.326632683     -2.711588598     -2.399702555
C      -1.999686303     -2.718443914     -2.991500024
H      -3.728411633     -1.695866662     -2.110434288
H      -4.129216735     -3.301362915     -2.948134468
H      -1.870285538     -1.642199553     -3.369245308
H      -1.352597523     -3.205362862     -1.879564219
           6
  t=       104.00000    1    1
C      -3.332731087     -2.725702154     -2.424578125
C      -2.020425144     -2.736131355     -2.993793965
H      -3.741928313     -1.723164270     -2.077038463
H      -4.131973731     -3.279815155     -2.939136076
H      -1.884951168     -1.642610535     -3.416839956
H      -1.365519196     -3.183917013     -1.914265597
           6
  t=       104.50000    1    1
C      -3.339402286     -2.739440191     -2.449843759
C      -2.040924016     -2.753368690     -2.995041685
H      -3.753786749     -1.753466926     -2.045704471
H      -4.133774415     -3.261171717     -2.926296141
H      -1.896039302     -1.649059989     -3.461584205
H      -1.380667077     -3.160361212     -1.961415620
           6
  t=       105.00000    1    1
C      -3.346691924     -2.752673421     -2.475201382
C      -2.060978533     -2.770010408     -2.995467115
H      -3.763543207     -1.786678861     -2.016860053
H      -4.136770165     -3.247150792     -2.911513845
H      -1.904073160     -1.662464431     -3.502995404
H      -1.397701813     -3.135430918     -2.020053533
           6
  t=       105.50000    1    1
C      -3.354600029     -2.765286846     -2.500362305
C      -2.080421427     -2.785939545     -2.995333138
H      -3.770894405     -1.822494936     -1.990737506
H      -4.143487360     -3.239471582     -2.896793235
H      -1.909542129     -1.683323465     -3.540748968
H      -1.415903718     -3.109976452     -2.088575039
           6
  t=       106.00000    1    1
C      -3.363109195     -2.777200379     -2.525075491
C      -2.099157353     -2.801051006     -2.994965295
H      -3.775639221     -1.860502233     -1.967380538
H      -4.156407372     -3.239550983     -2.883929425
H      -1.912876525     -1.711850587     -3.574646619
H      -1.433905701     -3.084986916     -2.164451827
           6
  t=       106.50000    1    1
C      -3.372219737     -2.788385813     -2.549159412
C      -2.117190244     -2.815247594     -2.994756515
H      -3.777696937     -1.900307354     -1.946616232
H      -4.177402031     -3.248146473     -2.874197166
H      -1.914478093     -1.748071697     -3.604639748
H      -1.449464308     -3.061566597     -2.244111714
           6
  t=       107.00000    1    1
C      -3.382015818     -2.798877103     -2.572508701
C      -2.134642333     -2.828436036     -2.995191505
H      -3.777131738     -1.941535786     -1.928108763
H      -4.207015655     -3.265155152     -2.868117457
H      -1.914793843     -1.791768598     -3.630867604
H      -1.459064662     -3.041117931     -2.322710162
           6
  t=       107.50000    1    1
C      -3.392689943     -2.808774715     -2.595076665
C      -2.151773029     -2.840535573     -2.996825387
H      -3.774130564     -1.983821375     -1.911380879
H      -4.244155594     -3.289575490     -2.865580428
H      -1.914352482     -1.842359889     -3.653815563
H      -1.457698924     -3.025355163     -2.394290644
           6
  t=       108.00000    1    1
C      -3.404523872     -2.818229810     -2.616844767
C      -2.168870860     -2.851521981     -3.000119347
H      -3.768913052     -2.026864238     -1.895891188
H      -4.286374347     -3.319701485     -2.866162514
H      -1.913670170     -1.899018956     -3.674250861
H      -1.440283415     -3.015598264     -2.453776448
           6
  t=       108.50000    1    1
C      -3.417832226     -2.827410448     -2.637794664
C      -2.185989046     -2.861487278     -3.005215901
H      -3.761663586     -2.070528746     -1.881093387
H      -4.330636563     -3.353467727     -2.869474930
H      -1.913145104     -1.960807299     -3.693174811
H      -1.404887839     -3.011887751     -2.499621697
           6
  t=       109.00000    1    1
C      -3.432902093     -2.836465203     -2.657894000
C      -2.202797684     -2.870624883     -3.011931540
H      -3.752567892     -2.114910708     -1.866403613
H      -4.374115136     -3.388812381     -2.875370421
H      -1.913095717     -2.026662573     -3.712049560
H      -1.354345329     -3.013176940     -2.533667573
           6
  t=       109.50000    1    1
C      -3.449924179     -2.845495151     -2.677106374
C      -2.218740280     -2.879176766     -3.019945503
H      -3.741913047     -2.160358897     -1.851077685
H      -4.414643672     -3.423893742     -2.883974415
H      -1.913781956     -2.095562369     -3.732789052
H      -1.294633822     -3.017893550     -2.558874690
           6
  t=       110.00000    1    1
C      -3.468940497     -2.854557739     -2.695403933
C      -2.233307503     -2.887381605     -3.028935296
H      -3.730144936     -2.207431125     -1.834278895
H      -4.450766224     -3.457132152     -2.895581191
H      -1.915248288     -2.166693847     -3.757581262
H      -1.232287364     -3.024343705     -2.577772157
           6
  t=       110.50000    1    1
C      -3.489868711     -2.863696948     -2.712761899
C      -2.246184978     -2.895435798     -3.038610340
H      -3.717774532     -2.256800963     -1.815382674
H      -4.481488179     -3.487130767     -2.910486464
H      -1.917192331     -2.239403185     -3.788789062
H      -1.172819046     -3.031040247     -2.592083597
           6
  t=       111.00000    1    1
C      -3.512526808     -2.872957013     -2.729161211
C      -2.257294810     -2.903459700     -3.048719135
H      -3.705195298     -2.309209406     -1.794200812
H      -4.506163284     -3.512666594     -2.928886538
H      -1.919111957     -2.313339550     -3.828680545
H      -1.120080749     -3.036854810     -2.602756783
           6
  t=       111.50000    1    1
C      -3.536650621     -2.882378100     -2.744594008
C      -2.266740990     -2.911493150     -3.059070939
H      -3.692699901     -2.365261212     -1.771096426
H      -4.524452997     -3.532820819     -2.950782850
H      -1.920629885     -2.388599477     -3.878729206
H      -1.076404258     -3.041051588     -2.610320145
           6
  t=       112.00000    1    1
C      -3.561905938     -2.891988048     -2.759051572
C      -2.274712410     -2.919514315     -3.069574583
H      -3.680617768     -2.425351365     -1.746897724
H      -4.536297961     -3.546985638     -2.976026457
H      -1.921745485     -2.465843697     -3.939000777
H      -1.043251709     -3.043111104     -2.615218895
           6
  t=       112.50000    1    1
C      -3.587899720     -2.901801169     -2.772526892
C      -2.281416490     -2.927466860     -3.080260374
H      -3.669389629     -2.489534343     -1.722777749
H      -4.541953863     -3.554960507     -3.004322099
H      -1.922958691     -2.546014721     -4.007805356
H      -1.021638506     -3.042737664     -2.617987568
           6
  t=       113.00000    1    1
C      -3.614214763     -2.911818153     -2.785001431
C      -2.287032748     -2.935296358     -3.091271569
H      -3.659537688     -2.557575489     -1.700055296
H      -4.542020042     -3.556923137     -3.035371025
H      -1.925197644     -2.629939485     -4.082111706
H      -1.012347181     -3.039801566     -2.619151229
           6
  t=       113.50000    1    1
C      -3.640429891     -2.922023418     -2.796444027
C      -2.291714685     -2.942985721     -3.102812705
H      -3.651630343     -2.628960827     -1.680038889
H      -4.537507656     -3.553472462     -3.068978344
H      -1.929528463     -2.717916084     -4.158241222
H      -1.015921583     -3.034309059     -2.619208996
           6
  t=       114.00000    1    1
C      -3.666140993     -2.932380718     -2.806800624
C      -2.295596565     -2.950568648     -3.115086385
H      -3.646220408     -2.703040729     -1.663921596
H      -4.529819017     -3.545551913     -3.105204657
H      -1.936810263     -2.809671621     -4.232640240
H      -1.032762887     -3.026269590     -2.618690792
           6
  t=       114.50000    1    1
C      -3.690967170     -2.942831494     -2.816000195
C      -2.298796818     -2.958116477     -3.128257408
H      -3.643838341     -2.779067527     -1.652738858
H      -4.520658517     -3.534452839     -3.144374630
H      -1.947585854     -2.904444054     -4.302204432
H      -1.063220893     -3.015749231     -2.618223506
           6
  t=       115.00000    1    1
C      -3.714549807     -2.953303770     -2.823960845
C      -2.301434154     -2.965714508     -3.142454599
H      -3.644977753     -2.856337040     -1.647306473
H      -4.511987805     -3.521630323     -3.187106346
H      -1.962175005     -3.001254752     -4.364371700
H      -1.107379239     -3.002816952     -2.618376134
           6
  t=       115.50000    1    1
C      -3.736547365     -2.963738748     -2.830601355
C      -2.303671632     -2.973451694     -3.157777327
H      -3.650116689     -2.934131272     -1.648204242
H      -4.505805560     -3.508483197     -3.234221888
H      -1.980666317     -3.098958701     -4.417149224
H      -1.164799280     -2.987577633     -2.619523355
           6
  t=       116.00000    1    1
C      -3.756631367     -2.974131907     -2.835858338
C      -2.305770648     -2.981435569     -3.174284749
H      -3.659743471     -3.011570618     -1.655800358
H      -4.503736044     -3.495956534     -3.286576399
H      -2.002848690     -3.196200933     -4.459229403
H      -1.234378879     -2.970093277     -2.621799833
           6
  t=       116.50000    1    1
C      -3.774473399     -2.984571274     -2.839768419
C      -2.308194151     -2.989821446     -3.191961398
H      -3.674505481     -3.086928812     -1.669883781
H      -4.506502623     -3.484611708     -3.344544209
H      -2.028002005     -3.290875300     -4.490376727
H      -1.313864313     -2.950735372     -2.625025687
           6
  t=       117.00000    1    1
C      -3.789946486     -2.995153067     -2.842504254
C      -2.311449132     -2.998712253     -3.210832762
H      -3.694780659     -3.159008030     -1.689695920
H      -4.513799539     -3.474514051     -3.407606124
H      -2.055235703     -3.381222266     -4.510204427
H      -1.399545824     -2.930023004     -2.628504437
           6
  t=       117.50000    1    1
C      -3.803124798     -3.005988729     -2.844348989
C      -2.316021765     -3.008176323     -3.230961817
H      -3.720444188     -3.227528407     -1.714472423
H      -4.524386977     -3.464796417     -3.474357017
H      -2.083897954     -3.466219890     -4.518314910
H      -1.486762984     -2.907982965     -2.630678870
           6
  t=       118.00000    1    1
C      -3.814155412     -3.017214480     -2.845671410
C      -2.322446499     -3.018306737     -3.252463243
H      -3.751255790     -3.292299477     -1.743287878
H      -4.536476426     -3.454240146     -3.542712626
H      -2.113442935     -3.544934734     -4.514628898
H      -1.569969559     -2.884225525     -2.628877149
           6
  t=       118.50000    1    1
C      -3.823221827     -3.028952113     -2.846890905
C      -2.331193073     -3.029213755     -3.275476551
H      -3.786882697     -3.353240366     -1.774973930
H      -4.548307225     -3.441745608     -3.610289677
H      -2.143377001     -3.616519019     -4.499269163
H      -1.643968864     -2.858013920     -2.619868440
           6
  t=       119.00000    1    1
C      -3.830518183     -3.041284716     -2.848433911
C      -2.342506515     -3.040993140     -3.300034229
H      -3.826887924     -3.410394062     -1.808191584
H      -4.558489210     -3.426572234     -3.674799116
H      -2.173236681     -3.680259731     -4.472640647
H      -1.705818538     -2.828627598     -2.601407451
           6
  t=       119.50000    1    1
C      -3.836244233     -3.054251590     -2.850699175
C      -2.356322230     -3.053669574     -3.325923927
H      -3.870746219     -3.463916767     -1.841614656
H      -4.566063899     -3.408371918     -3.734237322
H      -2.202601429     -3.735628716     -4.435458474
H      -1.755812357     -2.796024228     -2.573887849
           6
  t=       120.00000    1    1
C      -3.840601532     -3.067854523     -2.854036026
C      -2.372348437     -3.067164468     -3.352676626
H      -3.917882423     -3.514009222     -1.874096435
H      -4.570440409     -3.387148729     -3.786939201
H      -2.231098647     -3.782304549     -4.388762269
H      -1.796564050     -2.761235564     -2.540507947
           6
  t=       120.50000    1    1
C      -3.843792786     -3.082071345     -2.858723293
C      -2.390215820     -3.081313571     -3.379693759
H      -3.967712136     -3.560813464     -1.904796453
H      -4.571342766     -3.363200622     -3.831626138
H      -2.258425664     -3.820242913     -4.333967219
H      -1.831221958     -2.726087238     -2.505781586
           6
  t=       121.00000    1    1
C      -3.846039215     -3.096874085     -2.864951883
C      -2.409564396     -3.095886352     -3.406368507
H      -4.019594592     -3.604296555     -1.933279163
H      -4.568726804     -3.337040864     -3.867428991
H      -2.284355818     -3.849960706     -4.273079021
H      -1.862351108     -2.692662298     -2.473963597
           6
  t=       121.50000    1    1
C      -3.847607144     -3.112236123     -2.872834003
C      -2.430073455     -3.110577423     -3.432110373
H      -4.072702433     -3.644198309     -1.959554532
H      -4.562678551     -3.309349773     -3.893778584
H      -2.308623681     -3.872968002     -4.208968941
H      -1.891606322     -2.662986575     -2.448441074
           6
  t=       122.00000    1    1
C      -3.848782522     -3.128127584     -2.882435307
C      -2.451502902     -3.125005392     -3.456312670
H      -4.126089051     -3.680172806     -1.984036144
H      -4.553433985     -3.280873106     -3.910275525
H      -2.330717917     -3.892133258     -4.145479092
H      -1.919663137     -2.638692353     -2.431804507
           6
  t=       122.50000    1    1
C      -3.849773935     -3.144527367     -2.893785371
C      -2.473746594     -3.138726353     -3.478364453
H      -4.178956046     -3.711870569     -2.007347683
H      -4.541492454     -3.252250886     -3.916865330
H      -2.349803261     -3.911824746     -4.087209989
H      -1.946435247     -2.620661653     -2.425811565
           6
  t=       123.00000    1    1
C      -3.850728687     -3.161425164     -2.906838566
C      -2.496768061     -3.151276917     -3.497776709
H      -4.230553897     -3.738841492     -2.030134472
H      -4.527602593     -3.224046096     -3.914126452
H      -2.364864037     -3.937191739     -4.038432319
H      -1.971618525     -2.609276765     -2.431338416
           6
  t=       123.50000    1    1
C      -3.851778343     -3.178802079     -2.921451502
C      -2.520517693     -3.162297379     -3.514316413
H      -4.280140192     -3.760677620     -2.052974502
H      -4.512703412     -3.196768877     -3.903304996
H      -2.374971528     -3.972557450     -4.001684180
H      -1.994968519     -2.604623557     -2.448508099
           6
  t=       124.00000    1    1
C      -3.853072885     -3.196634117     -2.937431225
C      -2.544880204     -3.171668593     -3.528004109
H      -4.326947517     -3.777015815     -2.076334469
H      -4.497836513     -3.170888198     -3.885986967
H      -2.379637052     -4.019544815     -3.977160943
H      -2.016286338     -2.606678896     -2.477126938
           6
  t=       124.50000    1    1
C      -3.854795463     -3.214890337     -2.954542666
C      -2.569629182     -3.179587962     -3.539080132
H      -4.370191626     -3.787568085     -2.100518766
H      -4.484165178     -3.146863489     -3.864069532
H      -2.379163253     -4.076104871     -3.963039852
H      -2.035405771     -2.615336795     -2.516753371
           6
  t=       125.00000    1    1
C      -3.857130166     -3.233538104     -2.972503536
C      -2.594438422     -3.186469342     -3.547910319
H      -4.409185354     -3.792171456     -2.125595430
H      -4.473126627     -3.125105773     -3.839905303
H      -2.374626071     -4.137658630     -3.956675200
H      -2.052194244     -2.630385683     -2.566616906
           6
  t=       125.50000    1    1
C      -3.860234963     -3.252546472     -2.990979552
C      -2.618930596     -3.192779960     -3.554885127
H      -4.443391612     -3.790818918     -2.151443631
H      -4.466612879     -3.105872009     -3.816379325
H      -2.367432232     -4.199106940     -3.955713377
H      -2.066503903     -2.651476202     -2.625637620
           6
  t=       126.00000    1    1
C      -3.864235058     -3.271893155     -3.009607067
C      -2.642734317     -3.198940428     -3.560396161
H      -4.472461682     -3.783656391     -2.177769627
H      -4.466848093     -3.089147367     -3.796651567
H      -2.358909858     -4.256153522     -3.958489139
H      -2.078064636     -2.678027200     -2.692281378
           6
  t=       126.50000    1    1
C      -3.869239739     -3.291555419     -3.028045375
C      -2.665541005     -3.205314061     -3.564847598
H      -4.496250693     -3.771009744     -2.204121860
H      -4.475864499     -3.074663890     -3.783570879
H      -2.350120241     -4.305709270     -3.964030281
H      -2.086302454     -2.709011618     -2.764366775
           6
  t=       127.00000    1    1
C      -3.875359676     -3.311497534     -3.046046065
C      -2.687146309     -3.212222601     -3.568672945
H      -4.514878474     -3.753427004     -2.229860924
H      -4.494845910     -3.062062492     -3.778986857
H      -2.341920919     -4.345799318     -3.971822285
H      -2.090172494     -2.742807363     -2.838992626
           6
  t=       127.50000    1    1
C      -3.882741824     -3.331662314     -3.063503023
C      -2.707464664     -3.219946099     -3.572325281
H      -4.528725301     -3.731628291     -2.254095515
H      -4.523715617     -3.051176499     -3.783369582
H      -2.335044467     -4.375420272     -3.981651708
H      -2.087907085     -2.777208789     -2.912659253
           6
  t=       128.00000    1    1
C      -3.891585655     -3.351966423     -3.080447106
C      -2.726519107     -3.228729872     -3.576258528
H      -4.538401628     -3.706395733     -2.275637630
H      -4.561149627     -3.042241502     -3.795952008
H      -2.330139365     -4.394227839     -3.993492791
H      -2.076919952     -2.809612370     -2.981571004
           6
  t=       128.50000    1    1
C      -3.902117362     -3.372307019     -3.096999181
C      -2.744385148     -3.238757874     -3.580863442
H      -4.544707286     -3.678453486     -2.293058746
H      -4.605028488     -3.035875333     -3.815223572
H      -2.327736522     -4.402305764     -4.007432550
H      -2.054404802     -2.837625843     -3.042483621
           6
  t=       129.00000    1    1
C      -3.914537818     -3.392577089     -3.113316092
C      -2.761074523     -3.250082792     -3.586359372
H      -4.548534841     -3.648320972     -2.304890576
H      -4.652947438     -3.032963277     -3.839430546
H      -2.328223559     -4.400076020     -4.023672391
H      -2.018952845     -2.860069887     -3.093935098
           6
  t=       129.50000    1    1
C      -3.928998876     -3.412683793     -3.129547757
C      -2.776415295     -3.262605019     -3.592763764
H      -4.550686741     -3.616207528     -2.309861340
H      -4.702647943     -3.034510417     -3.866920308
H      -2.331927214     -4.388111214     -4.042498962
H      -1.971932723     -2.877450603     -3.136568963
           6
  t=       130.00000    1    1
C      -3.945589657     -3.432554939     -3.145810682
C      -2.790080298     -3.276135355     -3.599967277
H      -4.551693486     -3.581994289     -2.307224951
H      -4.752193130     -3.041513758     -3.896214297
H      -2.339169477     -4.367013321     -4.064248902
H      -1.917265307     -2.891402512     -3.172187830
           6
  t=       130.50000    1    1
C      -3.964337606     -3.452129838     -3.162171110
C      -2.801723957     -3.290487251     -3.607826405
H      -4.551655890     -3.545345502     -2.297033109
H      -4.800041840     -3.054847939     -3.926018375
H      -2.350234079     -4.337363966     -4.089285363
H      -1.859897931     -2.903751149     -3.202591626
           6
  t=       131.00000    1    1
C      -3.985205375     -3.471353648     -3.178635233
C      -2.811127166     -3.305513869     -3.616201419
H      -4.550226140     -3.505869743     -2.280284212
H      -4.844945405     -3.075184956     -3.955230054
H      -2.365277101     -4.299851230     -4.118034338
H      -1.804326836     -2.915930978     -3.229049643
           6
  t=       131.50000    1    1
C      -4.008096107     -3.490169353     -3.195157236
C      -2.818249710     -3.321103597     -3.624959837
H      -4.546764562     -3.463288363     -2.258791217
H      -4.885819683     -3.102995873     -3.982900772
H      -2.384281892     -4.255378862     -4.151054530
H      -1.753925763     -2.928855184     -3.252263301
           6
  t=       132.00000    1    1
C      -4.032843710     -3.508507261     -3.211662196
C      -2.823222362     -3.337147583     -3.633960308
H      -4.540625983     -3.417707739     -2.234920096
H      -4.921736848     -3.138423822     -4.008146517
H      -2.406922575     -4.205344006     -4.189022834
H      -1.711014453     -2.943004563     -3.272650812
           6
  t=       132.50000    1    1
C      -4.059221995     -3.526280883     -3.228062803
C      -2.826302060     -3.353505220     -3.643040330
H      -4.531337399     -3.369642336     -2.211206050
H      -4.951989710     -3.181364322     -4.030180636
H      -2.432483037     -4.151783659     -4.232945432
H      -1.677122828     -2.958638166     -3.290434107
           6
  t=       133.00000    1    1
C      -4.086946486     -3.543388862     -3.244272530
C      -2.827835796     -3.369996406     -3.652001965
H      -4.518700139     -3.319977003     -2.190066538
H      -4.976132636     -3.231498616     -4.048352440
H      -2.459838324     -4.097308309     -4.284320510
H      -1.653275222     -2.975933152     -3.305737824
           6
  t=       133.50000    1    1
C      -4.115670943     -3.559737678     -3.260211887
C      -2.828218628     -3.386438960     -3.660631571
H      -4.502874226     -3.269864461     -2.173546506
H      -4.994064620     -3.288222292     -4.062264764
H      -2.487737874     -4.044524848     -4.344871630
H      -1.640081478     -2.995019501     -3.318683498
           6
  t=       134.00000    1    1
C      -4.145026007     -3.575245644     -3.275796987
C      -2.827803133     -3.402717384     -3.668759354
H      -4.484273598     -3.220516401     -2.163309324
H      -5.005934070     -3.350852084     -4.071785546
H      -2.515358239     -3.995064117     -4.416026014
H      -1.638002655     -3.016087535     -3.329335360
           6
  t=       134.50000    1    1
C      -4.174637475     -3.589851496     -3.290928126
C      -2.826850262     -3.418829883     -3.676346775
H      -4.463524801     -3.173149464     -2.160689722
H      -5.012208076     -3.418602111     -4.077085671
H      -2.542604602     -3.948990779     -4.497851404
H      -1.647389408     -3.039393238     -3.337767324
           6
  t=       135.00000    1    1
C      -4.204115955     -3.603516213     -3.305484856
C      -2.825548079     -3.434886533     -3.683544262
H      -4.441439074     -3.128854928     -2.166694929
H      -5.013793228     -3.490662511     -4.078738759
H      -2.570053459     -3.904867659     -4.588353827
H      -1.668346406     -3.065245669     -3.344035288
           6
  t=       135.50000    1    1
C      -4.233046326     -3.616209184     -3.319322575
C      -2.824069609     -3.451042232     -3.690670366
H      -4.418977741     -3.088656066     -2.182012676
H      -5.012122225     -3.566216764     -4.077776329
H      -2.598437487     -3.860782100     -4.683721677
H      -1.700631648     -3.093869785     -3.348158870
           6
  t=       136.00000    1    1
C      -4.260971495     -3.627895614     -3.332287553
C      -2.822669248     -3.467410656     -3.698122989
H      -4.397149652     -3.053543097     -2.206978248
H      -5.009160894     -3.644597201     -4.075676727
H      -2.628125142     -3.815364504     -4.779344997
H      -1.743317286     -3.125372719     -3.350024945
           6
  t=       136.50000    1    1
C      -4.287358856     -3.638489035     -3.344236530
C      -2.821793724     -3.484027176     -3.706303226
H      -4.376969371     -3.024954530     -2.241171518
H      -5.007310656     -3.725196036     -4.074479844
H      -2.658571162     -3.768762402     -4.870666029
H      -1.794555885     -3.159385065     -3.349499208
           6
  t=       137.00000    1    1
C      -4.311758195     -3.647911438     -3.355010395
C      -2.821934711     -3.500948844     -3.715585863
H      -4.359622557     -3.003977653     -2.283523211
H      -5.008792553     -3.807573638     -4.076527930
H      -2.688745805     -3.721696053     -4.954147430
H      -1.851476483     -3.194788635     -3.346276127
           6
  t=       137.50000    1    1
C      -4.333866067     -3.656157835     -3.364554264
C      -2.823570744     -3.518237947     -3.726249543
H      -4.346276326     -2.990708060     -2.333143632
H      -5.014931344     -3.891735697     -4.083083487
H      -2.718001025     -3.674569260     -5.027640815
H      -1.910148916     -3.230395558     -3.339465033
           6
  t=       138.00000    1    1
C      -4.353533000     -3.663279854     -3.372987022
C      -2.827217048     -3.535948999     -3.738528687
H      -4.338036403     -2.984828058     -2.388919328
H      -5.025730270     -3.977582908     -4.093832997
H      -2.745811428     -3.627904799     -5.089885685
H      -1.965631417     -3.264835346     -3.327543504
           6
  t=       138.50000    1    1
C      -4.370736171     -3.669406949     -3.380593090
C      -2.833370778     -3.554137146     -3.752636942
H      -4.335952215     -2.985658849     -2.449279519
H      -5.040064919     -4.064467173     -4.107104343
H      -2.771707204     -3.582292648     -5.140149952
H      -2.012816800     -3.296645236     -3.308551756
           6
  t=       139.00000    1    1
C      -4.385550838     -3.674766417     -3.387786862
C      -2.842357944     -3.572823676     -3.768729738
H      -4.340896313     -2.992028114     -2.512029185
H      -5.056238477     -4.151100792     -4.120468749
H      -2.795326304     -3.538323776     -5.177961369
H      -2.048110008     -3.324732261     -3.280795940
           6
  t=       139.50000    1    1
C      -4.398107272     -3.679673674     -3.395054743
C      -2.854203244     -3.591945353     -3.786822097
H      -4.353413190     -3.002217598     -2.574305908
H      -5.072535444     -4.235769202     -4.131478898
H      -2.816449862     -3.496642396     -5.203011026
H      -2.071054334     -3.348880110     -3.243919893
           6
  t=       140.00000    1    1
C      -4.408570549     -3.684517959     -3.402903090
C      -2.868622646     -3.611347240     -3.806733006
H      -4.373610378     -3.013856167     -2.632666054
H      -5.087548594     -4.316651468     -4.138179138
H      -2.835024744     -3.457932831     -5.215203841
H      -2.084420062     -3.369804663     -3.199541279
           6
  t=       140.50000    1    1
C      -4.417123862     -3.689736770     -3.411817305
C      -2.885166944     -3.630828701     -3.828129968
H      -4.401216388     -3.023957624     -2.683314572
H      -5.100255389     -4.392061943     -4.139290565
H      -2.851125400     -3.422886936     -5.214642853
H      -2.092596508     -3.388663535     -3.150809056
           6
  t=       141.00000    1    1
C      -4.423952237     -3.695763439     -3.422211066
C      -2.903372877     -3.650194140     -3.850624004
H      -4.435816348     -3.029352208     -2.722646726
H      -5.109961309     -4.460575474     -4.134173039
H      -2.864888837     -3.392183965     -5.201563413
H      -2.099871360     -3.406539619     -3.101438438
           6
  t=       141.50000    1    1
C      -4.429232773     -3.702935576     -3.434345369
C      -2.922846288     -3.669284589     -3.873848697
H      -4.477057327     -3.027670137     -2.748266845
H      -5.116205416     -4.521069341     -4.122699931
H      -2.876482335     -3.366454595     -5.176348165
H      -2.109477665     -3.424166081     -3.054825228
           6
  t=       142.00000    1    1
C      -4.433135984     -3.711402894     -3.448258110
C      -2.943284701     -3.687985376     -3.897488438
H      -4.524617397     -3.018464780     -2.760014326
H      -5.118681789     -4.572682098     -4.105065260
H      -2.886070034     -3.346216448     -5.139610994
H      -2.123451521     -3.441915852     -3.013631284
           6
  t=       142.50000    1    1
C      -4.435856284     -3.721095132     -3.463753909
C      -2.964450099     -3.706215421     -3.921241291
H      -4.577822491     -3.003634795     -2.760191999
H      -5.117269942     -4.614841820     -4.081720186
H      -2.893796036     -3.331788467     -5.092526463
H      -2.142962920     -3.459946583     -2.979853893
           6
  t=       143.00000    1    1
C      -4.437614786     -3.731804909     -3.480505048
C      -2.986167337     -3.723918965     -3.944775718
H      -4.635423813     -2.986555416     -2.752571563
H      -5.112040591     -4.647220730     -4.053239769
H      -2.899713804     -3.323173438     -5.037123210
H      -2.168588765     -3.478343516     -2.954973167
           6
  t=       143.50000    1    1
C      -4.438653214     -3.743282713     -3.498148697
C      -3.008325163     -3.741082684     -3.967688141
H      -4.695644002     -2.970937700     -2.741229686
H      -5.103259288     -4.669757423     -4.020305651
H      -2.903680996     -3.319804719     -4.976813811
H      -2.200428523     -3.497155505     -2.939950460
           6
  t=       144.00000    1    1
C      -4.439216687     -3.755307251     -3.516352674
C      -3.030861253     -3.757763773     -3.989494781
H      -4.756516492     -2.959894063     -2.729600034
H      -5.091398079     -4.682680116     -3.983769808
H      -2.905259503     -3.320324530     -4.916540039
H      -2.238236716     -3.516355045     -2.935281085
           6
  t=       144.50000    1    1
C      -4.439534146     -3.767704748     -3.534842745
C      -3.053748083     -3.774114116     -4.009620306
H      -4.816205604     -2.955558591     -2.720108983
H      -5.077153677     -4.686589101     -3.944675592
H      -2.903589698     -3.322330325     -4.862712354
H      -2.281611901     -3.535871147     -2.941208009
           6
  t=       145.00000    1    1
C      -4.439802498     -3.780320939     -3.553392274
C      -3.076988058     -3.790383986     -4.027461397
H      -4.873148820     -2.959151072     -2.714316244
H      -5.061508737     -4.682661303     -3.904224606
H      -2.897322946     -3.322344657     -4.822430944
H      -2.330107660     -3.555640551     -2.957759219
           6
  t=       145.50000    1    1
C      -4.440186313     -3.793000961     -3.571804920
C      -3.100587161     -3.806846873     -4.042575294
H      -4.926062109     -2.971123051     -2.713102004
H      -5.045807083     -4.672747377     -3.863742706
H      -2.884869412     -3.316744915     -4.801438674
H      -2.383221777     -3.575570135     -2.984601111
           6
  t=       146.00000    1    1
C      -4.440842000     -3.805582428     -3.589902895
C      -3.124484211     -3.823615721     -4.054891131
H      -4.973780409     -2.991454917     -2.716920983
H      -5.031760884     -4.659285498     -3.824651671
H      -2.865201882     -3.303845575     -4.801468443
H      -2.440299645     -3.595515994     -3.021087167
           6
  t=       146.50000    1    1
C      -4.441917663     -3.817876418     -3.607520667
C      -3.148475755     -3.840538403     -4.064801462
H      -5.015267947     -3.019783536     -2.725937089
H      -5.021509166     -4.645369527     -3.788417689
H      -2.838859175     -3.285229842     -4.819284971
H      -2.500358701     -3.615228044     -3.066117444
           6
  t=       147.00000    1    1
C      -4.443549223     -3.829675781     -3.624509279
C      -3.172237284     -3.857297348     -4.072980133
H      -5.049678301     -3.055499785     -2.740087960
H      -5.017503842     -4.634511380     -3.756358457
H      -2.807839740     -3.264652679     -4.849093773
H      -2.562042171     -3.634300911     -3.117976705
           6
  t=       147.50000    1    1
C      -4.445879576     -3.840803309     -3.640751612
C      -3.195420318     -3.873572981     -4.080165461
H      -5.076346575     -3.097836394     -2.759125594
H      -5.022082811     -4.629979075     -3.729438826
H      -2.774714688     -3.246148776     -4.885299572
H      -2.623555619     -3.652118688     -3.174141378
           6
  t=       148.00000    1    1
C      -4.449107417     -3.851183332     -3.656175389
C      -3.217736655     -3.889147939     -4.087074854
H      -5.094777511     -3.145942589     -2.782666442
H      -5.036815735     -4.633839743     -3.708190111
H      -2.741959549     -3.232932106     -4.923692542
H      -2.682415642     -3.667742715     -3.230986346
           6
  t=       148.50000    1    1
C      -4.453523224     -3.860904461     -3.670751081
C      -3.239016256     -3.903949917     -4.094422249
H      -5.104734758     -3.198781815     -2.810165288
H      -5.061921451     -4.646279484     -3.692817371
H      -2.711623483     -3.227058762     -4.961474637
H      -2.735155489     -3.679773029     -3.283494626
           6
  t=       149.00000    1    1
C      -4.459481488     -3.870203134     -3.684481761
C      -3.259206461     -3.918025338     -4.102902998
H      -5.106240034     -3.255124829     -2.840757418
H      -5.096302563     -4.665845060     -3.683503558
H      -2.685218981     -3.229736839     -4.996902712
H      -2.777741807     -3.686313588     -3.325768936
           6
  t=       149.50000    1    1
C      -4.467344094     -3.879386733     -3.697400597
C      -3.278315598     -3.931495769     -4.113106441
H      -5.099562385     -3.313633555     -2.873181493
H      -5.138013607     -4.690255402     -3.680554527
H      -2.663739151     -3.241615399     -5.028953911
H      -2.806446571     -3.685223232     -3.352369994
           6
  t=       150.00000    1    1
C      -4.477406281     -3.888768927     -3.709583701
C      -3.296302031     -3.944459653     -4.125326061
H      -5.085260102     -3.372882335     -2.905812705
H      -5.184768801     -4.717162862     -3.684308566
H      -2.647785411     -3.262994257     -5.057074611
H      -2.819374024     -3.675064851     -3.360733978
           6
  t=       150.50000    1    1
C      -4.489833086     -3.898662654     -3.721157687
C      -3.312973288     -3.956899250     -4.139453481
H      -5.064307332     -3.431187642     -2.936423329
H      -5.234381099     -4.744498678     -3.695219415
H      -2.637775480     -3.294074812     -5.080989116
H      -2.817646245     -3.655871879     -3.352693277
           6
  t=       151.00000    1    1
C      -4.504596618     -3.909384325     -3.732325129
C      -3.328040394     -3.968668785     -4.155077570
H      -5.038364244     -3.486485508     -2.961923797
H      -5.284928356     -4.770538135     -3.713749019
H      -2.634037273     -3.335031118     -5.100495034
H      -2.804972960     -3.629225672     -3.333562968
           6
  t=       151.50000    1    1
C      -4.521458043     -3.921234527     -3.743386305
C      -3.341252708     -3.979565405     -4.171700598
H      -5.009873896     -3.536465194     -2.978379242
H      -5.334744246     -4.793862539     -3.740072101
H      -2.636820683     -3.385887344     -5.115301585
H      -2.786159969     -3.597666940     -3.309746777
           6
  t=       152.00000    1    1
C      -4.540081741     -3.934471020     -3.754718074
C      -3.352476587     -3.989398374     -4.188900325
H      -4.981398655     -3.579078771     -2.981451092
H      -5.382498835     -4.813290924     -3.774062946
H      -2.646330492     -3.446554089     -5.125114634
H      -2.765361650     -3.563715360     -3.286543864
           6
  t=       152.50000    1    1
C      -4.560126747     -3.949255692     -3.766678869
C      -3.361758997     -3.998046641     -4.206362293
H      -4.954636307     -3.613156248     -2.967790128
H      -5.427224879     -4.827929441     -3.815244343
H      -2.662597972     -3.516611005     -5.129848661
H      -2.745319375     -3.529368491     -3.267342196
           6
  t=       153.00000    1    1
C      -4.581337633     -3.965615553     -3.779449273
C      -3.369284819     -4.005464588     -4.223830508
H      -4.929747393     -3.638825118     -2.936753362
H      -5.468144582     -4.837128336     -3.862852090
H      -2.685394439     -3.595200092     -5.129791976
H      -2.727719714     -3.496228342     -3.254159209
           6
  t=       153.50000    1    1
C      -4.603585587     -3.983450683     -3.792939286
C      -3.375314017     -4.011665577     -4.241043405
H      -4.905539640     -3.657552267     -2.891203982
H      -5.504517207     -4.840349135     -3.915987190
H      -2.714099242     -3.681091307     -5.125853196
H      -2.713553533     -3.465627917     -3.248311238
           6
  t=       154.00000    1    1
C      -4.626792705     -4.002572075     -3.806849942
C      -3.380172829     -4.016715954     -4.257691676
H      -4.880513805     -3.671697168     -2.836662632
H      -5.535605545     -4.837130977     -3.973622055
H      -2.747450752     -3.772775569     -5.119912505
H      -2.703359890     -3.438639301     -3.250673047
           6
  t=       154.50000    1    1
C      -4.650851169     -4.022765635     -3.820819546
C      -3.384226446     -4.020703530     -4.273406722
H      -4.853854987     -3.683837295     -2.779402923
H      -5.560742637     -4.827043369     -4.034592395
H      -2.783497390     -3.868778599     -5.114840242
H      -2.697505416     -3.416094533     -3.261966916
           6
  t=       155.00000    1    1
C      -4.675576677     -4.043820414     -3.834544474
C      -3.387884297     -4.023711074     -4.287763714
H      -4.825582771     -3.696157439     -2.724858778
H      -5.579605061     -4.809981019     -4.097760175
H      -2.819615078     -3.967967710     -5.114354711
H      -2.696235503     -3.398574134     -3.282858641
           6
  t=       155.50000    1    1
C      -4.700736741     -4.065538859     -3.847811109
C      -3.391522581     -4.025775423     -4.300349109
H      -4.796358831     -3.710080070     -2.676966977
H      -5.592332374     -4.786375721     -4.162160989
H      -2.853111012     -4.069866212     -5.122308284
H      -2.699729314     -3.386615586     -3.313996541
           6
  t=       156.00000    1    1
C      -4.726071072     -4.087737462     -3.860450602
C      -3.395373339     -4.026867373     -4.310910361
H      -4.767297210     -3.726680495     -2.638497239
H      -5.599596341     -4.756887123     -4.227031545
H      -2.882328413     -4.174898103     -5.141063137
H      -2.708194406     -3.380594526     -3.356033192
           6
  t=       156.50000    1    1
C      -4.751303130     -4.110239395     -3.872276019
C      -3.399460705     -4.026962140     -4.319502237
H      -4.739897141     -3.746988343     -2.611779167
H      -5.602625454     -4.722213394     -4.291737879
H      -2.907392383     -4.283593616     -5.169920633
H      -2.721785529     -3.380655284     -3.409546479
           6
  t=       157.00000    1    1
C      -4.775997161     -4.132798607     -3.883166586
C      -3.403840460     -4.026281090     -4.326532726
H      -4.715864409     -3.770956371     -2.598873651
H      -5.602864591     -4.684078329     -4.355390457
H      -2.930087838     -4.394395121     -5.205581401
H      -2.740094737     -3.386973087     -3.473242034
           6
  t=       157.50000    1    1
C      -4.799728919     -4.155167160     -3.893102612
C      -3.408554188     -4.025185801     -4.332576615
H      -4.696569457     -3.798169179     -2.600113568
H      -5.601833496     -4.644493427     -4.417718506
H      -2.952888383     -4.504727616     -5.243439387
H      -2.762317933     -3.399172708     -3.545049480
           6
  t=       158.00000    1    1
C      -4.822107717     -4.177147892     -3.902087914
C      -3.413708115     -4.024072129     -4.338174307
H      -4.683077990     -3.828475325     -2.614898723
H      -5.601199290     -4.604932403     -4.479042518
H      -2.977497418     -4.611967902     -5.279310704
H      -2.787408444     -3.416187514     -3.622947637
           6
  t=       158.50000    1    1
C      -4.842798944     -4.198586246     -3.910135791
C      -3.419529607     -4.023402956     -4.343840756
H      -4.676312281     -3.861713483     -2.642384479
H      -5.602439441     -4.566438230     -4.539763251
H      -3.004710648     -4.713534019     -5.310186284
H      -2.813448685     -3.436043930     -3.704094996
           6
  t=       159.00000    1    1
C      -4.861552580     -4.219377683     -3.917284881
C      -3.426386240     -4.023720370     -4.350100920
H      -4.677164190     -3.897640334     -2.681605287
H      -5.606436611     -4.529571298     -4.600003979
H      -3.034677678     -4.807192272     -5.334248182
H      -2.837113794     -3.455444867     -3.784436121
           6
  t=       159.50000    1    1
C      -4.878245275     -4.239479128     -3.923643760
C      -3.434762827     -4.025605873     -4.357473034
H      -4.686385609     -3.935893647     -2.731161825
H      -5.613205959     -4.494413878     -4.659356839
H      -3.067095682     -4.891448786     -5.350750711
H      -2.853632488     -3.469748464     -3.859055004
           6
  t=       160.00000    1    1
C      -4.892851035     -4.258891808     -3.929414618
C      -3.445194379     -4.029619296     -4.366392192
H      -4.704568881     -3.975940323     -2.789109382
H      -5.622024530     -4.460815061     -4.716807331
H      -3.101455104     -4.965402122     -5.359619715
H      -2.857579600     -3.473854763     -3.923391350
           6
  t=       160.50000    1    1
C      -4.905437649     -4.277649852     -3.934901026
C      -3.458035826     -4.036129022     -4.377058350
H      -4.732069766     -4.017032316     -2.852701455
H      -5.631705984     -4.428597758     -4.770913850
H      -3.137231028     -5.028536940     -5.361154514
H      -2.845273704     -3.464408052     -3.975334092
           6
  t=       161.00000    1    1
C      -4.916162208     -4.295820287     -3.940515568
C      -3.473221602     -4.045118776     -4.389329820
H      -4.768742993     -4.058107970     -2.918184923
H      -5.640947719     -4.397727160     -4.820153586
H      -3.174026942     -5.080581813     -5.355877298
H      -2.817468571     -3.442171471     -4.016409057
           6
  t=       161.50000    1    1
C      -4.925240437     -4.313506704     -3.946813580
C      -3.490310811     -4.056249026     -4.402872400
H      -4.813886446     -4.097671345     -2.980255602
H      -5.648636895     -4.368384103     -4.863135014
H      -3.211608058     -5.121312354     -5.344301522
H      -2.778897006     -3.411495910     -4.050163547
           6
  t=       162.00000    1    1
C      -4.932917060     -4.330855261     -3.954499276
C      -3.508722153     -4.069065207     -4.417358512
H      -4.866434287     -4.133769569     -3.031705360
H      -5.653963285     -4.340927935     -4.898779868
H      -3.249842784     -5.150525212     -5.326866567
H      -2.735577197     -3.377853111     -4.079956700
           6
  t=       162.50000    1    1
C      -4.939402206     -4.348023524     -3.964323608
C      -3.527942458     -4.083165415     -4.432556213
H      -4.925587411     -4.164362373     -3.064439373
H      -5.656344067     -4.315820662     -4.926370300
H      -3.288585955     -5.167989384     -5.303922819
H      -2.692647185     -3.345963800     -4.108066454
           6
  t=       163.00000    1    1
C      -4.944805570     -4.365099288     -3.976784397
C      -3.547616901     -4.098259839     -4.448317689
H      -4.991309448     -4.188167401     -3.073009121
H      -5.655368936     -4.293609102     -4.945587018
H      -3.327618003     -5.173498641     -5.275833591
H      -2.653694112     -3.319176898     -4.135726746
           6
  t=       163.50000    1    1
C      -4.949169482     -4.382033385     -3.991795174
C      -3.567511612     -4.114134844     -4.464531696
H      -5.063826322     -4.205405757     -3.058557336
H      -5.650865810     -4.274898331     -4.956541128
H      -3.366643429     -5.167048065     -5.243122525
H      -2.621241942     -3.299802624     -4.163515970
           6
  t=       164.00000    1    1
C      -4.952596556     -4.398672417     -4.008709869
C      -3.587446357     -4.130610201     -4.481096957
H      -5.142449528     -4.217531728     -3.028474986
H      -5.643026405     -4.260275189     -4.959731403
H      -3.405304484     -5.149090654     -5.206657307
H      -2.597070108     -3.289322231     -4.191581868
           6
  t=       164.50000    1    1
C      -4.955300255     -4.414848599     -4.026680428
C      -3.607281499     -4.147513788     -4.497902367
H      -5.225174305     -4.226286852     -2.992034762
H      -5.632455342     -4.250234005     -4.956079568
H      -3.443130550     -5.120743492     -5.167804726
H      -2.582169693     -3.288433018     -4.219792215
           6
  t=       165.00000    1    1
C      -4.957542191     -4.430433845     -4.044950024
C      -3.626921070     -4.164641820     -4.514801339
H      -5.309399129     -4.233092789     -2.956794248
H      -5.620095686     -4.245141664     -4.946981200
H      -3.479473923     -5.084027730     -5.128596770
H      -2.576873091     -3.297279723     -4.247926701
           6
  t=       165.50000    1    1
C      -4.959556863     -4.445354615     -4.062950652
C      -3.646300789     -4.181693439     -4.531567641
H      -5.392695396     -4.238902375     -2.927513511
H      -5.607155757     -4.245191149     -4.934295637
H      -3.513505686     -5.042411515     -5.092050104
H      -2.581201250     -3.315709610     -4.275813101
           6
  t=       166.00000    1    1
C      -4.961533328     -4.459580087     -4.080255207
C      -3.665373554     -4.198160268     -4.547834263
H      -5.472998514     -4.244293738     -2.906770858
H      -5.595122991     -4.250379766     -4.920330247
H      -3.544024396     -5.001957613     -5.062864811
H      -2.595241263     -3.343509367     -4.303328074
           6
  t=       166.50000    1    1
C      -4.963596257     -4.473101482     -4.096524385
C      -3.684131618     -4.213284790     -4.563064001
H      -5.548597906     -4.249592317     -2.895862542
H      -5.585788163     -4.260586054     -4.907684493
H      -3.569363162     -4.971776829     -5.047706019
H      -2.619186618     -3.380495184     -4.330354942
           6
  t=       167.00000    1    1
C      -4.965838143     -4.485929282     -4.111473151
C      -3.702584426     -4.226243710     -4.576702384
H      -5.618221698     -4.254970208     -2.895316918
H      -5.581027385     -4.275675292     -4.898907689
H      -3.587779063     -4.961860487     -5.053750531
H      -2.652961322     -3.426323545     -4.356642548
           6
  t=       167.50000    1    1
C      -4.968325507     -4.498091936     -4.124873191
C      -3.720694398     -4.236630026     -4.588474917
H      -5.680984640     -4.260440587     -2.905203899
H      -5.582613445     -4.295589047     -4.896227151
H      -3.598373798     -4.977225280     -5.085074692
H      -2.696231280     -3.480533757     -4.381808610
           6
  t=       168.00000    1    1
C      -4.971099419     -4.509641536     -4.136626519
C      -3.738344355     -4.244793536     -4.598607809
H      -5.736271950     -4.265969005     -2.925156088
H      -5.591779762     -4.320284000     -4.901137932
H      -3.602214006     -5.014013049     -5.139479142
H      -2.748218129     -3.542272933     -4.405396961
           6
  t=       168.50000    1    1
C      -4.974243233     -4.520636349     -4.146765866
C      -3.755368445     -4.251587837     -4.607697304
H      -5.783545133     -4.271517901     -2.954649241
H      -5.608918413     -4.349870814     -4.914058182
H      -3.601846093     -5.062640858     -5.210131741
H      -2.807504883     -3.610185427     -4.426851191
           6
  t=       169.00000    1    1
C      -4.977955499     -4.531109079     -4.155444647
C      -3.771691750     -4.257914202     -4.616402639
H      -5.822399385     -4.277093864     -2.992980132
H      -5.633325114     -4.384629981     -4.934006824
H      -3.599612582     -5.113916787     -5.289752690
H      -2.871384960     -3.682047140     -4.445452102
           6
  t=       169.50000    1    1
C      -4.982532887     -4.541045265     -4.162894040
C      -3.787470299     -4.264559020     -4.625277396
H      -5.852342680     -4.282809275     -3.039459536
H      -5.663275528     -4.425003239     -4.958964939
H      -3.597101968     -5.161546277     -5.372775742
H      -2.935091992     -3.754400443     -4.460123122
           6
  t=       170.00000    1    1
C      -4.988310291     -4.550414809     -4.169376684
C      -3.803158551     -4.272189874     -4.634750153
H      -5.872707387     -4.288859297     -3.093528964
H      -5.696330831     -4.471379624     -4.986479519
H      -3.595404495     -5.202106121     -5.455596943
H      -2.991236544     -3.822488305     -4.469243402
           6
  t=       170.50000    1    1
C      -4.995604408     -4.559200188     -4.175136520
C      -3.819436171     -4.281370106     -4.645169111
H      -5.882692782     -4.295479954     -3.154792576
H      -5.729992362     -4.523837551     -5.014217821
H      -3.595195179     -5.233952511     -5.535959327
H      -3.030570634     -3.881136277     -4.470742712
           6
  t=       171.00000    1    1
C      -5.004645879     -4.567428108     -4.180395580
C      -3.836914994     -4.292439211     -4.656801938
H      -5.881722749     -4.302836760     -3.222775143
H      -5.762151982     -4.582017005     -5.040251857
H      -3.596907750     -5.256403316     -5.612322854
H      -3.045306156     -3.926857455     -4.462729219
           6
  t=       171.50000    1    1
C      -5.015586755     -4.575170628     -4.185358947
C      -3.855715890     -4.305409805     -4.669802566
H      -5.869587018     -4.310963171     -3.296731856
H      -5.791214792     -4.645238284     -5.063113622
H      -3.600911773     -5.269050874     -5.683307654
H      -3.033626625     -3.959696800     -4.444517674
           6
  t=       172.00000    1    1
C      -5.028496843     -4.582531640     -4.190254529
C      -3.875343886     -4.320017121     -4.684154376
H      -5.846811362     -4.319691166     -3.375127683
H      -5.815947383     -4.712604441     -5.081758883
H      -3.607458934     -5.271674942     -5.747640793
H      -3.001054146     -3.982856450     -4.417442645
           6
  t=       172.50000    1    1
C      -5.043289661     -4.589649331     -4.195376895
C      -3.894962141     -4.335885111     -4.699676389
H      -5.815336720     -4.328429990     -3.455011622
H      -5.835518578     -4.783077179     -5.095657349
H      -3.616611213     -5.264477476     -5.804442999
H      -2.957419018     -4.000597777     -4.384511189
           6
  t=       173.00000    1    1
C      -5.059712432     -4.596704149     -4.201131558
C      -3.913835368     -4.352729922     -4.716167234
H      -5.778724336     -4.335904691     -3.531853680
H      -5.849468731     -4.855703905     -5.104539989
H      -3.628361798     -5.247766595     -5.853033778
H      -2.911399888     -4.016072337     -4.348770338
           6
  t=       173.50000    1    1
C      -5.077277691     -4.603969691     -4.208066573
C      -3.931444960     -4.370353977     -4.733466354
H      -5.742992746     -4.339821058     -3.599188600
H      -5.857785697     -4.929516158     -5.108309883
H      -3.642634355     -5.222005367     -5.892818884
H      -2.869054725     -4.031173919     -4.312759204
           6
  t=       174.00000    1    1
C      -5.095274850     -4.611847223     -4.216912378
C      -3.947423121     -4.388633138     -4.751474698
H      -5.716912819     -4.336470913     -3.648425215
H      -5.860633784     -5.003487288     -5.106722133
H      -3.659339030     -5.187620910     -5.923113102
H      -2.834387875     -4.046908070     -4.278475676
           6
  t=       174.50000    1    1
C      -5.113049122     -4.620815828     -4.228380949
C      -3.961474810     -4.407460863     -4.770132726
H      -5.709172757     -4.321584029     -3.671235079
H      -5.858245940     -5.076331105     -5.099251217
H      -3.678270929     -5.145351614     -5.943446632
H      -2.810000943     -4.063653723     -4.247469309
           6
  t=       175.00000    1    1
C      -5.130439202     -4.631192588     -4.242656533
C      -3.973442776     -4.426754582     -4.789450758
H      -5.722219579     -4.292316487     -3.665713812
H      -5.850700536     -5.147574033     -5.085151378
H      -3.699575917     -5.095197306     -5.953438086
H      -2.797018475     -4.081934202     -4.220453213
           6
  t=       175.50000    1    1
C      -5.147688280     -4.642935389     -4.259376087
C      -3.983375612     -4.446442464     -4.809378514
H      -5.751600620     -4.249859832     -3.636272156
H      -5.838370541     -5.216598110     -5.064628955
H      -3.723348574     -5.037733550     -5.952712375
H      -2.795948784     -4.101958066     -4.198110449
           6
  t=       176.00000    1    1
C      -5.165254425     -4.655671420     -4.277808272
C      -3.991475970     -4.466428306     -4.829752684
H      -5.788632274     -4.199367471     -3.591742689
H      -5.822034569     -5.282435433     -5.038553984
H      -3.749363363     -4.974537565     -5.941449202
H      -2.807049462     -4.123551219     -4.181219016
           6
  t=       176.50000    1    1
C      -5.183469919     -4.668951519     -4.297193260
C      -3.998013036     -4.486579531     -4.850341000
H      -5.825815332     -4.146690488     -3.541263038
H      -5.802968132     -5.344448694     -5.007733587
H      -3.777052813     -4.907546112     -5.921098783
H      -2.829944782     -4.146494943     -4.170205451
           6
  t=       177.00000    1    1
C      -5.202458123     -4.682421495     -4.316965217
C      -4.003208666     -4.506735626     -4.870827729
H      -5.858638623     -4.096152311     -3.491069414
H      -5.782673262     -5.402531126     -4.973306792
H      -3.805594097     -4.838903852     -5.894338678
H      -2.864353249     -4.170560943     -4.165521421
           6
  t=       177.50000    1    1
C      -5.222166128     -4.695817964     -4.336747876
C      -4.007307556     -4.526680690     -4.890715405
H      -5.884755739     -4.050637357     -3.444966420
H      -5.762735608     -5.457075030     -4.936606354
H      -3.833782296     -4.771214885     -5.865985672
H      -2.909955222     -4.195579430     -4.167623921
           6
  t=       178.00000    1    1
C      -5.242428186     -4.708940318     -4.356301380
C      -4.010607535     -4.546188127     -4.909294795
H      -5.903137179     -4.012105842     -3.405258546
H      -5.744739846     -5.508725331     -4.898879380
H      -3.860077127     -4.707191839     -5.843505527
H      -2.966161994     -4.221323047     -4.176804614
           6
  t=       178.50000    1    1
C      -5.263030566     -4.721645181     -4.375474521
C      -4.013429725     -4.565104042     -4.925749061
H      -5.913548257     -3.981750568     -3.373329083
H      -5.730117760     -5.558323366     -4.861152414
H      -3.883021449     -4.648633602     -5.836103257
H      -3.031953980     -4.247500944     -4.192983572
           6
  t=       179.00000    1    1
C      -5.283772121     -4.733845547     -4.394182590
C      -4.016054310     -4.583419852     -4.939419557
H      -5.916151317     -3.960264592     -3.349908764
H      -5.720030440     -5.606612596     -4.824161296
H      -3.901744951     -4.595678248     -5.851597389
H      -3.105936268     -4.273677552     -4.215733289
           6
  t=       179.50000    1    1
C      -5.304510700     -4.745510407     -4.412386190
C      -4.018680186     -4.601265531     -4.950244513
H      -5.911317487     -3.947972682     -3.335287515
H      -5.715264803     -5.654095900     -4.788266318
H      -3.916412973     -4.546959234     -5.891475397
H      -3.186109313     -4.299212518     -4.244121532
           6
  t=       180.00000    1    1
C      -5.325165149     -4.756658301     -4.430074104
C      -4.021507609     -4.618803182     -4.958874719
H      -5.899484950     -3.944994409     -3.329530931
H      -5.716160292     -5.700863975     -4.753528228
H      -3.927987817     -4.501215090     -5.949947109
H      -3.269314022     -4.323004553     -4.276191191
           6
  t=       180.50000    1    1
C      -5.345687489     -4.767357245     -4.447253126
C      -4.024890933     -4.636170873     -4.966403614
H      -5.881189363     -3.951270450     -3.332535117
H      -5.722539920     -5.746477635     -4.719869365
H      -3.937531683     -4.458385447     -6.017939067
H      -3.350478849     -4.343156930     -4.308087264
           6
  t=       181.00000    1    1
C      -5.366036505     -4.777708470     -4.463920472
C      -4.029376713     -4.653522179     -4.974034297
H      -5.857005943     -3.966739936     -3.344268378
H      -5.733930478     -5.790020019     -4.687200638
H      -3.945736610     -4.419309750     -6.087269540
H      -3.422788296     -4.356771731     -4.333809708
           6
  t=       181.50000    1    1
C      -5.386164956     -4.787836593     -4.480050926
C      -4.035567137     -4.671061557     -4.982852011
H      -5.827540295     -3.991326089     -3.364803255
H      -5.749823758     -5.830325011     -4.655493979
H      -3.952856643     -4.384945664     -6.152358064
H      -3.479278336     -4.360213059     -4.346263565
           6
  t=       182.00000    1    1
C      -5.406028859     -4.797879445     -4.495613251
C      -4.043819192     -4.688948248     -4.993551166
H      -5.793479365     -4.024767130     -3.394141335
H      -5.769660851     -5.866248574     -4.624819542
H      -3.958921986     -4.355955805     -6.209978012
H      -3.516061072     -4.350684304     -4.340701562
           6
  t=       182.50000    1    1
C      -5.425594030     -4.807964101     -4.510577061
C      -4.054061685     -4.707140692     -5.006229802
H      -5.755500112     -4.066733491     -3.432255103
H      -5.792814771     -5.896786600     -4.595393547
H      -3.963955513     -4.332805891     -6.258308821
H      -3.534319301     -4.328034418     -4.317949444
           6
  t=       183.00000    1    1
C      -5.444817416     -4.818211446     -4.524924260
C      -4.065903287     -4.725358900     -5.020488406
H      -5.714304773     -4.116777236     -3.478950763
H      -5.818648229     -5.921066429     -4.567534117
H      -3.968013300     -4.315882784     -6.296258460
H      -3.539107949     -4.295093012     -4.283950984
           6
  t=       183.50000    1    1
C      -5.463635451     -4.828756648     -4.538681035
C      -4.078880171     -4.743209887     -5.035761360
H      -5.670795041     -4.174018184     -3.533383610
H      -5.846582289     -5.938405212     -4.541613622
H      -3.971201885     -4.305516853     -6.323249097
H      -3.536281988     -4.256164779     -4.246184036
           6
  t=       184.00000    1    1
C      -5.481954764     -4.839764925     -4.551939710
C      -4.092636809     -4.760330891     -5.051584707
H      -5.626130613     -4.236980357     -3.593762648
H      -5.876219268     -5.948356094     -4.518070779
H      -3.973647379     -4.302017832     -6.338918374
H      -3.530302199     -4.215216716     -4.210791505
           6
  t=       184.50000    1    1
C      -5.499652339     -4.851446245     -4.564891201
C      -4.106963113     -4.776454012     -5.067670409
H      -5.581646616     -4.303358399     -3.656994903
H      -5.907360145     -5.950783085     -4.497409423
H      -3.975472897     -4.305637018     -6.342988106
H      -3.523878532     -4.175129147     -4.181797963
           6
  t=       185.00000    1    1
C      -5.516600177     -4.864072692     -4.577886737
C      -4.121747668     -4.791401360     -5.083857278
H      -5.538490756     -4.369742062     -3.718068314
H      -5.939959193     -5.945893850     -4.480132813
H      -3.976818683     -4.316526463     -6.335490635
H      -3.518621530     -4.137830230     -4.161415448
           6
  t=       185.50000    1    1
C      -5.532697186     -4.877972728     -4.591487090
C      -4.136934307     -4.805050708     -5.100017931
H      -5.497191076     -4.431470027     -3.769455583
H      -5.974120351     -5.934411027     -4.466708631
H      -3.977748239     -4.334674344     -6.317066221
H      -3.515709598     -4.104813022     -4.150899148
           6
  t=       186.00000    1    1
C      -5.547909112     -4.893446823     -4.606366196
C      -4.152494001     -4.817331274     -5.116052066
H      -5.457455655     -4.483483084     -3.802078365
H      -6.010078405     -5.917615984     -4.457507384
H      -3.978211256     -4.359880461     -6.288979640
H      -3.516004179     -4.077318721     -4.150856922
           6
  t=       186.50000    1    1
C      -5.562260547     -4.910613395     -4.622981861
C      -4.168401332     -4.828207400     -5.131905914
H      -5.418563699     -4.522726695     -3.809174299
H      -6.048137913     -5.896837669     -4.452748975
H      -3.978089334     -4.391884100     -6.252732640
H      -3.520049788     -4.056347431     -4.161515091
           6
  t=       187.00000    1    1
C      -5.575736742     -4.929251645     -4.641180828
C      -4.184644294     -4.837685005     -5.147527302
H      -5.380336729     -4.550102985     -3.791235895
H      -6.088717633     -5.873478189     -4.452586572
H      -3.977176864     -4.430238117     -6.210134406
H      -3.528130565     -4.042602549     -4.182866646
           6
  t=       187.50000    1    1
C      -5.588180775     -4.948880038     -4.660254437
C      -4.201238461     -4.845816759     -5.162774537
H      -5.344073374     -4.569475408     -3.755598594
H      -6.132452769     -5.849128189     -4.457129683
H      -3.975087006     -4.474095273     -6.164007354
H      -3.540383743     -4.036587412     -4.214776728
           6
  t=       188.00000    1    1
C      -5.599352097     -4.968999986     -4.679419091
C      -4.218239749     -4.852706641     -5.177360351
H      -5.311860322     -4.584939852     -3.710995548
H      -6.180074126     -5.825355337     -4.466333550
H      -3.971130397     -4.522124639     -6.118716695
H      -3.556881255     -4.038671430     -4.256951817
           6
  t=       188.50000    1    1
C      -5.609025454     -4.989227972     -4.698073295
C      -4.235753065     -4.858494582     -5.190821791
H      -5.285683808     -4.599586562     -3.664389846
H      -6.232180599     -5.803353858     -4.480014187
H      -3.964044466     -4.572572846     -6.080540271
H      -3.577734538     -4.049225985     -4.309018586
           6
  t=       189.00000    1    1
C      -5.617050002     -5.009301881     -4.715800777
C      -4.253941025     -4.863345390     -5.202611733
H      -5.267034492     -4.615555897     -3.620778601
H      -6.288950031     -5.783720629     -4.497965895
H      -3.951929742     -4.623693437     -6.056772426
H      -3.603034278     -4.068419792     -4.370370807
           6
  t=       189.50000    1    1
C      -5.623372670     -5.029074622     -4.732313700
C      -4.272971253     -4.867398758     -5.212314725
H      -5.256918643     -4.634073787     -3.583491090
H      -6.349957943     -5.766410525     -4.520155604
H      -3.932876320     -4.674573763     -6.053694075
H      -3.632743624     -4.096072844     -4.439811501
           6
  t=       190.00000    1    1
C      -5.628058902     -5.048498238     -4.747417834
C      -4.292900061     -4.870725583     -5.219934509
H      -5.255867075     -4.655615963     -3.554449190
H      -6.414058888     -5.750777138     -4.546739605
H      -3.906294530     -4.725818862     -6.073539590
H      -3.666616089     -4.131477417     -4.515297929
           6
  t=       190.50000    1    1
C      -5.631294324     -5.067590157     -4.760983200
C      -4.313605214     -4.873372680     -5.226029247
H      -5.263804524     -4.680285383     -3.534645911
H      -6.479462030     -5.735766599     -4.578025168
H      -3.873907264     -4.779146265     -6.112611355
H      -3.704039517     -4.173101405     -4.594125327
           6
  t=       191.00000    1    1
C      -5.633353792     -5.086387179     -4.772902760
C      -4.334856747     -4.875490046     -5.231512846
H      -5.280202922     -4.707947786     -3.524673444
H      -6.544072224     -5.720403019     -4.614407308
H      -3.839204506     -4.836037759     -6.163831815
H      -3.743612242     -4.218347356     -4.672769660
           6
  t=       191.50000    1    1
C      -5.634529767     -5.104925710     -4.783076052
C      -4.356520145     -4.877432639     -5.237409334
H      -5.304324798     -4.738589544     -3.524823097
H      -6.605994403     -5.703866421     -4.656259199
H      -3.805817297     -4.897135744     -6.220079759
H      -3.782453722     -4.262743126     -4.746682760
           6
  t=       192.00000    1    1
C      -5.635096409     -5.123239978     -4.791455066
C      -4.378713954     -4.879792318     -5.244664065
H      -5.335362213     -4.772232824     -3.535156225
H      -6.663603712     -5.685514013     -4.703639027
H      -3.776511477     -4.962086260     -6.275949324
H      -3.815551538     -4.299803028     -4.810458466
           6
  t=       192.50000    1    1
C      -5.635340705     -5.141378218     -4.798113592
C      -4.401780898     -4.883283982     -5.254003803
H      -5.372508955     -4.808488346     -3.555407018
H      -6.715156313     -5.664974242     -4.756109128
H      -3.753321559     -5.029721171     -6.327991895
H      -3.835917824     -4.322362783     -4.858709735
           6
  t=       193.00000    1    1
C      -5.635596756     -5.159401496     -4.803163126
C      -4.425924248     -4.888395390     -5.265819345
H      -5.414970802     -4.846774029     -3.585152181
H      -6.758928143     -5.642130088     -4.813040344
H      -3.737747315     -5.098659490     -6.374051044
H      -3.838167931     -4.325962857     -4.888660307
           6
  t=       193.50000    1    1
C      -5.636206423     -5.177376661     -4.806727534
C      -4.450904670     -4.895107010     -5.280073497
H      -5.461838723     -4.886555439     -3.623706558
H      -6.793507116     -5.617000622     -4.873748306
H      -3.730629350     -5.167688466     -6.412921492
H      -3.822560696     -4.311767550     -4.901852196
           6
  t=       194.00000    1    1
C      -5.637492352     -5.195374312     -4.808973391
C      -4.476076763     -4.902980806     -5.296436986
H      -5.512178976     -4.927222599     -3.669793522
H      -6.817841620     -5.589777299     -4.937472463
H      -3.732361815     -5.235753761     -6.444027704
H      -3.794533157     -4.285627986     -4.902836795
           6
  t=       194.50000    1    1
C      -5.639739842     -5.213459571     -4.810145180
C      -4.500685385     -4.911469353     -5.314512353
H      -5.565087061     -4.968030404     -3.721207305
H      -6.831324451     -5.560899836     -5.003369262
H      -3.743045264     -5.301864196     -6.467072727
H      -3.761094951     -4.254587693     -4.896783198
           6
  t=       195.00000    1    1
C      -5.643196047     -5.231696014     -4.810580994
C      -4.524088239     -4.920135829     -5.333983830
H      -5.619727152     -5.008041725     -3.774591030
H      -6.833714183     -5.531035864     -5.070610406
H      -3.762724117     -5.365141981     -6.481936938
H      -3.727987333     -4.224241442     -4.887730165
           6
  t=       195.50000    1    1
C      -5.648040972     -5.250157375     -4.810751493
C      -4.545832409     -4.928709230     -5.354639110
H      -5.675481419     -5.046070768     -3.824957816
H      -6.825176364     -5.500975247     -5.138433800
H      -3.791391005     -5.424834327     -6.488672126
H      -3.698921851     -4.198088553     -4.878296434
           6
  t=       196.00000    1    1
C      -5.654353877     -5.268922515     -4.811237035
C      -4.565643240     -4.937057340     -5.376335760
H      -5.732161871     -5.080781295     -3.866046824
H      -6.806244137     -5.471527225     -5.206181137
H      -3.828962826     -5.480206392     -6.487357917
H      -3.675964727     -4.178026632     -4.870103356
           6
  t=       196.50000    1    1
C      -5.662102769     -5.288046367     -4.812612641
C      -4.583382560     -4.945145993     -5.398959807
H      -5.790078941     -5.110904199     -3.891851385
H      -6.777646148     -5.443544931     -5.273342883
H      -3.875388848     -5.530436287     -6.478029526
H      -3.660155249     -4.165046084     -4.864138238
           6
  t=       197.00000    1    1
C      -5.671162406     -5.307525124     -4.815267533
C      -4.599017006     -4.952999120     -5.422383328
H      -5.849776377     -5.135712349     -3.898854877
H      -6.740363579     -5.417871647     -5.339546082
H      -3.930541167     -5.574700289     -6.460808768
H      -3.651986258     -4.159614694     -4.861055270
           6
  t=       197.50000    1    1
C      -5.681372238     -5.327272492     -4.819251219
C      -4.612598539     -4.960672138     -5.446440688
H      -5.911435178     -5.155357532     -3.887856820
H      -6.695682634     -5.395297147     -5.404504228
H      -3.994073306     -5.612269158     -6.436068380
H      -3.651630968     -4.161888048     -4.861352434
           6
  t=       198.00000    1    1
C      -5.692603651     -5.347137568     -4.824312890
C      -4.624232808     -4.968224102     -5.470922136
H      -5.974419118     -5.170747811     -3.863359290
H      -6.645195363     -5.376534493     -5.467982137
H      -4.065303035     -5.642602718     -6.404534805
H      -3.659089397     -4.171879652     -4.865524301
           6
  t=       198.50000    1    1
C      -5.704756660     -5.366940836     -4.830074528
C      -4.634079706     -4.975694132     -5.495556502
H      -6.037355819     -5.183138531     -3.831468693
H      -6.590841493     -5.362223458     -5.529831120
H      -4.143107235     -5.665555161     -6.367467385
H      -3.674203490     -4.189513096     -4.874089276
           6
  t=       199.00000    1    1
C      -5.717739250     -5.386509849     -4.836194754
C      -4.642330606     -4.983077886     -5.520008787
H      -6.098615230     -5.193745643     -3.797869117
H      -6.534771055     -5.352912766     -5.589987951
H      -4.225950336     -5.681536415     -6.326720668
H      -3.696804919     -4.214720326     -4.887631499
           6
  t=       199.50000    1    1
C      -5.731438504     -5.405700968     -4.842438232
C      -4.649245875     -4.990289850     -5.543862854
H      -6.156741755     -5.203534559     -3.766958113
H      -6.479000737     -5.348998294     -5.648434571
H      -4.311760347     -5.692019839     -6.285140435
H      -3.726647616     -4.247397228     -4.906688402
           6
  t=       200.00000    1    1
C      -5.745716661     -5.424399519     -4.848696845
C      -4.655167007     -4.997129092     -5.566596756
H      -6.210651139     -5.213195104     -3.741778523
H      -6.425067315     -5.350711938     -5.705046869
H      -4.398056598     -5.700057864     -6.246844727
H      -3.763332100     -4.287330288     -4.931730869
